41
Lattice="14.3075986105 0.0 0.0 0.0 24.7814877277 0.0 0.0 0.0 30.0000000000" Properties=species:S:1:pos:R:3:label:S:1:lig_id:I:1:sd_fixed:L:1 case=mol-meo-2pacz pbc="T T T"
O 3.72222267 20.33128388 16.59243136 mol 2 F
O 13.70385989 19.69334503 11.92875393 mol 19 F
O 0.77500751 17.64831363 12.75866472 mol 20 F
O 13.59750663 17.30310289 10.78567089 mol 21 F
O 13.89567153 13.64889523 18.58836139 mol 37 F
P 13.71658961 18.22083400 12.10478536 mol 18 F
N 13.12513104 18.08812596 15.39175248 mol 15 F
C 4.61213382 19.65602975 17.46419911 mol 1 F
C 2.51317313 19.74875842 16.32865233 mol 3 F
C 1.68414931 20.47928658 15.45217312 mol 4 F
C 0.42590332 20.02151584 15.08818117 mol 5 F
C 14.30068409 18.80004699 15.61928195 mol 6 F
C 0.81914007 18.06040124 16.49985705 mol 7 F
C 2.08532130 18.53354190 16.85465038 mol 8 F
C 0.08482964 16.87127042 16.85826390 mol 9 F
C 0.38209355 15.77807519 17.68457222 mol 10 F
C 13.74032474 14.77013810 17.81933056 mol 11 F
C 12.50891361 14.85347937 17.13676577 mol 12 F
C 12.20663144 15.92945662 16.31849777 mol 13 F
C 13.15564488 16.94269016 16.18007614 mol 14 F
C 12.11860361 18.36937625 14.38747974 mol 16 F
C 12.32383056 17.58436842 13.07742377 mol 17 F
C 0.80064871 13.49308018 19.30391038 mol 38 F
H 4.89891622 18.67439177 17.06776559 mol 22 F
H 5.49761308 20.28576835 17.53407865 mol 23 F
H 4.17896534 19.52762258 18.46359601 mol 24 F
H 2.06131720 21.41971799 15.06740124 mol 25 F
H 14.13761880 20.58391979 14.37987627 mol 26 F
H 2.70799824 17.95456101 17.52438909 mol 27 F
H 1.33454798 15.73668768 18.19676609 mol 28 F
H 11.25233930 15.96908754 15.80356837 mol 29 F
H 12.11288947 19.44144454 14.18831500 mol 30 F
H 11.14095441 18.12044973 14.80743478 mol 31 F
H 11.43657506 17.68447288 12.44500362 mol 32 F
H 12.47675785 16.52230195 13.27709682 mol 33 F
H 1.27844011 17.07966214 12.15624352 mol 34 F
H 13.42192891 17.79052045 9.97135239 mol 35 F
H 11.80282642 14.04248669 17.27325590 mol 36 F
H 1.66476044 13.45111565 18.62987376 mol 39 F
H 0.94879920 14.30291205 20.02864761 mol 40 F
H 0.71495064 12.54613938 19.83472376 mol 41 F
