mol-meo-2pacz O P N C H
1.0
  14.3075986105  0.0000000000  0.0000000000
  0.0000000000  24.7814877277  0.0000000000
  0.0000000000  0.0000000000  30.0000000000
  O  P  N  C  H
  5  1  1  16  18
Cartesian
  3.72222267  20.33128388  16.59243136
  13.70385989  19.69334503  11.92875393
  0.77500751  17.64831363  12.75866472
  13.59750663  17.30310289  10.78567089
  13.89567153  13.64889523  18.58836139
  13.71658961  18.22083400  12.10478536
  13.12513104  18.08812596  15.39175248
  4.61213382  19.65602975  17.46419911
  2.51317313  19.74875842  16.32865233
  1.68414931  20.47928658  15.45217312
  0.42590332  20.02151584  15.08818117
  14.30068409  18.80004699  15.61928195
  0.81914007  18.06040124  16.49985705
  2.08532130  18.53354190  16.85465038
  0.08482964  16.87127042  16.85826390
  0.38209355  15.77807519  17.68457222
  13.74032474  14.77013810  17.81933056
  12.50891361  14.85347937  17.13676577
  12.20663144  15.92945662  16.31849777
  13.15564488  16.94269016  16.18007614
  12.11860361  18.36937625  14.38747974
  12.32383056  17.58436842  13.07742377
  0.80064871  13.49308018  19.30391038
  4.89891622  18.67439177  17.06776559
  5.49761308  20.28576835  17.53407865
  4.17896534  19.52762258  18.46359601
  2.06131720  21.41971799  15.06740124
  14.13761880  20.58391979  14.37987627
  2.70799824  17.95456101  17.52438909
  1.33454798  15.73668768  18.19676609
  11.25233930  15.96908754  15.80356837
  12.11288947  19.44144454  14.18831500
  11.14095441  18.12044973  14.80743478
  11.43657506  17.68447288  12.44500362
  12.47675785  16.52230195  13.27709682
  1.27844011  17.07966214  12.15624352
  13.42192891  17.79052045  9.97135239
  11.80282642  14.04248669  17.27325590
  1.66476044  13.45111565  18.62987376
  0.94879920  14.30291205  20.02864761
  0.71495064  12.54613938  19.83472376
