LAMMPS data file Created by LigParGen - (Written by Leela S. Dodda)

      76 atoms
      81 bonds
     142 angles
     220 dihedrals
      46 impropers
 
      76 atom types
      81 bond types
     142 angle types
     220 dihedral types
      46 improper types
 
  -18.615580    31.384420 xlo xhi
   -0.224110    49.775890 ylo yhi
   -2.543450    47.456550 zlo zhi

Masses

       1     15.999  
       2     30.974  
       3     12.011  
       4     12.011  
       5     12.011  
       6     12.011  
       7     14.007  
       8     12.011  
       9     12.011  
      10     12.011  
      11     12.011  
      12     12.011  
      13     12.011  
      14     12.011  
      15     12.011  
      16     12.011  
      17     12.011  
      18     12.011  
      19     12.011  
      20     12.011  
      21     12.011  
      22     12.011  
      23     12.011  
      24     14.007  
      25     12.011  
      26     12.011  
      27     12.011  
      28     12.011  
      29     30.974  
      30     15.999  
      31     15.999  
      32     15.999  
      33     12.011  
      34     12.011  
      35     12.011  
      36     12.011  
      37     12.011  
      38     12.011  
      39     12.011  
      40     12.011  
      41     15.999  
      42     15.999  
      43      1.008  
      44      1.008  
      45      1.008  
      46      1.008  
      47      1.008  
      48      1.008  
      49      1.008  
      50      1.008  
      51      1.008  
      52      1.008  
      53      1.008  
      54      1.008  
      55      1.008  
      56      1.008  
      57      1.008  
      58      1.008  
      59      1.008  
      60      1.008  
      61      1.008  
      62      1.008  
      63      1.008  
      64      1.008  
      65      1.008  
      66      1.008  
      67      1.008  
      68      1.008  
      69      1.008  
      70      1.008  
      71      1.008  
      72      1.008  
      73      1.008  
      74      1.008  
      75      1.008  
      76      1.008  

Pair Coeffs 

       1      0.170  3.1200000 
       2      0.200  3.7400000 
       3      0.066  3.5000000 
       4      0.066  3.5000000 
       5      0.066  3.5000000 
       6      0.066  3.5000000 
       7      0.170  3.2500000 
       8      0.080  3.5000000 
       9      0.070  3.5500000 
      10      0.070  3.5500000 
      11      0.080  3.5000000 
      12      0.070  3.5500000 
      13      0.070  3.5500000 
      14      0.070  3.5500000 
      15      0.070  3.5500000 
      16      0.070  3.5500000 
      17      0.070  3.5500000 
      18      0.070  3.5500000 
      19      0.070  3.5500000 
      20      0.070  3.5500000 
      21      0.080  3.5000000 
      22      0.070  3.5500000 
      23      0.070  3.5500000 
      24      0.170  3.2500000 
      25      0.066  3.5000000 
      26      0.066  3.5000000 
      27      0.066  3.5000000 
      28      0.066  3.5000000 
      29      0.200  3.7400000 
      30      0.210  2.9600000 
      31      0.170  3.1200000 
      32      0.170  3.1200000 
      33      0.080  3.5000000 
      34      0.070  3.5500000 
      35      0.070  3.5500000 
      36      0.070  3.5500000 
      37      0.070  3.5500000 
      38      0.070  3.5500000 
      39      0.070  3.5500000 
      40      0.070  3.5500000 
      41      0.170  3.1200000 
      42      0.210  2.9600000 
      43      0.000  0.0000000 
      44      0.030  2.5000000 
      45      0.030  2.5000000 
      46      0.030  2.5000000 
      47      0.030  2.5000000 
      48      0.030  2.5000000 
      49      0.030  2.5000000 
      50      0.030  2.5000000 
      51      0.030  2.5000000 
      52      0.030  2.4200000 
      53      0.030  2.4200000 
      54      0.030  2.4200000 
      55      0.030  2.4200000 
      56      0.030  2.4200000 
      57      0.030  2.4200000 
      58      0.030  2.4200000 
      59      0.030  2.4200000 
      60      0.030  2.5000000 
      61      0.030  2.5000000 
      62      0.030  2.5000000 
      63      0.030  2.5000000 
      64      0.030  2.5000000 
      65      0.030  2.5000000 
      66      0.030  2.5000000 
      67      0.030  2.5000000 
      68      0.000  0.0000000 
      69      0.000  0.0000000 
      70      0.030  2.4200000 
      71      0.030  2.4200000 
      72      0.030  2.4200000 
      73      0.030  2.4200000 
      74      0.030  2.4200000 
      75      0.030  2.4200000 
      76      0.000  0.0000000 

Bond Coeffs 

       1   230.0000     1.6100 
       2   212.0000     1.8430 
       3   268.0000     1.5290 
       4   268.0000     1.5290 
       5   268.0000     1.5290 
       6   337.0000     1.4750 
       7   436.0000     1.3740 
       8   469.0000     1.4240 
       9   469.0000     1.4240 
      10   436.0000     1.3740 
      11   469.0000     1.4040 
      12   469.0000     1.4000 
      13   469.0000     1.4000 
      14   469.0000     1.4000 
      15   469.0000     1.4000 
      16   469.0000     1.4000 
      17   385.0000     1.4600 
      18   469.0000     1.4000 
      19   469.0000     1.4000 
      20   469.0000     1.4240 
      21   469.0000     1.4040 
      22   469.0000     1.4000 
      23   436.0000     1.3740 
      24   337.0000     1.4750 
      25   268.0000     1.5290 
      26   268.0000     1.5290 
      27   268.0000     1.5290 
      28   212.0000     1.8430 
      29   525.0000     1.4800 
      30   230.0000     1.6100 
      31   230.0000     1.6100 
      32   436.0000     1.3740 
      33   469.0000     1.4240 
      34   469.0000     1.4000 
      35   469.0000     1.4000 
      36   469.0000     1.4000 
      37   469.0000     1.4040 
      38   469.0000     1.4000 
      39   469.0000     1.4040 
      40   230.0000     1.6100 
      41   525.0000     1.4800 
      42   553.0000     0.9450 
      43   340.0000     1.0900 
      44   340.0000     1.0900 
      45   340.0000     1.0900 
      46   340.0000     1.0900 
      47   340.0000     1.0900 
      48   340.0000     1.0900 
      49   340.0000     1.0900 
      50   340.0000     1.0900 
      51   367.0000     1.0800 
      52   367.0000     1.0800 
      53   367.0000     1.0800 
      54   367.0000     1.0800 
      55   367.0000     1.0800 
      56   367.0000     1.0800 
      57   367.0000     1.0800 
      58   367.0000     1.0800 
      59   340.0000     1.0900 
      60   340.0000     1.0900 
      61   340.0000     1.0900 
      62   340.0000     1.0900 
      63   340.0000     1.0900 
      64   340.0000     1.0900 
      65   340.0000     1.0900 
      66   340.0000     1.0900 
      67   553.0000     0.9450 
      68   553.0000     0.9450 
      69   367.0000     1.0800 
      70   367.0000     1.0800 
      71   367.0000     1.0800 
      72   367.0000     1.0800 
      73   367.0000     1.0800 
      74   367.0000     1.0800 
      75   553.0000     0.9450 
      76   469.0000     1.4240 
      77   469.0000     1.4000 
      78   469.0000     1.4000 
      79   469.0000     1.4240 
      80   469.0000     1.4000 
      81   469.0000     1.4000 

Angle Coeffs 

       1     63.570    108.400
       2     43.000    109.500
       3     58.350    112.700
       4     58.350    112.700
       5     51.650    110.580
       6     70.000    125.800
       7     70.000    107.700
       8     70.000    107.300
       9     70.000    125.800
      10     70.000    108.700
      11     63.000    120.000
      12     63.000    120.000
      13     63.000    120.000
      14     63.000    120.000
      15     63.000    120.000
      16     63.000    120.000
      17     63.000    120.000
      18     63.000    120.000
      19     63.000    120.000
      20     85.000    134.900
      21     63.000    120.000
      22     70.000    107.700
      23     70.000    125.800
      24     51.650    110.580
      25     58.350    112.700
      26     58.350    112.700
      27     43.000    109.500
      28     45.000    109.500
      29     63.570    108.400
      30     63.570    108.400
      31     70.000    125.200
      32     63.000    120.000
      33     63.000    120.000
      34     63.000    120.000
      35     63.000    120.000
      36     70.000    108.700
      37     63.000    120.000
      38     70.000    108.700
      39     45.000    102.600
      40    100.000    108.230
      41     55.000    108.500
      42     41.000    109.500
      43     41.000    109.500
      44     37.500    110.700
      45     37.500    110.700
      46     37.500    110.700
      47     37.500    110.700
      48     37.500    110.700
      49     37.500    110.700
      50     35.000    120.000
      51     35.000    120.000
      52     35.000    120.000
      53     35.000    120.000
      54     35.000    120.000
      55     35.000    120.000
      56     35.000    120.000
      57     35.000    120.000
      58     35.000    109.500
      59     35.000    109.500
      60     37.500    110.700
      61     37.500    110.700
      62     37.500    110.700
      63     37.500    110.700
      64     37.500    110.700
      65     37.500    110.700
      66     55.000    108.500
      67     55.000    108.500
      68     35.000    120.000
      69     35.000    120.000
      70     35.000    120.000
      71     35.000    120.000
      72     35.000    120.000
      73     35.000    120.000
      74     55.000    108.500
      75     70.000    107.300
      76    100.000    108.230
      77     63.000    120.000
      78     63.000    120.000
      79     70.000    125.200
      80     63.000    120.000
      81     35.000    120.000
      82     33.000    107.800
      83     63.000    120.000
      84     35.000    120.000
      85     85.000    134.900
      86     37.500    110.700
      87     35.000    120.000
      88     63.000    120.000
      89     35.000    109.500
      90     63.000    120.000
      91     35.000    109.500
      92     35.000    120.000
      93     70.000    125.800
      94     35.000    120.000
      95    100.000    108.230
      96     63.570    108.400
      97     33.000    107.800
      98     37.500    110.700
      99     63.000    120.000
     100     37.500    110.700
     101     33.000    107.800
     102     37.500    110.700
     103     35.000    120.000
     104     85.000    134.900
     105     33.000    107.800
     106     35.000    120.000
     107     70.000    107.700
     108     70.000    108.700
     109     85.000    134.900
     110     35.000    120.000
     111     41.000    109.500
     112     37.500    110.700
     113     45.000    102.600
     114     63.000    120.000
     115     37.500    110.700
     116     63.000    120.000
     117     37.500    110.700
     118     37.500    110.700
     119     63.000    120.000
     120     35.000    120.000
     121     33.000    107.800
     122     37.500    110.700
     123     35.000    120.000
     124     70.000    107.300
     125     45.000    109.500
     126     35.000    120.000
     127     33.000    107.800
     128     35.000    120.000
     129     35.000    120.000
     130     37.500    110.700
     131     41.000    109.500
     132     70.000    107.700
     133    100.000    108.230
     134     37.500    110.700
     135     70.000    107.300
     136     63.000    120.000
     137     33.000    107.800
     138     35.000    120.000
     139     33.000    107.800
     140     63.000    120.000
     141     37.500    110.700
     142     63.000    120.000

Dihedral Coeffs  

       1      2.250      0.000      0.000      0.000 
       2      0.845     -0.962      0.713      0.000 
       3      1.300     -0.200      0.200      0.000 
       4      2.392     -0.674      0.550      0.000 
       5      1.000     -0.350      0.000      0.000 
       6      0.000      7.250      0.000      0.000 
       7      0.000      2.170      0.000      0.000 
       8      0.000      7.000      0.000      0.000 
       9      0.000      7.250      0.000      0.000 
      10      0.000      7.250      0.000      0.000 
      11      0.000      7.250      0.000      0.000 
      12      0.000      2.170      0.000      0.000 
      13      0.000      7.250      0.000      0.000 
      14      0.000      7.250      0.000      0.000 
      15      0.000      7.250      0.000      0.000 
      16      0.000      7.250      0.000      0.000 
      17      1.000     -0.350      0.000      0.000 
      18      2.392     -0.674      0.550      0.000 
      19      1.300     -0.200      0.200      0.000 
      20      0.845     -0.962      0.713      0.000 
      21      2.250      0.000      0.000      0.000 
      22      0.000      2.170      0.000      0.000 
      23      0.000      7.250      0.000      0.000 
      24      1.500      5.500      0.000      0.000 
      25      1.500      5.500      0.000      0.000 
      26      1.500      5.500      0.000      0.000 
      27      0.000      0.000      0.000      0.000 
      28      0.000      7.250      0.000      0.000 
      29      0.000      0.000      0.300      0.000 
      30      0.000      0.000      0.300      0.000 
      31      0.000      0.000      0.000      0.000 
      32      0.000      7.250      0.000      0.000 
      33      0.000      7.000      0.000      0.000 
      34      0.000      0.000      0.300      0.000 
      35      0.000      7.250      0.000      0.000 
      36      0.000      7.250      0.000      0.000 
      37      0.000      7.250      0.000      0.000 
      38      0.000      7.250      0.000      0.000 
      39      0.000      0.000      0.300      0.000 
      40      0.000      7.250      0.000      0.000 
      41      0.000      0.000      0.300      0.000 
      42      0.000      0.000      0.000      0.000 
      43      0.000      7.250      0.000      0.000 
      44      0.000      7.250      0.000      0.000 
      45      0.000      7.250      0.000      0.000 
      46      1.000     -0.350      0.000      0.000 
      47      0.000      0.000      0.300      0.000 
      48     -1.013     -0.709      0.473      0.000 
      49      0.000      0.000      0.250      0.000 
      50      0.000      0.000      0.000      0.000 
      51      0.000      2.170      0.000      0.000 
      52      0.000      0.000      0.250      0.000 
      53      0.000      2.170      0.000      0.000 
      54      0.000      0.000      0.300      0.000 
      55      2.250      0.000      0.000      0.000 
      56      0.000      7.250      0.000      0.000 
      57      0.000      0.000      0.300      0.000 
      58      0.000      0.000      0.300      0.000 
      59      0.000      0.000      0.300      0.000 
      60      0.000      7.250      0.000      0.000 
      61     -1.013     -0.709      0.473      0.000 
      62      0.000      7.250      0.000      0.000 
      63      0.000      7.250      0.000      0.000 
      64      0.000      0.000      0.000      0.000 
      65      0.000      0.000      0.000      0.000 
      66      0.000      7.250      0.000      0.000 
      67      0.000      0.000      0.300      0.000 
      68      0.000      7.250      0.000      0.000 
      69      0.000      7.250      0.000      0.000 
      70      0.000      0.000      0.300      0.000 
      71      0.000      0.000      0.300      0.000 
      72      0.000      7.250      0.000      0.000 
      73      0.000      0.000      0.000      0.000 
      74      0.000      7.250      0.000      0.000 
      75      0.000      0.000      0.300      0.000 
      76      0.000      7.250      0.000      0.000 
      77      0.000      7.250      0.000      0.000 
      78      0.000      7.250      0.000      0.000 
      79      0.000      7.250      0.000      0.000 
      80      0.000      7.250      0.000      0.000 
      81      0.000      0.000      0.000      0.000 
      82      0.000      7.250      0.000      0.000 
      83      0.000      7.250      0.000      0.000 
      84      0.000      0.000      0.250      0.000 
      85      0.000      0.000      0.300      0.000 
      86      0.000      7.250      0.000      0.000 
      87      0.000      0.000      0.300      0.000 
      88      0.000      2.170      0.000      0.000 
      89      0.000      2.170      0.000      0.000 
      90      0.000      7.250      0.000      0.000 
      91      0.000      7.250      0.000      0.000 
      92      0.000      0.000      0.000      0.000 
      93      0.000      0.000      0.300      0.000 
      94      0.000      0.000      0.300      0.000 
      95      0.000      7.250      0.000      0.000 
      96      0.000      0.000      0.300      0.000 
      97      0.000      7.250      0.000      0.000 
      98      0.000      7.250      0.000      0.000 
      99      0.000      2.170      0.000      0.000 
     100      0.000      7.250      0.000      0.000 
     101      0.000      0.000      0.300      0.000 
     102      0.000      7.250      0.000      0.000 
     103      0.000      2.170      0.000      0.000 
     104      0.000      7.250      0.000      0.000 
     105      0.000      7.250      0.000      0.000 
     106      0.000      7.250      0.000      0.000 
     107      0.000      0.000      0.250      0.000 
     108      0.000      7.250      0.000      0.000 
     109      0.000      0.000      0.250      0.000 
     110      0.000      7.250      0.000      0.000 
     111      0.000      7.250      0.000      0.000 
     112      0.000      2.170      0.000      0.000 
     113      0.000      2.170      0.000      0.000 
     114      0.000      7.250      0.000      0.000 
     115      0.000      0.000      0.300      0.000 
     116     -1.013     -0.709      0.473      0.000 
     117      0.000      7.250      0.000      0.000 
     118      0.000      0.000      0.300      0.000 
     119      0.000      7.250      0.000      0.000 
     120      0.000      0.000      0.300      0.000 
     121      0.000      2.170      0.000      0.000 
     122      0.000      7.250      0.000      0.000 
     123      0.000      7.250      0.000      0.000 
     124      0.000      0.000      0.250      0.000 
     125      0.000      7.250      0.000      0.000 
     126      0.000      0.000      0.250      0.000 
     127      0.000      7.250      0.000      0.000 
     128      1.000     -0.350      0.000      0.000 
     129      0.000      0.000      0.300      0.000 
     130      0.000      7.250      0.000      0.000 
     131      0.000      0.000      0.250      0.000 
     132      0.000      7.250      0.000      0.000 
     133      0.000      7.250      0.000      0.000 
     134      0.000      0.000      0.250      0.000 
     135      0.000      0.000      0.300      0.000 
     136      0.000      7.250      0.000      0.000 
     137      2.250      0.000      0.000      0.000 
     138      0.000      7.250      0.000      0.000 
     139      0.000      7.250      0.000      0.000 
     140      0.000      0.000      0.300      0.000 
     141      0.000      2.170      0.000      0.000 
     142      0.000      7.250      0.000      0.000 
     143      0.000      2.170      0.000      0.000 
     144      0.000      7.250      0.000      0.000 
     145      0.000      7.000      0.000      0.000 
     146      0.000      0.000      0.000      0.000 
     147      0.000      7.250      0.000      0.000 
     148      2.250      0.000      0.000      0.000 
     149      0.000      0.000      0.300      0.000 
     150      0.000      0.000      0.300      0.000 
     151      0.000      0.000      0.300      0.000 
     152      0.000      7.250      0.000      0.000 
     153      0.000      0.000      0.000      0.000 
     154      0.000      7.250      0.000      0.000 
     155      0.000      7.250      0.000      0.000 
     156      0.000      0.000      0.250      0.000 
     157      0.000      0.000      0.300      0.000 
     158      0.000      7.250      0.000      0.000 
     159      0.000      7.250      0.000      0.000 
     160      0.000      7.250      0.000      0.000 
     161      0.000      7.250      0.000      0.000 
     162      0.000      2.170      0.000      0.000 
     163      0.000      7.250      0.000      0.000 
     164      1.500      5.500      0.000      0.000 
     165     -1.013     -0.709      0.473      0.000 
     166      0.000      7.000      0.000      0.000 
     167      0.000      7.000      0.000      0.000 
     168      0.000      7.250      0.000      0.000 
     169      0.000      7.250      0.000      0.000 
     170      0.000      0.000      0.300      0.000 
     171      0.000      0.000      0.250      0.000 
     172      0.000      7.000      0.000      0.000 
     173      0.000      0.000      0.000      0.000 
     174      0.000      2.170      0.000      0.000 
     175      0.000      2.170      0.000      0.000 
     176      0.000      7.250      0.000      0.000 
     177      0.000      7.250      0.000      0.000 
     178      0.000      0.000      0.000      0.000 
     179      0.000      0.000      0.000      0.000 
     180      0.000      7.250      0.000      0.000 
     181      0.000      0.000      0.300      0.000 
     182      0.000      7.250      0.000      0.000 
     183      0.000      0.000      0.300      0.000 
     184      0.000      0.000      0.300      0.000 
     185      0.000      7.250      0.000      0.000 
     186      0.000      0.000      0.300      0.000 
     187      0.000      7.250      0.000      0.000 
     188      0.000      7.250      0.000      0.000 
     189      0.000      7.250      0.000      0.000 
     190      0.000      0.000      0.300      0.000 
     191      0.000      0.000      0.300      0.000 
     192      0.000      7.000      0.000      0.000 
     193      0.000      2.170      0.000      0.000 
     194      0.000      7.250      0.000      0.000 
     195      0.000      0.000      0.300      0.000 
     196      0.000      7.250      0.000      0.000 
     197      0.000      0.000      0.300      0.000 
     198      0.000      7.250      0.000      0.000 
     199      0.000      7.250      0.000      0.000 
     200      0.000      7.250      0.000      0.000 
     201      0.000      7.250      0.000      0.000 
     202      0.000      7.250      0.000      0.000 
     203      0.000      0.000      0.300      0.000 
     204      0.000      0.000      0.300      0.000 
     205      0.000      7.250      0.000      0.000 
     206      0.000      7.250      0.000      0.000 
     207      0.000      7.250      0.000      0.000 
     208      2.250      0.000      0.000      0.000 
     209      0.000      2.170      0.000      0.000 
     210      0.000      0.000      0.300      0.000 
     211      0.000      7.000      0.000      0.000 
     212      0.000      7.250      0.000      0.000 
     213      0.000      7.250      0.000      0.000 
     214      0.000      0.000      0.000      0.000 
     215      0.000      0.000      0.250      0.000 
     216      0.000      0.000      0.300      0.000 
     217      0.000      0.000      0.300      0.000 
     218      0.000      0.000      0.000      0.000 
     219      0.000      7.250      0.000      0.000 
     220      0.000      2.170      0.000      0.000 

Improper Coeffs 

       1      0.000      -1       2 
       2      2.500      -1       2 
       3      2.500      -1       2 
       4      2.500      -1       2 
       5      2.500      -1       2 
       6      2.500      -1       2 
       7      0.000      -1       2 
       8      0.000      -1       2 
       9      0.000      -1       2 
      10      2.500      -1       2 
      11      2.500      -1       2 
      12      2.500      -1       2 
      13      2.500      -1       2 
      14      2.500      -1       2 
      15      0.000      -1       2 
      16      0.000      -1       2 
      17      0.000      -1       2 
      18      0.000      -1       2 
      19      0.000      -1       2 
      20      0.000      -1       2 
      21      0.000      -1       2 
      22      0.000      -1       2 
      23      0.000      -1       2 
      24      0.000      -1       2 
      25      2.500      -1       2 
      26      2.500      -1       2 
      27      2.500      -1       2 
      28      2.500      -1       2 
      29      2.500      -1       2 
      30      2.500      -1       2 
      31      2.500      -1       2 
      32      2.500      -1       2 
      33      0.000      -1       2 
      34      0.000      -1       2 
      35      0.000      -1       2 
      36      0.000      -1       2 
      37      0.000      -1       2 
      38      0.000      -1       2 
      39      0.000      -1       2 
      40      0.000      -1       2 
      41      2.500      -1       2 
      42      2.500      -1       2 
      43      2.500      -1       2 
      44      2.500      -1       2 
      45      2.500      -1       2 
      46      2.500      -1       2 

Atoms 

     1      1      1 -1.05950000    1.000  1.00000  0.00000
     2      1      2 2.94700000   -0.616  1.00000  0.00000
     3      1      3 -0.85980000   -0.929  1.00000  1.78142
     4      1      4 -0.14540000   -2.405  0.76327  2.15062
     5      1      5 -0.21640000   -3.406  1.79962  1.62413
     6      1      6 0.06930000   -3.120  3.23306  2.09069
     7      1      7 -0.49850000   -4.121  4.17392  1.62331
     8      1      8 0.14440000   -5.400  4.29323  2.14947
     9      1      9 -0.09250000   -6.150  5.19348  1.35282
    10      1     10 -0.09040000   -5.270  5.63494  0.29374
    11      1     11 0.14550000   -4.032  4.96298  0.48162
    12      1     12 -0.18980000   -2.961  5.13875 -0.39815
    13      1     13 -0.11570000   -3.145  6.00091 -1.47584
    14      1     14 -0.18650000   -4.360  6.67333 -1.67787
    15      1     15 -0.08210000   -5.416  6.52262 -0.77458
    16      1     16 -0.07010000   -7.474  5.47526  1.68906
    17      1     17 -0.07030000   -8.057  4.87133  2.80763
    18      1     18 -0.07260000   -9.464  5.15967  3.18257
    19      1     19 -0.07100000   -9.825  5.34449  4.52036
    20      1     20 -0.09400000  -11.151  5.61329  4.85716
    21      1     21 0.15050000  -12.134  5.69890  3.83838
    22      1     22 -0.18070000  -11.788  5.51669  2.49830
    23      1     23 -0.10210000  -10.465  5.25109  2.19072
    24      1     24 -0.50200000  -13.366  5.97111  4.41946
    25      1     25 0.07900000  -14.646  6.06280  3.73522
    26      1     26 -0.22260000  -15.473  4.77450  3.80874
    27      1     27 -0.14710000  -14.766  3.57793  3.16221
    28      1     28 -0.84700000  -15.584  2.27823  3.22639
    29      1     29 2.93280000  -17.046  2.27650  2.16740
    30      1     30 -1.26440000  -18.065  3.34857  2.30752
    31      1     31 -1.06470000  -17.653  0.79081  2.41935
    32      1     32 -1.05720000  -16.358  2.22018  0.69861
    33      1     33 0.14600000  -13.195  6.06238  5.79498
    34      1     34 -0.09230000  -11.829  5.84913  6.11197
    35      1     35 -0.08120000  -11.410  5.89604  7.44344
    36      1     36 -0.18680000  -12.347  6.15274  8.43809
    37      1     37 -0.11320000  -13.696  6.36221  8.11071
    38      1     38 -0.18020000  -14.140  6.31871  6.79044
    39      1     39 -0.10220000   -7.279  3.97924  3.57810
    40      1     40 -0.18040000   -5.964  3.68026  3.26920
    41      1     41 -1.08020000   -0.982  2.51488 -0.49092
    42      1     42 -1.25320000   -1.284 -0.03591 -0.82136
    43      1     43 0.47470000    1.402  0.88816 -0.87039
    44      1     44 0.14460000   -0.308  0.20234  2.19632
    45      1     45 0.14460000   -0.543  1.93978  2.18368
    46      1     46 0.10860000   -2.470  0.72432  3.24400
    47      1     47 0.10860000   -2.701 -0.22411  1.78649
    48      1     48 0.10730000   -4.409  1.51547  1.95657
    49      1     49 0.10730000   -3.440  1.78292  0.53101
    50      1     50 0.11560000   -3.085  3.27710  3.18483
    51      1     51 0.11560000   -2.149  3.57078  1.72805
    52      1     52 0.17080000   -2.018  4.62650 -0.25244
    53      1     53 0.14720000   -2.326  6.15399 -2.17202
    54      1     54 0.14990000   -4.478  7.31648 -2.54345
    55      1     55 0.15360000   -6.337  7.08481 -0.89573
    56      1     56 0.15500000   -8.052  6.16507  1.08254
    57      1     57 0.15440000   -9.070  5.27963  5.29792
    58      1     58 0.15310000  -12.527  5.57763  1.70757
    59      1     59 0.15150000  -10.193  5.06501  1.15700
    60      1     60 0.11240000  -15.207  6.89407  4.17214
    61      1     61 0.11240000  -14.453  6.33423  2.69469
    62      1     62 0.11900000  -16.440  4.95141  3.33037
    63      1     63 0.11900000  -15.682  4.54445  4.85966
    64      1     64 0.10700000  -13.812  3.40381  3.66636
    65      1     65 0.10700000  -14.522  3.80192  2.11864
    66      1     66 0.14470000  -15.930  2.07775  4.24442
    67      1     67 0.14470000  -14.982  1.41956  2.91693
    68      1     68 0.47370000  -18.616  0.79134  2.48284
    69      1     69 0.46950000  -16.923  2.57195 -0.00003
    70      1     70 0.15210000  -10.367  5.73504  7.69518
    71      1     71 0.14970000  -12.035  6.19066  9.47638
    72      1     72 0.14740000  -14.411  6.56150  8.90253
    73      1     73 0.15440000  -15.185  6.47820  6.55112
    74      1     74 0.15010000   -7.730  3.50931  4.44546
    75      1     75 0.15370000   -5.397  2.98899  3.88322
    76      1     76 0.47810000   -1.658  2.52922 -1.18048

Bonds 

     1      1      2      1
     2      2      3      2
     3      3      4      3
     4      4      5      4
     5      5      6      5
     6      6      7      6
     7      7      8      7
     8      8      9      8
     9      9     10      9
    10     10     11      7
    11     11     12     11
    12     12     13     12
    13     13     14     13
    14     14     15     10
    15     15     16      9
    16     16     17     16
    17     17     18     17
    18     18     19     18
    19     19     20     19
    20     20     21     20
    21     21     22     21
    22     22     23     18
    23     23     24     21
    24     24     25     24
    25     25     26     25
    26     26     27     26
    27     27     28     27
    28     28     29     28
    29     29     30     29
    30     30     31     29
    31     31     32     29
    32     32     33     24
    33     33     34     20
    34     34     35     34
    35     35     36     35
    36     36     37     36
    37     37     38     33
    38     38     39     17
    39     39     40      8
    40     40     41      2
    41     41     42      2
    42     42     43      1
    43     43     44      3
    44     44     45      3
    45     45     46      4
    46     46     47      4
    47     47     48      5
    48     48     49      5
    49     49     50      6
    50     50     51      6
    51     51     52     12
    52     52     53     13
    53     53     54     14
    54     54     55     15
    55     55     56     16
    56     56     57     19
    57     57     58     22
    58     58     59     23
    59     59     60     25
    60     60     61     25
    61     61     62     26
    62     62     63     26
    63     63     64     27
    64     64     65     27
    65     65     66     28
    66     66     67     28
    67     67     68     31
    68     68     69     32
    69     69     70     35
    70     70     71     36
    71     71     72     37
    72     72     73     38
    73     73     74     39
    74     74     75     40
    75     75     76     41
    76     76     11     10
    77     77     15     14
    78     78     23     22
    79     79     34     33
    80     80     38     37
    81     81     40     39

Angles 

     1      1      1      2      3
     2      2      2      3      4
     3      3      3      4      5
     4      4      4      5      6
     5      5      5      6      7
     6      6      6      7      8
     7      7      7      8      9
     8      8      8      9     10
     9      9      6      7     11
    10     10      7     11     12
    11     11     11     12     13
    12     12     12     13     14
    13     13      9     10     15
    14     14      8      9     16
    15     15      9     16     17
    16     16     16     17     18
    17     17     17     18     19
    18     18     18     19     20
    19     19     19     20     21
    20     20     20     21     22
    21     21     17     18     23
    22     22     20     21     24
    23     23     21     24     25
    24     24     24     25     26
    25     25     25     26     27
    26     26     26     27     28
    27     27     27     28     29
    28     28     28     29     30
    29     29     28     29     31
    30     30     28     29     32
    31     31     21     24     33
    32     32     19     20     34
    33     33     20     34     35
    34     34     34     35     36
    35     35     35     36     37
    36     36     24     33     38
    37     37     16     17     39
    38     38      7      8     40
    39     39      1      2     41
    40     40      1      2     42
    41     41      2      1     43
    42     42      2      3     44
    43     43      2      3     45
    44     44      3      4     46
    45     45      3      4     47
    46     46      4      5     48
    47     47      4      5     49
    48     48      5      6     50
    49     49      5      6     51
    50     50     11     12     52
    51     51     12     13     53
    52     52     13     14     54
    53     53     10     15     55
    54     54      9     16     56
    55     55     18     19     57
    56     56     21     22     58
    57     57     18     23     59
    58     58     24     25     60
    59     59     24     25     61
    60     60     25     26     62
    61     61     25     26     63
    62     62     26     27     64
    63     63     26     27     65
    64     64     27     28     66
    65     65     27     28     67
    66     66     29     31     68
    67     67     29     32     69
    68     68     34     35     70
    69     69     35     36     71
    70     70     36     37     72
    71     71     33     38     73
    72     72     17     39     74
    73     73      8     40     75
    74     74      2     41     76
    75     75     21     20     34
    76     76     30     29     31
    77     77     10      9     16
    78     78     11     10     15
    79     79      8      7     11
    80     80     13     14     15
    81     81     37     36     71
    82     82     50      6     51
    83     83     19     18     23
    84     84     14     13     53
    85     85      9      8     40
    86     86      4      3     44
    87     87     38     37     72
    88     88     10     15     14
    89     89      7      6     50
    90     90     36     37     38
    91     91      7      6     51
    92     92     20     19     57
    93     93     25     24     33
    94     94     36     35     70
    95     95     30     29     32
    96     96      3      2     41
    97     97     66     28     67
    98     98     28     27     65
    99     99     17     39     40
   100    100     27     26     63
   101    101     48      5     49
   102    102      6      5     49
   103    103     40     39     74
   104    104     10     11     12
   105    105     62     26     63
   106    106     14     15     55
   107    107      7     11     10
   108    108     22     21     24
   109    109     34     33     38
   110    110     13     12     52
   111    111     29     28     66
   112    112      5      4     46
   113    113     31     29     32
   114    114     21     22     23
   115    115      5      4     47
   116    116      8     40     39
   117    117     26     25     61
   118    118     27     26     62
   119    119     33     34     35
   120    120     15     14     54
   121    121     44      3     45
   122    122      6      5     48
   123    123     17     16     56
   124    124      9     10     11
   125    125      3      2     42
   126    126     23     22     58
   127    127     60     25     61
   128    128     37     38     73
   129    129     22     23     59
   130    130     28     27     64
   131    131     29     28     67
   132    132     24     33     34
   133    133     41      2     42
   134    134      4      3     45
   135    135     20     34     33
   136    136     18     17     39
   137    137     46      4     47
   138    138     39     40     75
   139    139     64     27     65
   140    140     18     23     22
   141    141     26     25     60
   142    142     33     38     37

Dihedrals

     1      1      4      3      2      1 
     2      2      5      4      3      2 
     3      3      6      5      4      3 
     4      4      7      6      5      4 
     5      5      8      7      6      5 
     6      6      9      8      7      6 
     7      7     10      9      8      7 
     8      8     13     12     11      7 
     9      9     14     13     12     11 
    10     10     17     16      9      8 
    11     11     18     17     16      9 
    12     12     19     18     17     16 
    13     13     20     19     18     17 
    14     14     21     20     19     18 
    15     15     22     21     20     19 
    16     16     25     24     21     20 
    17     17     26     25     24     21 
    18     18     27     26     25     24 
    19     19     28     27     26     25 
    20     20     29     28     27     26 
    21     21     30     29     28     27 
    22     22     36     35     34     20 
    23     23     37     36     35     34 
    24     24     43      1      2      3 
    25     25     68     31     29     28 
    26     26     69     32     29     28 
    27     27     76     41      2      1 
    28     28     75     40     39     74 
    29     29     46      4      3     45 
    30     30     47      4      3     44 
    31     31     60     25     24     21 
    32     32     38     37     36     35 
    33     33     39     40      8      7 
    34     34     47      4      5      6 
    35     35     56     16      9      8 
    36     36     70     35     34     33 
    37     37     59     23     18     19 
    38     38     38     33     34     20 
    39     39     65     27     26     25 
    40     40     55     15     10      9 
    41     41     65     27     26     63 
    42     42     69     32     29     31 
    43     43     40     39     17     18 
    44     44     73     38     33     24 
    45     45     54     14     13     12 
    46     46     33     24     25     26 
    47     47     46      4      3     44 
    48     48     63     26     25     24 
    49     49     66     28     29     30 
    50     50     50      6      7     11 
    51     51     33     34     20     21 
    52     52     44      3      2     41 
    53     53     39     17     18     19 
    54     54     66     28     27     65 
    55     55     31     29     28     27 
    56     56     57     19     20     21 
    57     57     48      5      4     46 
    58     58     45      3      4      5 
    59     59     48      5      4      3 
    60     60     71     36     35     34 
    61     61     62     26     25     24 
    62     62     34     33     24     21 
    63     63     17     39     40      8 
    64     64     69     32     29     30 
    65     65     50      6      7      8 
    66     66     59     23     22     21 
    67     67     64     27     26     62 
    68     68     73     38     37     72 
    69     69     16      9      8      7 
    70     70     63     26     27     28 
    71     71     48      5      4     47 
    72     72     15     14     13     12 
    73     73     68     31     29     32 
    74     74     52     12     13     14 
    75     75     60     25     26     27 
    76     76     55     15     10     11 
    77     77     54     14     13     53 
    78     78     59     23     18     17 
    79     79     13     14     15     10 
    80     80     53     13     14     15 
    81     81     68     31     29     30 
    82     82     22     23     18     17 
    83     83     25     24     21     22 
    84     84     67     28     29     32 
    85     85     50      6      5     48 
    86     86     15     10     11      7 
    87     87     62     26     25     61 
    88     88     17     16      9     10 
    89     89      9     10     11      7 
    90     90     75     40     39     17 
    91     91     40     39     17     16 
    92     92     61     25     24     21 
    93     93     64     27     26     63 
    94     94     65     27     26     62 
    95     95     40      8      7     11 
    96     96     49      5      4     46 
    97     97     71     36     37     38 
    98     98     39     17     16      9 
    99     99     24     33     34     20 
   100    100     23     18     19     20 
   101    101     62     26     27     28 
   102    102     57     19     20     34 
   103    103     11     10      9      8 
   104    104     53     13     12     11 
   105    105     74     39     17     18 
   106    106     38     33     24     21 
   107    107     44      3      2     42 
   108    108     34     33     24     25 
   109    109     45      3      2     41 
   110    110     12     11      7      8 
   111    111     15     10     11     12 
   112    112     14     15     10      9 
   113    113     35     34     20     21 
   114    114     10     11      7      6 
   115    115     46      4      3      2 
   116    116     49      5      6      7 
   117    117     52     12     11     10 
   118    118     63     26     25     60 
   119    119     58     22     21     20 
   120    120     50      6      5     49 
   121    121     16      9     10     15 
   122    122     38     33     34     35 
   123    123     34     20     21     22 
   124    124     66     28     29     31 
   125    125     54     14     15     10 
   126    126     67     28     29     30 
   127    127     53     13     12     52 
   128    128     11      7      6      5 
   129    129     66     28     27     26 
   130    130     55     15     14     13 
   131    131     44      3      2      1 
   132    132     12     11     10      9 
   133    133     36     35     34     33 
   134    134     45      3      2      1 
   135    135     50      6      5      4 
   136    136     75     40      8      7 
   137    137     41      2      3      4 
   138    138     70     35     34     20 
   139    139     40      8      9     16 
   140    140     51      6      5     48 
   141    141     34     20     19     18 
   142    142     38     33     24     25 
   143    143     33     34     20     19 
   144    144     52     12     11      7 
   145    145     23     22     21     20 
   146    146     51      6      7      8 
   147    147     58     22     21     24 
   148    148     32     29     28     27 
   149    149     49      5      4     47 
   150    150     49      5      4      3 
   151    151     46      4      5      6 
   152    152     33     24     21     22 
   153    153     51      6      7     11 
   154    154     56     16      9     10 
   155    155     72     37     36     71 
   156    156     67     28     29     31 
   157    157     66     28     27     64 
   158    158     22     23     18     19 
   159    159     36     37     38     33 
   160    160     57     19     18     23 
   161    161     75     40      8      9 
   162    162     39     17     18     23 
   163    163     74     39     40      8 
   164    164     76     41      2      3 
   165    165     48      5      6      7 
   166    166     37     38     33     24 
   167    167     13     12     11     10 
   168    168     35     34     33     24 
   169    169     73     38     33     34 
   170    170     62     26     25     60 
   171    171     45      3      2     42 
   172    172     39     40      8      9 
   173    173     43      1      2     42 
   174    174     15     10      9      8 
   175    175     35     34     20     19 
   176    176     33     24     21     20 
   177    177     40      8      9     10 
   178    178     76     41      2     42 
   179    179     43      1      2     41 
   180    180     21     22     23     18 
   181    181     67     28     27     64 
   182    182     11      7      8      9 
   183    183     61     25     26     27 
   184    184     65     27     28     29 
   185    185     40      8      7      6 
   186    186     47      4      3      2 
   187    187     73     38     37     36 
   188    188     14     15     10     11 
   189    189     56     16     17     18 
   190    190     64     27     28     29 
   191    191     51      6      5      4 
   192    192     37     38     33     34 
   193    193     34     20     21     24 
   194    194     59     23     22     58 
   195    195     51      6      5     49 
   196    196     71     36     35     70 
   197    197     67     28     27     26 
   198    198     12     11      7      6 
   199    199     56     16     17     39 
   200    200     10     11      7      8 
   201    201     55     15     14     54 
   202    202     72     37     38     33 
   203    203     63     26     25     61 
   204    204     47      4      3     45 
   205    205     74     39     17     16 
   206    206     70     35     36     37 
   207    207     57     19     18     17 
   208    208     42      2      3      4 
   209    209     23     18     17     16 
   210    210     67     28     27     65 
   211    211     24     21     22     23 
   212    212     58     22     23     18 
   213    213     24     21     20     19 
   214    214     61     25     24     33 
   215    215     66     28     29     32 
   216    216     44      3      4      5 
   217    217     64     27     26     25 
   218    218     60     25     24     33 
   219    219     72     37     36     35 
   220    220     16      9     10     11 

Impropers

     1      1      7     11      6      8 
     2      2     11     10     12      7 
     3      3     10      9     11     15 
     4      4      9     10      8     16 
     5      5     18     17     19     23 
     6      6     21     20     22     24 
     7      7     29     28     30     31 
     8      8     29     28     30     32 
     9      9     24     33     25     21 
    10     10     20     34     19     21 
    11     11     34     33     35     20 
    12     12     33     34     38     24 
    13     13     17     18     39     16 
    14     14      8      9      7     40 
    15     15      2     41      3      1 
    16     16      2      1     42      3 
    17     17      3      4      2     44 
    18     18      3      2      4     45 
    19     19      4      3      5     46 
    20     20      4      3      5     47 
    21     21      5      4      6     48 
    22     22      5     49      4      6 
    23     23      6     50      5      7 
    24     24      6     51      5      7 
    25     25     12     11     52     13 
    26     26     13     12     53     14 
    27     27     14     13     54     15 
    28     28     15     10     55     14 
    29     29     16      9     17     56 
    30     30     19     57     18     20 
    31     31     22     58     21     23 
    32     32     23     18     59     22 
    33     33     25     26     60     24 
    34     34     25     26     61     24 
    35     35     26     25     27     62 
    36     36     26     25     27     63 
    37     37     27     26     28     64 
    38     38     27     65     26     28 
    39     39     28     66     27     29 
    40     40     28     67     29     27 
    41     41     35     34     36     70 
    42     42     36     35     37     71 
    43     43     37     36     38     72 
    44     44     38     73     33     37 
    45     45     39     17     74     40 
    46     46     40     75      8     39 

