
# Include the force field settings here
bond_style      harmonic
angle_style     harmonic
dihedral_style  hybrid opls charmm 
improper_style  cvff
pair_style       hybrid lj/cut/coul/long 10.0 8.0 buck/coul/long 10.0 8.0
pair_modify     pair lj/cut/coul/long mix geometric
kspace_style    pppm 1e-4
kspace_modify   slab 3.0
special_bonds   amber

#Buck Parameters
pair_coeff 46 46 buck/coul/long 0.000000e+00 1.000000e+00 0.000000e+00  # 34-34
pair_coeff 46 47 buck/coul/long 17397.5 0.35 0.000000e+00  # 34-45
pair_coeff 47 47 buck/coul/long 524948.8 0.1490 643.23  # 45-O

# Ligand OPLS-AA Pair Coeffs
pair_coeff 1 1 lj/cut/coul/long 0.070 3.550 # 1-1
pair_coeff 2 2 lj/cut/coul/long 0.070 3.550 # 2-2
pair_coeff 3 3 lj/cut/coul/long 0.080 3.500 # 3-3
pair_coeff 4 4 lj/cut/coul/long 0.070 3.550 # 4-4
pair_coeff 5 5 lj/cut/coul/long 0.070 3.550 # 5-5
pair_coeff 6 6 lj/cut/coul/long 0.070 3.550 # 6-6
pair_coeff 7 7 lj/cut/coul/long 0.070 3.550 # 7-7
pair_coeff 8 8 lj/cut/coul/long 0.080 3.500 # 8-8
pair_coeff 9 9 lj/cut/coul/long 0.170 3.250 # 9-9
pair_coeff 10 10 lj/cut/coul/long 0.030 2.420 # 10-10
pair_coeff 11 11 lj/cut/coul/long 0.030 2.420 # 11-11
pair_coeff 12 12 lj/cut/coul/long 0.030 2.420 # 12-12
pair_coeff 13 13 lj/cut/coul/long 0.070 3.550 # 13-13
pair_coeff 14 14 lj/cut/coul/long 0.070 3.550 # 14-14
pair_coeff 15 15 lj/cut/coul/long 0.070 3.550 # 15-15
pair_coeff 16 16 lj/cut/coul/long 0.030 2.420 # 16-16
pair_coeff 17 17 lj/cut/coul/long 0.070 3.550 # 17-17
pair_coeff 18 18 lj/cut/coul/long 0.030 2.420 # 18-18
pair_coeff 19 19 lj/cut/coul/long 0.030 2.420 # 19-19
pair_coeff 20 20 lj/cut/coul/long 0.109 3.500 # 20-20
pair_coeff 21 21 lj/cut/coul/long 0.030 2.500 # 21-21
pair_coeff 22 22 lj/cut/coul/long 0.030 2.500 # 22-22
pair_coeff 23 23 lj/cut/coul/long 0.109 3.500 # 23-23
pair_coeff 24 24 lj/cut/coul/long 0.030 2.500 # 24-24
pair_coeff 25 25 lj/cut/coul/long 0.030 2.500 # 25-25
pair_coeff 26 26 lj/cut/coul/long 0.109 3.500 # 26-26
pair_coeff 27 27 lj/cut/coul/long 0.030 2.500 # 27-27
pair_coeff 28 28 lj/cut/coul/long 0.030 2.500 # 28-28
pair_coeff 29 29 lj/cut/coul/long 0.109 3.500 # 29-29
pair_coeff 30 30 lj/cut/coul/long 0.030 2.500 # 30-30
pair_coeff 31 31 lj/cut/coul/long 0.030 2.500 # 31-31
pair_coeff 32 32 lj/cut/coul/long 0.200 3.742 # 32-32
pair_coeff 33 33 lj/cut/coul/long 0.211 3.066 # 33-33
pair_coeff 34 34 lj/cut/coul/long 0.211 3.066 # 34-34
pair_coeff 35 35 lj/cut/coul/long 0.210 2.960 # 35-35
pair_coeff 36 36 lj/cut/coul/long 0.046 0.400 # 36-36
pair_coeff 37 37 lj/cut/coul/long 0.046 0.400 # 37-37
pair_coeff 38 38 lj/cut/coul/long 0.066 3.500 # 38-38
pair_coeff 39 39 lj/cut/coul/long 0.030 2.500 # 39-39
pair_coeff 40 40 lj/cut/coul/long 0.030 2.500 # 40-40
pair_coeff 41 41 lj/cut/coul/long 0.030 2.500 # 41-41
pair_coeff 42 42 lj/cut/coul/long 0.066 3.500 # 42-42
pair_coeff 43 43 lj/cut/coul/long 0.030 2.500 # 43-43
pair_coeff 44 44 lj/cut/coul/long 0.030 2.500 # 44-44
pair_coeff 45 45 lj/cut/coul/long 0.030 2.500 # 45-45

# Ligand 45PLS-AA Bond Coeffs
bond_coeff 1 469.000 1.400 # bond_type 1
bond_coeff 2 469.000 1.424 # bond_type 2
bond_coeff 3 469.000 1.404 # bond_type 3
bond_coeff 4 469.000 1.400 # bond_type 4
bond_coeff 5 469.000 1.400 # bond_type 5
bond_coeff 6 469.000 1.424 # bond_type 6
bond_coeff 7 469.000 1.424 # bond_type 7
bond_coeff 8 436.000 1.374 # bond_type 8
bond_coeff 9 367.000 1.080 # bond_type 9
bond_coeff 10 367.000 1.080 # bond_type 10
bond_coeff 11 367.000 1.080 # bond_type 11
bond_coeff 12 469.000 1.400 # bond_type 12
bond_coeff 13 469.000 1.400 # bond_type 13
bond_coeff 14 469.000 1.400 # bond_type 14
bond_coeff 15 367.000 1.080 # bond_type 15
bond_coeff 16 469.000 1.404 # bond_type 16
bond_coeff 17 367.000 1.080 # bond_type 17
bond_coeff 18 367.000 1.080 # bond_type 18
bond_coeff 19 337.000 1.475 # bond_type 19
bond_coeff 20 340.000 1.090 # bond_type 20
bond_coeff 21 340.000 1.090 # bond_type 21
bond_coeff 22 268.000 1.529 # bond_type 22
bond_coeff 23 340.000 1.090 # bond_type 23
bond_coeff 24 340.000 1.090 # bond_type 24
bond_coeff 25 268.000 1.529 # bond_type 25
bond_coeff 26 340.000 1.090 # bond_type 26
bond_coeff 27 340.000 1.090 # bond_type 27
bond_coeff 28 268.000 1.529 # bond_type 28
bond_coeff 29 340.000 1.090 # bond_type 29
bond_coeff 30 340.000 1.090 # bond_type 30
bond_coeff 31 212.000 1.843 # bond_type 31
bond_coeff 32 642.200 1.610 # bond_type 32
bond_coeff 33 642.200 1.610 # bond_type 33
bond_coeff 34 975.687 1.481 # bond_type 34
bond_coeff 35 739.520 0.945 # bond_type 35
bond_coeff 36 739.520 0.945 # bond_type 36
bond_coeff 37 317.000 1.510 # bond_type 37
bond_coeff 38 340.000 1.090 # bond_type 38
bond_coeff 39 340.000 1.090 # bond_type 39
bond_coeff 40 340.000 1.090 # bond_type 40
bond_coeff 41 317.000 1.510 # bond_type 41
bond_coeff 42 340.000 1.090 # bond_type 42
bond_coeff 43 340.000 1.090 # bond_type 43
bond_coeff 44 340.000 1.090 # bond_type 44
bond_coeff 45 469.000 1.400 # bond_type 45
bond_coeff 46 436.000 1.374 # bond_type 46
bond_coeff 47 469.000 1.400 # bond_type 47

# Ligand OPLS-AA Angle Coeffs
angle_coeff 1 63.000 120.000 # angle_type 1
angle_coeff 2 85.000 134.900 # angle_type 2
angle_coeff 3 63.000 120.000 # angle_type 3
angle_coeff 4 63.000 120.000 # angle_type 4
angle_coeff 5 63.000 120.000 # angle_type 5
angle_coeff 6 70.000 107.300 # angle_type 6
angle_coeff 7 70.000 107.700 # angle_type 7
angle_coeff 8 35.000 120.000 # angle_type 8
angle_coeff 9 35.000 120.000 # angle_type 9
angle_coeff 10 35.000 120.000 # angle_type 10
angle_coeff 11 63.000 120.000 # angle_type 11
angle_coeff 12 63.000 120.000 # angle_type 12
angle_coeff 13 63.000 120.000 # angle_type 13
angle_coeff 14 35.000 120.000 # angle_type 14
angle_coeff 15 85.000 134.900 # angle_type 15
angle_coeff 16 35.000 120.000 # angle_type 16
angle_coeff 17 35.000 120.000 # angle_type 17
angle_coeff 18 70.000 125.800 # angle_type 18
angle_coeff 19 35.000 109.500 # angle_type 19
angle_coeff 20 35.000 109.500 # angle_type 20
angle_coeff 21 51.650 110.580 # angle_type 21
angle_coeff 22 37.500 110.700 # angle_type 22
angle_coeff 23 37.500 110.700 # angle_type 23
angle_coeff 24 58.350 112.700 # angle_type 24
angle_coeff 25 37.500 110.700 # angle_type 25
angle_coeff 26 37.500 110.700 # angle_type 26
angle_coeff 27 58.350 112.700 # angle_type 27
angle_coeff 28 37.500 110.700 # angle_type 28
angle_coeff 29 37.500 110.700 # angle_type 29
angle_coeff 30 43.000 109.500 # angle_type 30
angle_coeff 31 200.060 101.560 # angle_type 31
angle_coeff 32 200.060 101.560 # angle_type 32
angle_coeff 33 200.060 108.350 # angle_type 33
angle_coeff 34 88.295 110.140 # angle_type 34
angle_coeff 35 88.295 110.140 # angle_type 35
angle_coeff 36 70.000 120.000 # angle_type 36
angle_coeff 37 35.000 109.500 # angle_type 37
angle_coeff 38 35.000 109.500 # angle_type 38
angle_coeff 39 35.000 109.500 # angle_type 39
angle_coeff 40 70.000 120.000 # angle_type 40
angle_coeff 41 35.000 109.500 # angle_type 41
angle_coeff 42 35.000 109.500 # angle_type 42
angle_coeff 43 35.000 109.500 # angle_type 43
angle_coeff 44 37.500 110.700 # angle_type 44
angle_coeff 45 70.000 125.800 # angle_type 45
angle_coeff 46 63.000 120.000 # angle_type 46
angle_coeff 47 33.000 107.800 # angle_type 47
angle_coeff 48 33.000 107.800 # angle_type 48
angle_coeff 49 33.000 107.800 # angle_type 49
angle_coeff 50 35.000 120.000 # angle_type 50
angle_coeff 51 63.000 120.000 # angle_type 51
angle_coeff 52 63.000 120.000 # angle_type 52
angle_coeff 53 85.055 109.500 # angle_type 53
angle_coeff 54 33.000 107.800 # angle_type 54
angle_coeff 55 33.000 107.800 # angle_type 55
angle_coeff 56 35.000 120.000 # angle_type 56
angle_coeff 57 33.000 107.800 # angle_type 57
angle_coeff 58 70.000 125.200 # angle_type 58
angle_coeff 59 33.000 107.800 # angle_type 59
angle_coeff 60 70.000 108.700 # angle_type 60
angle_coeff 61 37.500 110.700 # angle_type 61
angle_coeff 62 85.055 109.500 # angle_type 62
angle_coeff 63 280.217 115.800 # angle_type 63
angle_coeff 64 280.217 115.260 # angle_type 64
angle_coeff 65 37.500 110.700 # angle_type 65
angle_coeff 66 37.500 110.700 # angle_type 66
angle_coeff 67 35.000 120.000 # angle_type 67
angle_coeff 68 35.000 120.000 # angle_type 68
angle_coeff 69 33.000 107.800 # angle_type 69
angle_coeff 70 37.500 110.700 # angle_type 70
angle_coeff 71 35.000 120.000 # angle_type 71
angle_coeff 72 35.000 120.000 # angle_type 72
angle_coeff 73 70.000 107.300 # angle_type 73
angle_coeff 74 280.217 108.230 # angle_type 74
angle_coeff 75 63.000 120.000 # angle_type 75
angle_coeff 76 70.000 108.700 # angle_type 76
angle_coeff 77 70.000 107.700 # angle_type 77
angle_coeff 78 70.000 120.000 # angle_type 78
angle_coeff 79 70.000 120.000 # angle_type 79
angle_coeff 80 33.000 107.800 # angle_type 80
angle_coeff 81 37.500 110.700 # angle_type 81
angle_coeff 82 63.000 120.000 # angle_type 82
angle_coeff 83 33.000 107.800 # angle_type 83

# Ligand OPLS-AA Dihedral Coeffs
dihedral_coeff 1 opls 0.000 7.250 0.000 0.000 # dihedral_type 1
dihedral_coeff 2 opls 0.000 7.000 0.000 0.000 # dihedral_type 2
dihedral_coeff 3 opls 0.000 7.250 0.000 0.000 # dihedral_type 3
dihedral_coeff 4 opls 0.000 2.170 0.000 0.000 # dihedral_type 4
dihedral_coeff 5 opls 0.000 2.170 0.000 0.000 # dihedral_type 5
dihedral_coeff 6 opls 0.000 7.250 0.000 0.000 # dihedral_type 6
dihedral_coeff 7 opls 0.000 7.250 0.000 0.000 # dihedral_type 7
dihedral_coeff 8 opls 0.000 0.000 0.000 0.000 # dihedral_type 8
dihedral_coeff 9 opls -1.013 -0.709 0.473 0.000 # dihedral_type 9
dihedral_coeff 10 opls 0.000 0.000 0.300 0.000 # dihedral_type 10
dihedral_coeff 11 opls 0.000 0.000 0.300 0.000 # dihedral_type 11
dihedral_coeff 12 opls 2.250 0.000 0.000 0.000 # dihedral_type 12
dihedral_coeff 13 charmm 0.5333 0 3 0.000 # dihedral_type 13
dihedral_coeff 14 charmm 0.5333 0 3 0.000  # dihedral_type 14
dihedral_coeff 15 opls 0.000 0.000 0.000 0.000 # dihedral_type 15
dihedral_coeff 16 opls 0.000 0.000 0.000 0.000 # dihedral_type 16
dihedral_coeff 17 opls 0.000 7.250 0.000 0.000 # dihedral_type 17
dihedral_coeff 18 opls 0.000 0.000 0.300 0.000 # dihedral_type 18
dihedral_coeff 19 opls 0.000 7.250 0.000 0.000 # dihedral_type 19
dihedral_coeff 20 opls 0.000 0.000 0.300 0.000 # dihedral_type 20
dihedral_coeff 21 opls 0.000 7.250 0.000 0.000 # dihedral_type 21
dihedral_coeff 22 opls 0.000 7.250 0.000 0.000 # dihedral_type 22
dihedral_coeff 23 opls 0.000 7.250 0.000 0.000 # dihedral_type 23
dihedral_coeff 24 opls 0.000 0.000 0.000 0.000 # dihedral_type 24
dihedral_coeff 25 opls 0.000 0.000 0.000 0.000 # dihedral_type 25
dihedral_coeff 26 opls 0.000 7.250 0.000 0.000 # dihedral_type 26
dihedral_coeff 27 opls 0.000 0.000 0.300 0.000 # dihedral_type 27
dihedral_coeff 28 opls 0.000 0.000 0.000 0.000 # dihedral_type 28
dihedral_coeff 29 opls 0.000 7.250 0.000 0.000 # dihedral_type 29
dihedral_coeff 30 opls 0.000 7.250 0.000 0.000 # dihedral_type 30
dihedral_coeff 31 opls 0.000 7.250 0.000 0.000 # dihedral_type 31
dihedral_coeff 32 opls 0.000 0.000 0.000 0.000 # dihedral_type 32
dihedral_coeff 33 opls 1.000 -0.350 0.000 0.000 # dihedral_type 33
dihedral_coeff 34 opls 0.000 7.250 0.000 0.000 # dihedral_type 34
dihedral_coeff 35 opls 0.000 7.250 0.000 0.000 # dihedral_type 35
dihedral_coeff 36 opls 0.000 2.170 0.000 0.000 # dihedral_type 36
dihedral_coeff 37 opls 0.000 7.250 0.000 0.000 # dihedral_type 37
dihedral_coeff 38 opls 0.000 0.000 0.300 0.000 # dihedral_type 38
dihedral_coeff 39 opls 0.000 7.250 0.000 0.000 # dihedral_type 39
dihedral_coeff 40 opls 0.000 0.000 0.000 0.000 # dihedral_type 40
dihedral_coeff 41 opls 0.000 0.000 0.300 0.000 # dihedral_type 41
dihedral_coeff 42 opls 0.000 0.000 0.000 0.000 # dihedral_type 42
dihedral_coeff 43 opls 0.000 0.000 0.000 0.000 # dihedral_type 43
dihedral_coeff 44 opls 0.000 0.000 0.000 0.000 # dihedral_type 44
dihedral_coeff 45 opls 0.000 7.250 0.000 0.000 # dihedral_type 45
dihedral_coeff 46 opls 0.000 0.000 0.250 0.000 # dihedral_type 46
dihedral_coeff 47 opls 0.000 7.250 0.000 0.000 # dihedral_type 47
dihedral_coeff 48 opls 0.000 7.000 0.000 0.000 # dihedral_type 48
dihedral_coeff 49 opls 0.000 0.000 0.300 0.000 # dihedral_type 49
dihedral_coeff 50 opls 0.000 7.250 0.000 0.000 # dihedral_type 50
dihedral_coeff 51 opls 0.000 0.000 0.000 0.000 # dihedral_type 51
dihedral_coeff 52 opls 0.000 0.000 0.300 0.000 # dihedral_type 52
dihedral_coeff 53 opls 0.000 7.250 0.000 0.000 # dihedral_type 53
dihedral_coeff 54 opls 0.000 0.000 0.300 0.000 # dihedral_type 54
dihedral_coeff 55 opls 0.000 7.250 0.000 0.000 # dihedral_type 55
dihedral_coeff 56 opls 0.000 7.250 0.000 0.000 # dihedral_type 56
dihedral_coeff 57 opls -1.013 -0.709 0.473 0.000 # dihedral_type 57
dihedral_coeff 58 charmm 0.5333 0 3 0.000 # dihedral_type 58
dihedral_coeff 59 opls 0.000 7.250 0.000 0.000 # dihedral_type 59
dihedral_coeff 60 opls 0.000 7.250 0.000 0.000 # dihedral_type 60
dihedral_coeff 61 opls 0.000 0.000 0.000 0.000 # dihedral_type 61
dihedral_coeff 62 opls 0.000 2.170 0.000 0.000 # dihedral_type 62
dihedral_coeff 63 opls 0.000 7.250 0.000 0.000 # dihedral_type 63
dihedral_coeff 64 opls 0.000 7.000 0.000 0.000 # dihedral_type 64
dihedral_coeff 65 opls 1.300 -0.200 0.200 0.000 # dihedral_type 65
dihedral_coeff 66 opls 2.392 -0.674 0.550 0.000 # dihedral_type 66
dihedral_coeff 67 charmm 0.5333 0 3 0.000  # dihedral_type 67
dihedral_coeff 68 opls 0.000 7.250 0.000 0.000 # dihedral_type 68
dihedral_coeff 69 opls 0.000 0.000 0.250 0.000 # dihedral_type 69
dihedral_coeff 70 opls 0.000 7.250 0.000 0.000 # dihedral_type 70
dihedral_coeff 71 opls 0.000 7.250 0.000 0.000 # dihedral_type 71
dihedral_coeff 72 opls 0.000 2.170 0.000 0.000 # dihedral_type 72
dihedral_coeff 73 opls 0.000 7.250 0.000 0.000 # dihedral_type 73
dihedral_coeff 74 opls 0.000 2.170 0.000 0.000 # dihedral_type 74
dihedral_coeff 75 opls 0.000 0.000 0.300 0.000 # dihedral_type 75
dihedral_coeff 76 opls 0.000 0.000 0.000 0.000 # dihedral_type 76
dihedral_coeff 77 opls 0.000 2.170 0.000 0.000 # dihedral_type 77
dihedral_coeff 78 opls 0.000 0.000 0.300 0.000 # dihedral_type 78
dihedral_coeff 79 opls 0.000 0.000 0.300 0.000 # dihedral_type 79
dihedral_coeff 80 opls 0.000 7.250 0.000 0.000 # dihedral_type 80
dihedral_coeff 81 opls 0.000 0.000 0.300 0.000 # dihedral_type 81
dihedral_coeff 82 opls 0.000 0.000 0.300 0.000 # dihedral_type 82
dihedral_coeff 83 opls 0.000 0.000 0.300 0.000 # dihedral_type 83
dihedral_coeff 84 opls 0.000 7.250 0.000 0.000 # dihedral_type 84
dihedral_coeff 85 opls 0.000 0.000 0.000 0.000 # dihedral_type 85
dihedral_coeff 86 opls 0.000 0.000 0.000 0.000 # dihedral_type 86
dihedral_coeff 87 opls 0.000 7.250 0.000 0.000 # dihedral_type 87
dihedral_coeff 88 opls 0.000 2.170 0.000 0.000 # dihedral_type 88
dihedral_coeff 89 opls 0.000 0.000 0.300 0.000 # dihedral_type 89
dihedral_coeff 90 charmm 0.5333 0 3 0.000  # dihedral_type 90
dihedral_coeff 91 opls 0.000 0.000 0.000 0.000 # dihedral_type 91
dihedral_coeff 92 opls 0.000 7.250 0.000 0.000 # dihedral_type 92
dihedral_coeff 93 opls 0.000 0.000 0.000 0.000 # dihedral_type 93
dihedral_coeff 94 opls 0.000 7.250 0.000 0.000 # dihedral_type 94
dihedral_coeff 95 opls 0.000 7.000 0.000 0.000 # dihedral_type 95
dihedral_coeff 96 opls 0.000 7.250 0.000 0.000 # dihedral_type 96
dihedral_coeff 97 opls 0.000 7.250 0.000 0.000 # dihedral_type 97
dihedral_coeff 98 opls 0.000 7.250 0.000 0.000 # dihedral_type 98
dihedral_coeff 99 opls 0.000 7.250 0.000 0.000 # dihedral_type 99
dihedral_coeff 100 opls 0.000 7.250 0.000 0.000 # dihedral_type 100
dihedral_coeff 101 opls 0.000 7.250 0.000 0.000 # dihedral_type 101
dihedral_coeff 102 opls 0.845 -0.962 0.713 0.000 # dihedral_type 102
dihedral_coeff 103 opls 2.250 0.000 0.000 0.000 # dihedral_type 103
dihedral_coeff 104 opls 0.000 7.250 0.000 0.000 # dihedral_type 104
dihedral_coeff 105 opls 0.000 0.000 0.300 0.000 # dihedral_type 105
dihedral_coeff 106 opls 0.000 7.250 0.000 0.000 # dihedral_type 106
dihedral_coeff 107 opls 2.250 0.000 0.000 0.000 # dihedral_type 107
dihedral_coeff 108 opls 0.000 7.250 0.000 0.000 # dihedral_type 108
dihedral_coeff 109 opls 0.000 0.000 0.000 0.000 # dihedral_type 109
dihedral_coeff 110 opls 0.000 7.250 0.000 0.000 # dihedral_type 110
dihedral_coeff 111 opls 0.000 7.250 0.000 0.000 # dihedral_type 111
dihedral_coeff 112 opls 0.000 0.000 0.000 0.000 # dihedral_type 112
dihedral_coeff 113 opls 0.000 7.250 0.000 0.000 # dihedral_type 113
dihedral_coeff 114 opls 0.000 0.000 0.300 0.000 # dihedral_type 114
dihedral_coeff 115 opls 0.000 0.000 0.300 0.000 # dihedral_type 115
dihedral_coeff 116 opls 0.000 7.250 0.000 0.000 # dihedral_type 116
dihedral_coeff 117 opls 0.000 0.000 0.300 0.000 # dihedral_type 117
dihedral_coeff 118 opls 0.000 0.000 0.300 0.000 # dihedral_type 118
dihedral_coeff 119 opls 0.000 0.000 0.250 0.000 # dihedral_type 119
dihedral_coeff 120 opls 1.000 -0.350 0.000 0.000 # dihedral_type 120

# Ligand OPLS-AA Improper Coeffs
improper_coeff 1 2.500 -1 2 # improper_type 1
improper_coeff 2 2.500 -1 2 # improper_type 2
improper_coeff 3 2.500 -1 2 # improper_type 3
improper_coeff 4 2.500 -1 2 # improper_type 4
improper_coeff 5 2.500 -1 2 # improper_type 5
improper_coeff 6 2.500 -1 2 # improper_type 6
improper_coeff 7 2.500 -1 2 # improper_type 7
improper_coeff 8 2.500 -1 2 # improper_type 8
improper_coeff 9 2.500 -1 2 # improper_type 9
improper_coeff 10 0.000 -1 2 # improper_type 10
improper_coeff 11 0.000 -1 2 # improper_type 11
improper_coeff 12 0.000 -1 2 # improper_type 12
improper_coeff 13 0.000 -1 2 # improper_type 13
improper_coeff 14 0.000 -1 2 # improper_type 14
improper_coeff 15 0.000 -1 2 # improper_type 15
improper_coeff 16 0.000 -1 2 # improper_type 16
improper_coeff 17 0.000 -1 2 # improper_type 17
improper_coeff 18 0.000 -1 2 # improper_type 18
improper_coeff 19 0.000 -1 2 # improper_type 19
improper_coeff 20 0.000 -1 2 # improper_type 20
improper_coeff 21 2.500 -1 2 # improper_type 21
improper_coeff 22 0.000 -1 2 # improper_type 22
improper_coeff 23 0.000 -1 2 # improper_type 23
improper_coeff 24 2.500 -1 2 # improper_type 24
improper_coeff 25 0.000 -1 2 # improper_type 25
improper_coeff 26 0.000 -1 2 # improper_type 26
improper_coeff 27 2.500 -1 2 # improper_type 27


# Geometric Mixing Rules between 46, 45, and Ligand Atoms
pair_coeff 46 1 lj/cut/coul/long 0.084 3.263 # 46-1
pair_coeff 46 2 lj/cut/coul/long 0.084 3.263 # 46-2
pair_coeff 46 3 lj/cut/coul/long 0.089 3.240 # 46-3
pair_coeff 46 4 lj/cut/coul/long 0.084 3.263 # 46-4
pair_coeff 46 5 lj/cut/coul/long 0.084 3.263 # 46-5
pair_coeff 46 6 lj/cut/coul/long 0.084 3.263 # 46-6
pair_coeff 46 7 lj/cut/coul/long 0.084 3.263 # 46-7
pair_coeff 46 8 lj/cut/coul/long 0.089 3.240 # 46-8
pair_coeff 46 9 lj/cut/coul/long 0.130 3.122 # 46-9
pair_coeff 46 10 lj/cut/coul/long 0.055 2.694 # 46-10
pair_coeff 46 11 lj/cut/coul/long 0.055 2.694 # 46-11
pair_coeff 46 12 lj/cut/coul/long 0.055 2.694 # 46-12
pair_coeff 46 13 lj/cut/coul/long 0.084 3.263 # 46-13
pair_coeff 46 14 lj/cut/coul/long 0.084 3.263 # 46-14
pair_coeff 46 15 lj/cut/coul/long 0.084 3.263 # 46-15
pair_coeff 46 16 lj/cut/coul/long 0.055 2.694 # 46-16
pair_coeff 46 17 lj/cut/coul/long 0.084 3.263 # 46-17
pair_coeff 46 18 lj/cut/coul/long 0.055 2.694 # 46-18
pair_coeff 46 19 lj/cut/coul/long 0.055 2.694 # 46-19
pair_coeff 46 20 lj/cut/coul/long 0.105 3.240 # 46-20
pair_coeff 46 21 lj/cut/coul/long 0.055 2.739 # 46-21
pair_coeff 46 22 lj/cut/coul/long 0.055 2.739 # 46-22
pair_coeff 46 23 lj/cut/coul/long 0.105 3.240 # 46-23
pair_coeff 46 24 lj/cut/coul/long 0.055 2.739 # 46-24
pair_coeff 46 25 lj/cut/coul/long 0.055 2.739 # 46-25
pair_coeff 46 26 lj/cut/coul/long 0.105 3.240 # 46-26
pair_coeff 46 27 lj/cut/coul/long 0.055 2.739 # 46-27
pair_coeff 46 28 lj/cut/coul/long 0.055 2.739 # 46-28
pair_coeff 46 29 lj/cut/coul/long 0.105 3.240 # 46-29
pair_coeff 46 30 lj/cut/coul/long 0.055 2.739 # 46-30
pair_coeff 46 31 lj/cut/coul/long 0.055 2.739 # 46-31
pair_coeff 46 32 lj/cut/coul/long 0.141 3.350 # 46-32
pair_coeff 46 33 lj/cut/coul/long 0.145 3.033 # 46-33
pair_coeff 46 34 lj/cut/coul/long 0.145 3.033 # 46-34
pair_coeff 46 35 lj/cut/coul/long 0.145 2.980 # 46-35
pair_coeff 46 36 lj/cut/coul/long 0.068 1.095 # 46-36
pair_coeff 46 37 lj/cut/coul/long 0.068 1.095 # 46-37
pair_coeff 46 38 lj/cut/coul/long 0.081 3.240 # 46-38
pair_coeff 46 39 lj/cut/coul/long 0.055 2.739 # 46-39
pair_coeff 46 40 lj/cut/coul/long 0.055 2.739 # 46-40
pair_coeff 46 41 lj/cut/coul/long 0.055 2.739 # 46-41
pair_coeff 46 42 lj/cut/coul/long 0.081 3.240 # 46-42
pair_coeff 46 43 lj/cut/coul/long 0.055 2.739 # 46-43
pair_coeff 46 44 lj/cut/coul/long 0.055 2.739 # 46-44
pair_coeff 46 45 lj/cut/coul/long 0.055 2.739 # 46-45
pair_coeff 47 1 lj/cut/coul/long 0.121 3.291 # O-1
pair_coeff 47 2 lj/cut/coul/long 0.121 3.291 # O-2
pair_coeff 47 3 lj/cut/coul/long 0.130 3.267 # O-3
pair_coeff 47 4 lj/cut/coul/long 0.121 3.291 # O-4
pair_coeff 47 5 lj/cut/coul/long 0.121 3.291 # O-5
pair_coeff 47 6 lj/cut/coul/long 0.121 3.291 # O-6
pair_coeff 47 7 lj/cut/coul/long 0.121 3.291 # O-7
pair_coeff 47 8 lj/cut/coul/long 0.130 3.267 # O-8
pair_coeff 47 9 lj/cut/coul/long 0.189 3.148 # O-9
pair_coeff 47 10 lj/cut/coul/long 0.079 2.717 # O-10
pair_coeff 47 11 lj/cut/coul/long 0.079 2.717 # O-11
pair_coeff 47 12 lj/cut/coul/long 0.079 2.717 # O-12
pair_coeff 47 13 lj/cut/coul/long 0.121 3.291 # O-13
pair_coeff 47 14 lj/cut/coul/long 0.121 3.291 # O-14
pair_coeff 47 15 lj/cut/coul/long 0.121 3.291 # O-15
pair_coeff 47 16 lj/cut/coul/long 0.079 2.717 # O-16
pair_coeff 47 17 lj/cut/coul/long 0.121 3.291 # O-17
pair_coeff 47 18 lj/cut/coul/long 0.079 2.717 # O-18
pair_coeff 47 19 lj/cut/coul/long 0.079 2.717 # O-19
pair_coeff 47 20 lj/cut/coul/long 0.152 3.267 # O-20
pair_coeff 47 21 lj/cut/coul/long 0.079 2.761 # O-21
pair_coeff 47 22 lj/cut/coul/long 0.079 2.761 # O-22
pair_coeff 47 23 lj/cut/coul/long 0.152 3.267 # O-23
pair_coeff 47 24 lj/cut/coul/long 0.079 2.761 # O-24
pair_coeff 47 25 lj/cut/coul/long 0.079 2.761 # O-25
pair_coeff 47 26 lj/cut/coul/long 0.152 3.267 # O-26
pair_coeff 47 27 lj/cut/coul/long 0.079 2.761 # O-27
pair_coeff 47 28 lj/cut/coul/long 0.079 2.761 # O-28
pair_coeff 47 29 lj/cut/coul/long 0.152 3.267 # O-29
pair_coeff 47 30 lj/cut/coul/long 0.079 2.761 # O-30
pair_coeff 47 31 lj/cut/coul/long 0.079 2.761 # O-31
pair_coeff 47 32 lj/cut/coul/long 0.205 3.378 # O-32
pair_coeff 47 33 lj/cut/coul/long 0.210 3.058 # O-33
pair_coeff 47 34 lj/cut/coul/long 0.210 3.058 # O-34
pair_coeff 47 35 lj/cut/coul/long 0.210 3.005 # O-35
pair_coeff 47 36 lj/cut/coul/long 0.098 1.105 # O-36
pair_coeff 47 37 lj/cut/coul/long 0.098 1.105 # O-37
pair_coeff 47 38 lj/cut/coul/long 0.118 3.267 # O-38
pair_coeff 47 39 lj/cut/coul/long 0.079 2.761 # O-39
pair_coeff 47 40 lj/cut/coul/long 0.079 2.761 # O-40
pair_coeff 47 41 lj/cut/coul/long 0.079 2.761 # O-41
pair_coeff 47 42 lj/cut/coul/long 0.118 3.267 # O-42
pair_coeff 47 43 lj/cut/coul/long 0.079 2.761 # O-43
pair_coeff 47 44 lj/cut/coul/long 0.079 2.761 # O-44
pair_coeff 47 45 lj/cut/coul/long 0.079 2.761 # O-45


