21060
corrugated-nio-110-rigid-oh000 Lattice="125.1 0 0 0 41.7 0 0 0 205.0"
Ni 0.000000 0.000000 0.000000
Ni 2.085000 2.085000 0.000000
Ni 2.085000 0.000000 2.085000
Ni 0.000000 2.085000 2.085000
Ni 0.000000 0.000000 4.170000
Ni 2.085000 2.085000 4.170000
Ni 2.085000 0.000000 6.255000
Ni 0.000000 2.085000 6.255000
Ni 0.000000 0.000000 8.340000
Ni 2.085000 2.085000 8.340000
Ni 2.085000 0.000000 10.425000
Ni 0.000000 2.085000 10.425000
Ni 0.000000 0.000000 12.510000
Ni 2.085000 2.085000 12.510000
Ni 2.085000 0.000000 14.595000
Ni 0.000000 2.085000 14.595000
Ni 0.000000 0.000000 16.680000
Ni 2.085000 2.085000 16.680000
Ni 2.085000 0.000000 18.765000
Ni 0.000000 2.085000 18.765000
Ni 0.000000 0.000000 20.850000
Ni 2.085000 2.085000 20.850000
Ni 2.085000 0.000000 22.935000
Ni 0.000000 2.085000 22.935000
Ni 0.000000 0.000000 25.020000
Ni 2.085000 2.085000 25.020000
Ni 2.085000 0.000000 27.105000
Ni 0.000000 2.085000 27.105000
Ni 0.000000 0.000000 29.190000
Ni 2.085000 2.085000 29.190000
Ni 2.085000 0.000000 31.275000
Ni 0.000000 2.085000 31.275000
Ni 0.000000 0.000000 33.360000
Ni 2.085000 2.085000 33.360000
Ni 2.085000 0.000000 35.445000
Ni 0.000000 2.085000 35.445000
Ni 0.000000 0.000000 37.530000
Ni 2.085000 2.085000 37.530000
Ni 2.085000 0.000000 39.615000
Ni 0.000000 2.085000 39.615000
Ni 0.000000 4.170000 0.000000
Ni 2.085000 6.255000 0.000000
Ni 2.085000 4.170000 2.085000
Ni 0.000000 6.255000 2.085000
Ni 0.000000 4.170000 4.170000
Ni 2.085000 6.255000 4.170000
Ni 2.085000 4.170000 6.255000
Ni 0.000000 6.255000 6.255000
Ni 0.000000 4.170000 8.340000
Ni 2.085000 6.255000 8.340000
Ni 2.085000 4.170000 10.425000
Ni 0.000000 6.255000 10.425000
Ni 0.000000 4.170000 12.510000
Ni 2.085000 6.255000 12.510000
Ni 2.085000 4.170000 14.595000
Ni 0.000000 6.255000 14.595000
Ni 0.000000 4.170000 16.680000
Ni 2.085000 6.255000 16.680000
Ni 2.085000 4.170000 18.765000
Ni 0.000000 6.255000 18.765000
Ni 0.000000 4.170000 20.850000
Ni 2.085000 6.255000 20.850000
Ni 2.085000 4.170000 22.935000
Ni 0.000000 6.255000 22.935000
Ni 0.000000 4.170000 25.020000
Ni 2.085000 6.255000 25.020000
Ni 2.085000 4.170000 27.105000
Ni 0.000000 6.255000 27.105000
Ni 0.000000 4.170000 29.190000
Ni 2.085000 6.255000 29.190000
Ni 2.085000 4.170000 31.275000
Ni 0.000000 6.255000 31.275000
Ni 0.000000 4.170000 33.360000
Ni 2.085000 6.255000 33.360000
Ni 2.085000 4.170000 35.445000
Ni 0.000000 6.255000 35.445000
Ni 0.000000 4.170000 37.530000
Ni 2.085000 6.255000 37.530000
Ni 2.085000 4.170000 39.615000
Ni 0.000000 6.255000 39.615000
Ni 0.000000 8.340000 0.000000
Ni 2.085000 10.425000 0.000000
Ni 2.085000 8.340000 2.085000
Ni 0.000000 10.425000 2.085000
Ni 0.000000 8.340000 4.170000
Ni 2.085000 10.425000 4.170000
Ni 2.085000 8.340000 6.255000
Ni 0.000000 10.425000 6.255000
Ni 0.000000 8.340000 8.340000
Ni 2.085000 10.425000 8.340000
Ni 2.085000 8.340000 10.425000
Ni 0.000000 10.425000 10.425000
Ni 0.000000 8.340000 12.510000
Ni 2.085000 10.425000 12.510000
Ni 2.085000 8.340000 14.595000
Ni 0.000000 10.425000 14.595000
Ni 0.000000 8.340000 16.680000
Ni 2.085000 10.425000 16.680000
Ni 2.085000 8.340000 18.765000
Ni 0.000000 10.425000 18.765000
Ni 0.000000 8.340000 20.850000
Ni 2.085000 10.425000 20.850000
Ni 2.085000 8.340000 22.935000
Ni 0.000000 10.425000 22.935000
Ni 0.000000 8.340000 25.020000
Ni 2.085000 10.425000 25.020000
Ni 2.085000 8.340000 27.105000
Ni 0.000000 10.425000 27.105000
Ni 0.000000 8.340000 29.190000
Ni 2.085000 10.425000 29.190000
Ni 2.085000 8.340000 31.275000
Ni 0.000000 10.425000 31.275000
Ni 0.000000 8.340000 33.360000
Ni 2.085000 10.425000 33.360000
Ni 2.085000 8.340000 35.445000
Ni 0.000000 10.425000 35.445000
Ni 0.000000 8.340000 37.530000
Ni 0.000000 12.510000 0.000000
Ni 2.085000 14.595000 0.000000
Ni 2.085000 12.510000 2.085000
Ni 0.000000 14.595000 2.085000
Ni 0.000000 12.510000 4.170000
Ni 2.085000 14.595000 4.170000
Ni 2.085000 12.510000 6.255000
Ni 0.000000 14.595000 6.255000
Ni 0.000000 12.510000 8.340000
Ni 2.085000 14.595000 8.340000
Ni 2.085000 12.510000 10.425000
Ni 0.000000 14.595000 10.425000
Ni 0.000000 12.510000 12.510000
Ni 2.085000 14.595000 12.510000
Ni 2.085000 12.510000 14.595000
Ni 0.000000 14.595000 14.595000
Ni 0.000000 12.510000 16.680000
Ni 2.085000 14.595000 16.680000
Ni 2.085000 12.510000 18.765000
Ni 0.000000 14.595000 18.765000
Ni 0.000000 12.510000 20.850000
Ni 2.085000 14.595000 20.850000
Ni 2.085000 12.510000 22.935000
Ni 0.000000 14.595000 22.935000
Ni 0.000000 12.510000 25.020000
Ni 2.085000 14.595000 25.020000
Ni 2.085000 12.510000 27.105000
Ni 0.000000 14.595000 27.105000
Ni 0.000000 12.510000 29.190000
Ni 2.085000 14.595000 29.190000
Ni 2.085000 12.510000 31.275000
Ni 0.000000 14.595000 31.275000
Ni 0.000000 12.510000 33.360000
Ni 0.000000 16.680000 0.000000
Ni 2.085000 18.765000 0.000000
Ni 2.085000 16.680000 2.085000
Ni 0.000000 18.765000 2.085000
Ni 0.000000 16.680000 4.170000
Ni 2.085000 18.765000 4.170000
Ni 2.085000 16.680000 6.255000
Ni 0.000000 18.765000 6.255000
Ni 0.000000 16.680000 8.340000
Ni 2.085000 18.765000 8.340000
Ni 2.085000 16.680000 10.425000
Ni 0.000000 18.765000 10.425000
Ni 0.000000 16.680000 12.510000
Ni 2.085000 18.765000 12.510000
Ni 2.085000 16.680000 14.595000
Ni 0.000000 18.765000 14.595000
Ni 0.000000 16.680000 16.680000
Ni 2.085000 18.765000 16.680000
Ni 2.085000 16.680000 18.765000
Ni 0.000000 18.765000 18.765000
Ni 0.000000 16.680000 20.850000
Ni 2.085000 18.765000 20.850000
Ni 2.085000 16.680000 22.935000
Ni 0.000000 18.765000 22.935000
Ni 0.000000 16.680000 25.020000
Ni 2.085000 18.765000 25.020000
Ni 2.085000 16.680000 27.105000
Ni 0.000000 18.765000 27.105000
Ni 0.000000 16.680000 29.190000
Ni 0.000000 20.850000 0.000000
Ni 2.085000 22.935000 0.000000
Ni 2.085000 20.850000 2.085000
Ni 0.000000 22.935000 2.085000
Ni 0.000000 20.850000 4.170000
Ni 2.085000 22.935000 4.170000
Ni 2.085000 20.850000 6.255000
Ni 0.000000 22.935000 6.255000
Ni 0.000000 20.850000 8.340000
Ni 2.085000 22.935000 8.340000
Ni 2.085000 20.850000 10.425000
Ni 0.000000 22.935000 10.425000
Ni 0.000000 20.850000 12.510000
Ni 2.085000 22.935000 12.510000
Ni 2.085000 20.850000 14.595000
Ni 0.000000 22.935000 14.595000
Ni 0.000000 20.850000 16.680000
Ni 2.085000 22.935000 16.680000
Ni 2.085000 20.850000 18.765000
Ni 0.000000 22.935000 18.765000
Ni 0.000000 20.850000 20.850000
Ni 2.085000 22.935000 20.850000
Ni 2.085000 20.850000 22.935000
Ni 0.000000 22.935000 22.935000
Ni 0.000000 20.850000 25.020000
Ni 2.085000 22.935000 25.020000
Ni 0.000000 22.935000 27.105000
Ni 0.000000 25.020000 0.000000
Ni 2.085000 27.105000 0.000000
Ni 2.085000 25.020000 2.085000
Ni 0.000000 27.105000 2.085000
Ni 0.000000 25.020000 4.170000
Ni 2.085000 27.105000 4.170000
Ni 2.085000 25.020000 6.255000
Ni 0.000000 27.105000 6.255000
Ni 0.000000 25.020000 8.340000
Ni 2.085000 27.105000 8.340000
Ni 2.085000 25.020000 10.425000
Ni 0.000000 27.105000 10.425000
Ni 0.000000 25.020000 12.510000
Ni 2.085000 27.105000 12.510000
Ni 2.085000 25.020000 14.595000
Ni 0.000000 27.105000 14.595000
Ni 0.000000 25.020000 16.680000
Ni 2.085000 27.105000 16.680000
Ni 2.085000 25.020000 18.765000
Ni 0.000000 27.105000 18.765000
Ni 0.000000 25.020000 20.850000
Ni 2.085000 27.105000 20.850000
Ni 2.085000 25.020000 22.935000
Ni 0.000000 27.105000 22.935000
Ni 0.000000 25.020000 25.020000
Ni 2.085000 27.105000 25.020000
Ni 2.085000 25.020000 27.105000
Ni 0.000000 27.105000 27.105000
Ni 0.000000 25.020000 29.190000
Ni 2.085000 27.105000 29.190000
Ni 0.000000 27.105000 31.275000
Ni 0.000000 29.190000 0.000000
Ni 2.085000 31.275000 0.000000
Ni 2.085000 29.190000 2.085000
Ni 0.000000 31.275000 2.085000
Ni 0.000000 29.190000 4.170000
Ni 2.085000 31.275000 4.170000
Ni 2.085000 29.190000 6.255000
Ni 0.000000 31.275000 6.255000
Ni 0.000000 29.190000 8.340000
Ni 2.085000 31.275000 8.340000
Ni 2.085000 29.190000 10.425000
Ni 0.000000 31.275000 10.425000
Ni 0.000000 29.190000 12.510000
Ni 2.085000 31.275000 12.510000
Ni 2.085000 29.190000 14.595000
Ni 0.000000 31.275000 14.595000
Ni 0.000000 29.190000 16.680000
Ni 2.085000 31.275000 16.680000
Ni 2.085000 29.190000 18.765000
Ni 0.000000 31.275000 18.765000
Ni 0.000000 29.190000 20.850000
Ni 2.085000 31.275000 20.850000
Ni 2.085000 29.190000 22.935000
Ni 0.000000 31.275000 22.935000
Ni 0.000000 29.190000 25.020000
Ni 2.085000 31.275000 25.020000
Ni 2.085000 29.190000 27.105000
Ni 0.000000 31.275000 27.105000
Ni 0.000000 29.190000 29.190000
Ni 2.085000 31.275000 29.190000
Ni 2.085000 29.190000 31.275000
Ni 0.000000 31.275000 31.275000
Ni 0.000000 29.190000 33.360000
Ni 2.085000 31.275000 33.360000
Ni 0.000000 31.275000 35.445000
Ni 0.000000 33.360000 0.000000
Ni 2.085000 35.445000 0.000000
Ni 2.085000 33.360000 2.085000
Ni 0.000000 35.445000 2.085000
Ni 0.000000 33.360000 4.170000
Ni 2.085000 35.445000 4.170000
Ni 2.085000 33.360000 6.255000
Ni 0.000000 35.445000 6.255000
Ni 0.000000 33.360000 8.340000
Ni 2.085000 35.445000 8.340000
Ni 2.085000 33.360000 10.425000
Ni 0.000000 35.445000 10.425000
Ni 0.000000 33.360000 12.510000
Ni 2.085000 35.445000 12.510000
Ni 2.085000 33.360000 14.595000
Ni 0.000000 35.445000 14.595000
Ni 0.000000 33.360000 16.680000
Ni 2.085000 35.445000 16.680000
Ni 2.085000 33.360000 18.765000
Ni 0.000000 35.445000 18.765000
Ni 0.000000 33.360000 20.850000
Ni 2.085000 35.445000 20.850000
Ni 2.085000 33.360000 22.935000
Ni 0.000000 35.445000 22.935000
Ni 0.000000 33.360000 25.020000
Ni 2.085000 35.445000 25.020000
Ni 2.085000 33.360000 27.105000
Ni 0.000000 35.445000 27.105000
Ni 0.000000 33.360000 29.190000
Ni 2.085000 35.445000 29.190000
Ni 2.085000 33.360000 31.275000
Ni 0.000000 35.445000 31.275000
Ni 0.000000 33.360000 33.360000
Ni 2.085000 35.445000 33.360000
Ni 2.085000 33.360000 35.445000
Ni 0.000000 35.445000 35.445000
Ni 0.000000 33.360000 37.530000
Ni 2.085000 35.445000 37.530000
Ni 0.000000 35.445000 39.615000
Ni 0.000000 37.530000 0.000000
Ni 2.085000 39.615000 0.000000
Ni 2.085000 37.530000 2.085000
Ni 0.000000 39.615000 2.085000
Ni 0.000000 37.530000 4.170000
Ni 2.085000 39.615000 4.170000
Ni 2.085000 37.530000 6.255000
Ni 0.000000 39.615000 6.255000
Ni 0.000000 37.530000 8.340000
Ni 2.085000 39.615000 8.340000
Ni 2.085000 37.530000 10.425000
Ni 0.000000 39.615000 10.425000
Ni 0.000000 37.530000 12.510000
Ni 2.085000 39.615000 12.510000
Ni 2.085000 37.530000 14.595000
Ni 0.000000 39.615000 14.595000
Ni 0.000000 37.530000 16.680000
Ni 2.085000 39.615000 16.680000
Ni 2.085000 37.530000 18.765000
Ni 0.000000 39.615000 18.765000
Ni 0.000000 37.530000 20.850000
Ni 2.085000 39.615000 20.850000
Ni 2.085000 37.530000 22.935000
Ni 0.000000 39.615000 22.935000
Ni 0.000000 37.530000 25.020000
Ni 2.085000 39.615000 25.020000
Ni 2.085000 37.530000 27.105000
Ni 0.000000 39.615000 27.105000
Ni 0.000000 37.530000 29.190000
Ni 2.085000 39.615000 29.190000
Ni 2.085000 37.530000 31.275000
Ni 0.000000 39.615000 31.275000
Ni 0.000000 37.530000 33.360000
Ni 2.085000 39.615000 33.360000
Ni 2.085000 37.530000 35.445000
Ni 0.000000 39.615000 35.445000
Ni 0.000000 37.530000 37.530000
Ni 2.085000 39.615000 37.530000
Ni 2.085000 37.530000 39.615000
Ni 0.000000 39.615000 39.615000
Ni 4.170000 0.000000 0.000000
Ni 6.255000 2.085000 0.000000
Ni 6.255000 0.000000 2.085000
Ni 4.170000 2.085000 2.085000
Ni 4.170000 0.000000 4.170000
Ni 6.255000 2.085000 4.170000
Ni 6.255000 0.000000 6.255000
Ni 4.170000 2.085000 6.255000
Ni 4.170000 0.000000 8.340000
Ni 6.255000 2.085000 8.340000
Ni 6.255000 0.000000 10.425000
Ni 4.170000 2.085000 10.425000
Ni 4.170000 0.000000 12.510000
Ni 6.255000 2.085000 12.510000
Ni 6.255000 0.000000 14.595000
Ni 4.170000 2.085000 14.595000
Ni 4.170000 0.000000 16.680000
Ni 6.255000 2.085000 16.680000
Ni 6.255000 0.000000 18.765000
Ni 4.170000 2.085000 18.765000
Ni 4.170000 0.000000 20.850000
Ni 6.255000 2.085000 20.850000
Ni 6.255000 0.000000 22.935000
Ni 4.170000 2.085000 22.935000
Ni 4.170000 0.000000 25.020000
Ni 6.255000 2.085000 25.020000
Ni 6.255000 0.000000 27.105000
Ni 4.170000 2.085000 27.105000
Ni 4.170000 0.000000 29.190000
Ni 6.255000 2.085000 29.190000
Ni 6.255000 0.000000 31.275000
Ni 4.170000 2.085000 31.275000
Ni 4.170000 0.000000 33.360000
Ni 6.255000 2.085000 33.360000
Ni 6.255000 0.000000 35.445000
Ni 4.170000 2.085000 35.445000
Ni 4.170000 0.000000 37.530000
Ni 6.255000 2.085000 37.530000
Ni 6.255000 0.000000 39.615000
Ni 4.170000 2.085000 39.615000
Ni 4.170000 4.170000 0.000000
Ni 6.255000 6.255000 0.000000
Ni 6.255000 4.170000 2.085000
Ni 4.170000 6.255000 2.085000
Ni 4.170000 4.170000 4.170000
Ni 6.255000 6.255000 4.170000
Ni 6.255000 4.170000 6.255000
Ni 4.170000 6.255000 6.255000
Ni 4.170000 4.170000 8.340000
Ni 6.255000 6.255000 8.340000
Ni 6.255000 4.170000 10.425000
Ni 4.170000 6.255000 10.425000
Ni 4.170000 4.170000 12.510000
Ni 6.255000 6.255000 12.510000
Ni 6.255000 4.170000 14.595000
Ni 4.170000 6.255000 14.595000
Ni 4.170000 4.170000 16.680000
Ni 6.255000 6.255000 16.680000
Ni 6.255000 4.170000 18.765000
Ni 4.170000 6.255000 18.765000
Ni 4.170000 4.170000 20.850000
Ni 6.255000 6.255000 20.850000
Ni 6.255000 4.170000 22.935000
Ni 4.170000 6.255000 22.935000
Ni 4.170000 4.170000 25.020000
Ni 6.255000 6.255000 25.020000
Ni 6.255000 4.170000 27.105000
Ni 4.170000 6.255000 27.105000
Ni 4.170000 4.170000 29.190000
Ni 6.255000 6.255000 29.190000
Ni 6.255000 4.170000 31.275000
Ni 4.170000 6.255000 31.275000
Ni 4.170000 4.170000 33.360000
Ni 6.255000 6.255000 33.360000
Ni 6.255000 4.170000 35.445000
Ni 4.170000 6.255000 35.445000
Ni 4.170000 4.170000 37.530000
Ni 6.255000 6.255000 37.530000
Ni 6.255000 4.170000 39.615000
Ni 4.170000 6.255000 39.615000
Ni 4.170000 8.340000 0.000000
Ni 6.255000 10.425000 0.000000
Ni 6.255000 8.340000 2.085000
Ni 4.170000 10.425000 2.085000
Ni 4.170000 8.340000 4.170000
Ni 6.255000 10.425000 4.170000
Ni 6.255000 8.340000 6.255000
Ni 4.170000 10.425000 6.255000
Ni 4.170000 8.340000 8.340000
Ni 6.255000 10.425000 8.340000
Ni 6.255000 8.340000 10.425000
Ni 4.170000 10.425000 10.425000
Ni 4.170000 8.340000 12.510000
Ni 6.255000 10.425000 12.510000
Ni 6.255000 8.340000 14.595000
Ni 4.170000 10.425000 14.595000
Ni 4.170000 8.340000 16.680000
Ni 6.255000 10.425000 16.680000
Ni 6.255000 8.340000 18.765000
Ni 4.170000 10.425000 18.765000
Ni 4.170000 8.340000 20.850000
Ni 6.255000 10.425000 20.850000
Ni 6.255000 8.340000 22.935000
Ni 4.170000 10.425000 22.935000
Ni 4.170000 8.340000 25.020000
Ni 6.255000 10.425000 25.020000
Ni 6.255000 8.340000 27.105000
Ni 4.170000 10.425000 27.105000
Ni 4.170000 8.340000 29.190000
Ni 6.255000 10.425000 29.190000
Ni 6.255000 8.340000 31.275000
Ni 4.170000 10.425000 31.275000
Ni 4.170000 8.340000 33.360000
Ni 6.255000 10.425000 33.360000
Ni 6.255000 8.340000 35.445000
Ni 4.170000 10.425000 35.445000
Ni 4.170000 8.340000 37.530000
Ni 4.170000 12.510000 0.000000
Ni 6.255000 14.595000 0.000000
Ni 6.255000 12.510000 2.085000
Ni 4.170000 14.595000 2.085000
Ni 4.170000 12.510000 4.170000
Ni 6.255000 14.595000 4.170000
Ni 6.255000 12.510000 6.255000
Ni 4.170000 14.595000 6.255000
Ni 4.170000 12.510000 8.340000
Ni 6.255000 14.595000 8.340000
Ni 6.255000 12.510000 10.425000
Ni 4.170000 14.595000 10.425000
Ni 4.170000 12.510000 12.510000
Ni 6.255000 14.595000 12.510000
Ni 6.255000 12.510000 14.595000
Ni 4.170000 14.595000 14.595000
Ni 4.170000 12.510000 16.680000
Ni 6.255000 14.595000 16.680000
Ni 6.255000 12.510000 18.765000
Ni 4.170000 14.595000 18.765000
Ni 4.170000 12.510000 20.850000
Ni 6.255000 14.595000 20.850000
Ni 6.255000 12.510000 22.935000
Ni 4.170000 14.595000 22.935000
Ni 4.170000 12.510000 25.020000
Ni 6.255000 14.595000 25.020000
Ni 6.255000 12.510000 27.105000
Ni 4.170000 14.595000 27.105000
Ni 4.170000 12.510000 29.190000
Ni 6.255000 14.595000 29.190000
Ni 6.255000 12.510000 31.275000
Ni 4.170000 14.595000 31.275000
Ni 4.170000 12.510000 33.360000
Ni 4.170000 16.680000 0.000000
Ni 6.255000 18.765000 0.000000
Ni 6.255000 16.680000 2.085000
Ni 4.170000 18.765000 2.085000
Ni 4.170000 16.680000 4.170000
Ni 6.255000 18.765000 4.170000
Ni 6.255000 16.680000 6.255000
Ni 4.170000 18.765000 6.255000
Ni 4.170000 16.680000 8.340000
Ni 6.255000 18.765000 8.340000
Ni 6.255000 16.680000 10.425000
Ni 4.170000 18.765000 10.425000
Ni 4.170000 16.680000 12.510000
Ni 6.255000 18.765000 12.510000
Ni 6.255000 16.680000 14.595000
Ni 4.170000 18.765000 14.595000
Ni 4.170000 16.680000 16.680000
Ni 6.255000 18.765000 16.680000
Ni 6.255000 16.680000 18.765000
Ni 4.170000 18.765000 18.765000
Ni 4.170000 16.680000 20.850000
Ni 6.255000 18.765000 20.850000
Ni 6.255000 16.680000 22.935000
Ni 4.170000 18.765000 22.935000
Ni 4.170000 16.680000 25.020000
Ni 6.255000 18.765000 25.020000
Ni 6.255000 16.680000 27.105000
Ni 4.170000 18.765000 27.105000
Ni 4.170000 16.680000 29.190000
Ni 4.170000 20.850000 0.000000
Ni 6.255000 22.935000 0.000000
Ni 6.255000 20.850000 2.085000
Ni 4.170000 22.935000 2.085000
Ni 4.170000 20.850000 4.170000
Ni 6.255000 22.935000 4.170000
Ni 6.255000 20.850000 6.255000
Ni 4.170000 22.935000 6.255000
Ni 4.170000 20.850000 8.340000
Ni 6.255000 22.935000 8.340000
Ni 6.255000 20.850000 10.425000
Ni 4.170000 22.935000 10.425000
Ni 4.170000 20.850000 12.510000
Ni 6.255000 22.935000 12.510000
Ni 6.255000 20.850000 14.595000
Ni 4.170000 22.935000 14.595000
Ni 4.170000 20.850000 16.680000
Ni 6.255000 22.935000 16.680000
Ni 6.255000 20.850000 18.765000
Ni 4.170000 22.935000 18.765000
Ni 4.170000 20.850000 20.850000
Ni 6.255000 22.935000 20.850000
Ni 6.255000 20.850000 22.935000
Ni 4.170000 22.935000 22.935000
Ni 4.170000 20.850000 25.020000
Ni 6.255000 22.935000 25.020000
Ni 4.170000 22.935000 27.105000
Ni 4.170000 25.020000 0.000000
Ni 6.255000 27.105000 0.000000
Ni 6.255000 25.020000 2.085000
Ni 4.170000 27.105000 2.085000
Ni 4.170000 25.020000 4.170000
Ni 6.255000 27.105000 4.170000
Ni 6.255000 25.020000 6.255000
Ni 4.170000 27.105000 6.255000
Ni 4.170000 25.020000 8.340000
Ni 6.255000 27.105000 8.340000
Ni 6.255000 25.020000 10.425000
Ni 4.170000 27.105000 10.425000
Ni 4.170000 25.020000 12.510000
Ni 6.255000 27.105000 12.510000
Ni 6.255000 25.020000 14.595000
Ni 4.170000 27.105000 14.595000
Ni 4.170000 25.020000 16.680000
Ni 6.255000 27.105000 16.680000
Ni 6.255000 25.020000 18.765000
Ni 4.170000 27.105000 18.765000
Ni 4.170000 25.020000 20.850000
Ni 6.255000 27.105000 20.850000
Ni 6.255000 25.020000 22.935000
Ni 4.170000 27.105000 22.935000
Ni 4.170000 25.020000 25.020000
Ni 6.255000 27.105000 25.020000
Ni 6.255000 25.020000 27.105000
Ni 4.170000 27.105000 27.105000
Ni 4.170000 25.020000 29.190000
Ni 6.255000 27.105000 29.190000
Ni 4.170000 27.105000 31.275000
Ni 4.170000 29.190000 0.000000
Ni 6.255000 31.275000 0.000000
Ni 6.255000 29.190000 2.085000
Ni 4.170000 31.275000 2.085000
Ni 4.170000 29.190000 4.170000
Ni 6.255000 31.275000 4.170000
Ni 6.255000 29.190000 6.255000
Ni 4.170000 31.275000 6.255000
Ni 4.170000 29.190000 8.340000
Ni 6.255000 31.275000 8.340000
Ni 6.255000 29.190000 10.425000
Ni 4.170000 31.275000 10.425000
Ni 4.170000 29.190000 12.510000
Ni 6.255000 31.275000 12.510000
Ni 6.255000 29.190000 14.595000
Ni 4.170000 31.275000 14.595000
Ni 4.170000 29.190000 16.680000
Ni 6.255000 31.275000 16.680000
Ni 6.255000 29.190000 18.765000
Ni 4.170000 31.275000 18.765000
Ni 4.170000 29.190000 20.850000
Ni 6.255000 31.275000 20.850000
Ni 6.255000 29.190000 22.935000
Ni 4.170000 31.275000 22.935000
Ni 4.170000 29.190000 25.020000
Ni 6.255000 31.275000 25.020000
Ni 6.255000 29.190000 27.105000
Ni 4.170000 31.275000 27.105000
Ni 4.170000 29.190000 29.190000
Ni 6.255000 31.275000 29.190000
Ni 6.255000 29.190000 31.275000
Ni 4.170000 31.275000 31.275000
Ni 4.170000 29.190000 33.360000
Ni 6.255000 31.275000 33.360000
Ni 4.170000 31.275000 35.445000
Ni 4.170000 33.360000 0.000000
Ni 6.255000 35.445000 0.000000
Ni 6.255000 33.360000 2.085000
Ni 4.170000 35.445000 2.085000
Ni 4.170000 33.360000 4.170000
Ni 6.255000 35.445000 4.170000
Ni 6.255000 33.360000 6.255000
Ni 4.170000 35.445000 6.255000
Ni 4.170000 33.360000 8.340000
Ni 6.255000 35.445000 8.340000
Ni 6.255000 33.360000 10.425000
Ni 4.170000 35.445000 10.425000
Ni 4.170000 33.360000 12.510000
Ni 6.255000 35.445000 12.510000
Ni 6.255000 33.360000 14.595000
Ni 4.170000 35.445000 14.595000
Ni 4.170000 33.360000 16.680000
Ni 6.255000 35.445000 16.680000
Ni 6.255000 33.360000 18.765000
Ni 4.170000 35.445000 18.765000
Ni 4.170000 33.360000 20.850000
Ni 6.255000 35.445000 20.850000
Ni 6.255000 33.360000 22.935000
Ni 4.170000 35.445000 22.935000
Ni 4.170000 33.360000 25.020000
Ni 6.255000 35.445000 25.020000
Ni 6.255000 33.360000 27.105000
Ni 4.170000 35.445000 27.105000
Ni 4.170000 33.360000 29.190000
Ni 6.255000 35.445000 29.190000
Ni 6.255000 33.360000 31.275000
Ni 4.170000 35.445000 31.275000
Ni 4.170000 33.360000 33.360000
Ni 6.255000 35.445000 33.360000
Ni 6.255000 33.360000 35.445000
Ni 4.170000 35.445000 35.445000
Ni 4.170000 33.360000 37.530000
Ni 6.255000 35.445000 37.530000
Ni 4.170000 35.445000 39.615000
Ni 4.170000 37.530000 0.000000
Ni 6.255000 39.615000 0.000000
Ni 6.255000 37.530000 2.085000
Ni 4.170000 39.615000 2.085000
Ni 4.170000 37.530000 4.170000
Ni 6.255000 39.615000 4.170000
Ni 6.255000 37.530000 6.255000
Ni 4.170000 39.615000 6.255000
Ni 4.170000 37.530000 8.340000
Ni 6.255000 39.615000 8.340000
Ni 6.255000 37.530000 10.425000
Ni 4.170000 39.615000 10.425000
Ni 4.170000 37.530000 12.510000
Ni 6.255000 39.615000 12.510000
Ni 6.255000 37.530000 14.595000
Ni 4.170000 39.615000 14.595000
Ni 4.170000 37.530000 16.680000
Ni 6.255000 39.615000 16.680000
Ni 6.255000 37.530000 18.765000
Ni 4.170000 39.615000 18.765000
Ni 4.170000 37.530000 20.850000
Ni 6.255000 39.615000 20.850000
Ni 6.255000 37.530000 22.935000
Ni 4.170000 39.615000 22.935000
Ni 4.170000 37.530000 25.020000
Ni 6.255000 39.615000 25.020000
Ni 6.255000 37.530000 27.105000
Ni 4.170000 39.615000 27.105000
Ni 4.170000 37.530000 29.190000
Ni 6.255000 39.615000 29.190000
Ni 6.255000 37.530000 31.275000
Ni 4.170000 39.615000 31.275000
Ni 4.170000 37.530000 33.360000
Ni 6.255000 39.615000 33.360000
Ni 6.255000 37.530000 35.445000
Ni 4.170000 39.615000 35.445000
Ni 4.170000 37.530000 37.530000
Ni 6.255000 39.615000 37.530000
Ni 6.255000 37.530000 39.615000
Ni 4.170000 39.615000 39.615000
Ni 8.340000 0.000000 0.000000
Ni 10.425000 2.085000 0.000000
Ni 10.425000 0.000000 2.085000
Ni 8.340000 2.085000 2.085000
Ni 8.340000 0.000000 4.170000
Ni 10.425000 2.085000 4.170000
Ni 10.425000 0.000000 6.255000
Ni 8.340000 2.085000 6.255000
Ni 8.340000 0.000000 8.340000
Ni 10.425000 2.085000 8.340000
Ni 10.425000 0.000000 10.425000
Ni 8.340000 2.085000 10.425000
Ni 8.340000 0.000000 12.510000
Ni 10.425000 2.085000 12.510000
Ni 10.425000 0.000000 14.595000
Ni 8.340000 2.085000 14.595000
Ni 8.340000 0.000000 16.680000
Ni 10.425000 2.085000 16.680000
Ni 10.425000 0.000000 18.765000
Ni 8.340000 2.085000 18.765000
Ni 8.340000 0.000000 20.850000
Ni 10.425000 2.085000 20.850000
Ni 10.425000 0.000000 22.935000
Ni 8.340000 2.085000 22.935000
Ni 8.340000 0.000000 25.020000
Ni 10.425000 2.085000 25.020000
Ni 10.425000 0.000000 27.105000
Ni 8.340000 2.085000 27.105000
Ni 8.340000 0.000000 29.190000
Ni 10.425000 2.085000 29.190000
Ni 10.425000 0.000000 31.275000
Ni 8.340000 2.085000 31.275000
Ni 8.340000 0.000000 33.360000
Ni 10.425000 2.085000 33.360000
Ni 10.425000 0.000000 35.445000
Ni 8.340000 2.085000 35.445000
Ni 8.340000 0.000000 37.530000
Ni 10.425000 2.085000 37.530000
Ni 10.425000 0.000000 39.615000
Ni 8.340000 2.085000 39.615000
Ni 8.340000 4.170000 0.000000
Ni 10.425000 6.255000 0.000000
Ni 10.425000 4.170000 2.085000
Ni 8.340000 6.255000 2.085000
Ni 8.340000 4.170000 4.170000
Ni 10.425000 6.255000 4.170000
Ni 10.425000 4.170000 6.255000
Ni 8.340000 6.255000 6.255000
Ni 8.340000 4.170000 8.340000
Ni 10.425000 6.255000 8.340000
Ni 10.425000 4.170000 10.425000
Ni 8.340000 6.255000 10.425000
Ni 8.340000 4.170000 12.510000
Ni 10.425000 6.255000 12.510000
Ni 10.425000 4.170000 14.595000
Ni 8.340000 6.255000 14.595000
Ni 8.340000 4.170000 16.680000
Ni 10.425000 6.255000 16.680000
Ni 10.425000 4.170000 18.765000
Ni 8.340000 6.255000 18.765000
Ni 8.340000 4.170000 20.850000
Ni 10.425000 6.255000 20.850000
Ni 10.425000 4.170000 22.935000
Ni 8.340000 6.255000 22.935000
Ni 8.340000 4.170000 25.020000
Ni 10.425000 6.255000 25.020000
Ni 10.425000 4.170000 27.105000
Ni 8.340000 6.255000 27.105000
Ni 8.340000 4.170000 29.190000
Ni 10.425000 6.255000 29.190000
Ni 10.425000 4.170000 31.275000
Ni 8.340000 6.255000 31.275000
Ni 8.340000 4.170000 33.360000
Ni 10.425000 6.255000 33.360000
Ni 10.425000 4.170000 35.445000
Ni 8.340000 6.255000 35.445000
Ni 8.340000 4.170000 37.530000
Ni 10.425000 6.255000 37.530000
Ni 10.425000 4.170000 39.615000
Ni 8.340000 6.255000 39.615000
Ni 8.340000 8.340000 0.000000
Ni 10.425000 10.425000 0.000000
Ni 10.425000 8.340000 2.085000
Ni 8.340000 10.425000 2.085000
Ni 8.340000 8.340000 4.170000
Ni 10.425000 10.425000 4.170000
Ni 10.425000 8.340000 6.255000
Ni 8.340000 10.425000 6.255000
Ni 8.340000 8.340000 8.340000
Ni 10.425000 10.425000 8.340000
Ni 10.425000 8.340000 10.425000
Ni 8.340000 10.425000 10.425000
Ni 8.340000 8.340000 12.510000
Ni 10.425000 10.425000 12.510000
Ni 10.425000 8.340000 14.595000
Ni 8.340000 10.425000 14.595000
Ni 8.340000 8.340000 16.680000
Ni 10.425000 10.425000 16.680000
Ni 10.425000 8.340000 18.765000
Ni 8.340000 10.425000 18.765000
Ni 8.340000 8.340000 20.850000
Ni 10.425000 10.425000 20.850000
Ni 10.425000 8.340000 22.935000
Ni 8.340000 10.425000 22.935000
Ni 8.340000 8.340000 25.020000
Ni 10.425000 10.425000 25.020000
Ni 10.425000 8.340000 27.105000
Ni 8.340000 10.425000 27.105000
Ni 8.340000 8.340000 29.190000
Ni 10.425000 10.425000 29.190000
Ni 10.425000 8.340000 31.275000
Ni 8.340000 10.425000 31.275000
Ni 8.340000 8.340000 33.360000
Ni 10.425000 10.425000 33.360000
Ni 10.425000 8.340000 35.445000
Ni 8.340000 10.425000 35.445000
Ni 8.340000 8.340000 37.530000
Ni 8.340000 12.510000 0.000000
Ni 10.425000 14.595000 0.000000
Ni 10.425000 12.510000 2.085000
Ni 8.340000 14.595000 2.085000
Ni 8.340000 12.510000 4.170000
Ni 10.425000 14.595000 4.170000
Ni 10.425000 12.510000 6.255000
Ni 8.340000 14.595000 6.255000
Ni 8.340000 12.510000 8.340000
Ni 10.425000 14.595000 8.340000
Ni 10.425000 12.510000 10.425000
Ni 8.340000 14.595000 10.425000
Ni 8.340000 12.510000 12.510000
Ni 10.425000 14.595000 12.510000
Ni 10.425000 12.510000 14.595000
Ni 8.340000 14.595000 14.595000
Ni 8.340000 12.510000 16.680000
Ni 10.425000 14.595000 16.680000
Ni 10.425000 12.510000 18.765000
Ni 8.340000 14.595000 18.765000
Ni 8.340000 12.510000 20.850000
Ni 10.425000 14.595000 20.850000
Ni 10.425000 12.510000 22.935000
Ni 8.340000 14.595000 22.935000
Ni 8.340000 12.510000 25.020000
Ni 10.425000 14.595000 25.020000
Ni 10.425000 12.510000 27.105000
Ni 8.340000 14.595000 27.105000
Ni 8.340000 12.510000 29.190000
Ni 10.425000 14.595000 29.190000
Ni 10.425000 12.510000 31.275000
Ni 8.340000 14.595000 31.275000
Ni 8.340000 12.510000 33.360000
Ni 8.340000 16.680000 0.000000
Ni 10.425000 18.765000 0.000000
Ni 10.425000 16.680000 2.085000
Ni 8.340000 18.765000 2.085000
Ni 8.340000 16.680000 4.170000
Ni 10.425000 18.765000 4.170000
Ni 10.425000 16.680000 6.255000
Ni 8.340000 18.765000 6.255000
Ni 8.340000 16.680000 8.340000
Ni 10.425000 18.765000 8.340000
Ni 10.425000 16.680000 10.425000
Ni 8.340000 18.765000 10.425000
Ni 8.340000 16.680000 12.510000
Ni 10.425000 18.765000 12.510000
Ni 10.425000 16.680000 14.595000
Ni 8.340000 18.765000 14.595000
Ni 8.340000 16.680000 16.680000
Ni 10.425000 18.765000 16.680000
Ni 10.425000 16.680000 18.765000
Ni 8.340000 18.765000 18.765000
Ni 8.340000 16.680000 20.850000
Ni 10.425000 18.765000 20.850000
Ni 10.425000 16.680000 22.935000
Ni 8.340000 18.765000 22.935000
Ni 8.340000 16.680000 25.020000
Ni 10.425000 18.765000 25.020000
Ni 10.425000 16.680000 27.105000
Ni 8.340000 18.765000 27.105000
Ni 8.340000 16.680000 29.190000
Ni 8.340000 20.850000 0.000000
Ni 10.425000 22.935000 0.000000
Ni 10.425000 20.850000 2.085000
Ni 8.340000 22.935000 2.085000
Ni 8.340000 20.850000 4.170000
Ni 10.425000 22.935000 4.170000
Ni 10.425000 20.850000 6.255000
Ni 8.340000 22.935000 6.255000
Ni 8.340000 20.850000 8.340000
Ni 10.425000 22.935000 8.340000
Ni 10.425000 20.850000 10.425000
Ni 8.340000 22.935000 10.425000
Ni 8.340000 20.850000 12.510000
Ni 10.425000 22.935000 12.510000
Ni 10.425000 20.850000 14.595000
Ni 8.340000 22.935000 14.595000
Ni 8.340000 20.850000 16.680000
Ni 10.425000 22.935000 16.680000
Ni 10.425000 20.850000 18.765000
Ni 8.340000 22.935000 18.765000
Ni 8.340000 20.850000 20.850000
Ni 10.425000 22.935000 20.850000
Ni 10.425000 20.850000 22.935000
Ni 8.340000 22.935000 22.935000
Ni 8.340000 20.850000 25.020000
Ni 10.425000 22.935000 25.020000
Ni 8.340000 22.935000 27.105000
Ni 8.340000 25.020000 0.000000
Ni 10.425000 27.105000 0.000000
Ni 10.425000 25.020000 2.085000
Ni 8.340000 27.105000 2.085000
Ni 8.340000 25.020000 4.170000
Ni 10.425000 27.105000 4.170000
Ni 10.425000 25.020000 6.255000
Ni 8.340000 27.105000 6.255000
Ni 8.340000 25.020000 8.340000
Ni 10.425000 27.105000 8.340000
Ni 10.425000 25.020000 10.425000
Ni 8.340000 27.105000 10.425000
Ni 8.340000 25.020000 12.510000
Ni 10.425000 27.105000 12.510000
Ni 10.425000 25.020000 14.595000
Ni 8.340000 27.105000 14.595000
Ni 8.340000 25.020000 16.680000
Ni 10.425000 27.105000 16.680000
Ni 10.425000 25.020000 18.765000
Ni 8.340000 27.105000 18.765000
Ni 8.340000 25.020000 20.850000
Ni 10.425000 27.105000 20.850000
Ni 10.425000 25.020000 22.935000
Ni 8.340000 27.105000 22.935000
Ni 8.340000 25.020000 25.020000
Ni 10.425000 27.105000 25.020000
Ni 10.425000 25.020000 27.105000
Ni 8.340000 27.105000 27.105000
Ni 8.340000 25.020000 29.190000
Ni 10.425000 27.105000 29.190000
Ni 8.340000 27.105000 31.275000
Ni 8.340000 29.190000 0.000000
Ni 10.425000 31.275000 0.000000
Ni 10.425000 29.190000 2.085000
Ni 8.340000 31.275000 2.085000
Ni 8.340000 29.190000 4.170000
Ni 10.425000 31.275000 4.170000
Ni 10.425000 29.190000 6.255000
Ni 8.340000 31.275000 6.255000
Ni 8.340000 29.190000 8.340000
Ni 10.425000 31.275000 8.340000
Ni 10.425000 29.190000 10.425000
Ni 8.340000 31.275000 10.425000
Ni 8.340000 29.190000 12.510000
Ni 10.425000 31.275000 12.510000
Ni 10.425000 29.190000 14.595000
Ni 8.340000 31.275000 14.595000
Ni 8.340000 29.190000 16.680000
Ni 10.425000 31.275000 16.680000
Ni 10.425000 29.190000 18.765000
Ni 8.340000 31.275000 18.765000
Ni 8.340000 29.190000 20.850000
Ni 10.425000 31.275000 20.850000
Ni 10.425000 29.190000 22.935000
Ni 8.340000 31.275000 22.935000
Ni 8.340000 29.190000 25.020000
Ni 10.425000 31.275000 25.020000
Ni 10.425000 29.190000 27.105000
Ni 8.340000 31.275000 27.105000
Ni 8.340000 29.190000 29.190000
Ni 10.425000 31.275000 29.190000
Ni 10.425000 29.190000 31.275000
Ni 8.340000 31.275000 31.275000
Ni 8.340000 29.190000 33.360000
Ni 10.425000 31.275000 33.360000
Ni 8.340000 31.275000 35.445000
Ni 8.340000 33.360000 0.000000
Ni 10.425000 35.445000 0.000000
Ni 10.425000 33.360000 2.085000
Ni 8.340000 35.445000 2.085000
Ni 8.340000 33.360000 4.170000
Ni 10.425000 35.445000 4.170000
Ni 10.425000 33.360000 6.255000
Ni 8.340000 35.445000 6.255000
Ni 8.340000 33.360000 8.340000
Ni 10.425000 35.445000 8.340000
Ni 10.425000 33.360000 10.425000
Ni 8.340000 35.445000 10.425000
Ni 8.340000 33.360000 12.510000
Ni 10.425000 35.445000 12.510000
Ni 10.425000 33.360000 14.595000
Ni 8.340000 35.445000 14.595000
Ni 8.340000 33.360000 16.680000
Ni 10.425000 35.445000 16.680000
Ni 10.425000 33.360000 18.765000
Ni 8.340000 35.445000 18.765000
Ni 8.340000 33.360000 20.850000
Ni 10.425000 35.445000 20.850000
Ni 10.425000 33.360000 22.935000
Ni 8.340000 35.445000 22.935000
Ni 8.340000 33.360000 25.020000
Ni 10.425000 35.445000 25.020000
Ni 10.425000 33.360000 27.105000
Ni 8.340000 35.445000 27.105000
Ni 8.340000 33.360000 29.190000
Ni 10.425000 35.445000 29.190000
Ni 10.425000 33.360000 31.275000
Ni 8.340000 35.445000 31.275000
Ni 8.340000 33.360000 33.360000
Ni 10.425000 35.445000 33.360000
Ni 10.425000 33.360000 35.445000
Ni 8.340000 35.445000 35.445000
Ni 8.340000 33.360000 37.530000
Ni 10.425000 35.445000 37.530000
Ni 8.340000 35.445000 39.615000
Ni 8.340000 37.530000 0.000000
Ni 10.425000 39.615000 0.000000
Ni 10.425000 37.530000 2.085000
Ni 8.340000 39.615000 2.085000
Ni 8.340000 37.530000 4.170000
Ni 10.425000 39.615000 4.170000
Ni 10.425000 37.530000 6.255000
Ni 8.340000 39.615000 6.255000
Ni 8.340000 37.530000 8.340000
Ni 10.425000 39.615000 8.340000
Ni 10.425000 37.530000 10.425000
Ni 8.340000 39.615000 10.425000
Ni 8.340000 37.530000 12.510000
Ni 10.425000 39.615000 12.510000
Ni 10.425000 37.530000 14.595000
Ni 8.340000 39.615000 14.595000
Ni 8.340000 37.530000 16.680000
Ni 10.425000 39.615000 16.680000
Ni 10.425000 37.530000 18.765000
Ni 8.340000 39.615000 18.765000
Ni 8.340000 37.530000 20.850000
Ni 10.425000 39.615000 20.850000
Ni 10.425000 37.530000 22.935000
Ni 8.340000 39.615000 22.935000
Ni 8.340000 37.530000 25.020000
Ni 10.425000 39.615000 25.020000
Ni 10.425000 37.530000 27.105000
Ni 8.340000 39.615000 27.105000
Ni 8.340000 37.530000 29.190000
Ni 10.425000 39.615000 29.190000
Ni 10.425000 37.530000 31.275000
Ni 8.340000 39.615000 31.275000
Ni 8.340000 37.530000 33.360000
Ni 10.425000 39.615000 33.360000
Ni 10.425000 37.530000 35.445000
Ni 8.340000 39.615000 35.445000
Ni 8.340000 37.530000 37.530000
Ni 10.425000 39.615000 37.530000
Ni 10.425000 37.530000 39.615000
Ni 8.340000 39.615000 39.615000
Ni 12.510000 0.000000 0.000000
Ni 14.595000 2.085000 0.000000
Ni 14.595000 0.000000 2.085000
Ni 12.510000 2.085000 2.085000
Ni 12.510000 0.000000 4.170000
Ni 14.595000 2.085000 4.170000
Ni 14.595000 0.000000 6.255000
Ni 12.510000 2.085000 6.255000
Ni 12.510000 0.000000 8.340000
Ni 14.595000 2.085000 8.340000
Ni 14.595000 0.000000 10.425000
Ni 12.510000 2.085000 10.425000
Ni 12.510000 0.000000 12.510000
Ni 14.595000 2.085000 12.510000
Ni 14.595000 0.000000 14.595000
Ni 12.510000 2.085000 14.595000
Ni 12.510000 0.000000 16.680000
Ni 14.595000 2.085000 16.680000
Ni 14.595000 0.000000 18.765000
Ni 12.510000 2.085000 18.765000
Ni 12.510000 0.000000 20.850000
Ni 14.595000 2.085000 20.850000
Ni 14.595000 0.000000 22.935000
Ni 12.510000 2.085000 22.935000
Ni 12.510000 0.000000 25.020000
Ni 14.595000 2.085000 25.020000
Ni 14.595000 0.000000 27.105000
Ni 12.510000 2.085000 27.105000
Ni 12.510000 0.000000 29.190000
Ni 14.595000 2.085000 29.190000
Ni 14.595000 0.000000 31.275000
Ni 12.510000 2.085000 31.275000
Ni 12.510000 0.000000 33.360000
Ni 14.595000 2.085000 33.360000
Ni 14.595000 0.000000 35.445000
Ni 12.510000 2.085000 35.445000
Ni 12.510000 0.000000 37.530000
Ni 14.595000 2.085000 37.530000
Ni 14.595000 0.000000 39.615000
Ni 12.510000 2.085000 39.615000
Ni 12.510000 4.170000 0.000000
Ni 14.595000 6.255000 0.000000
Ni 14.595000 4.170000 2.085000
Ni 12.510000 6.255000 2.085000
Ni 12.510000 4.170000 4.170000
Ni 14.595000 6.255000 4.170000
Ni 14.595000 4.170000 6.255000
Ni 12.510000 6.255000 6.255000
Ni 12.510000 4.170000 8.340000
Ni 14.595000 6.255000 8.340000
Ni 14.595000 4.170000 10.425000
Ni 12.510000 6.255000 10.425000
Ni 12.510000 4.170000 12.510000
Ni 14.595000 6.255000 12.510000
Ni 14.595000 4.170000 14.595000
Ni 12.510000 6.255000 14.595000
Ni 12.510000 4.170000 16.680000
Ni 14.595000 6.255000 16.680000
Ni 14.595000 4.170000 18.765000
Ni 12.510000 6.255000 18.765000
Ni 12.510000 4.170000 20.850000
Ni 14.595000 6.255000 20.850000
Ni 14.595000 4.170000 22.935000
Ni 12.510000 6.255000 22.935000
Ni 12.510000 4.170000 25.020000
Ni 14.595000 6.255000 25.020000
Ni 14.595000 4.170000 27.105000
Ni 12.510000 6.255000 27.105000
Ni 12.510000 4.170000 29.190000
Ni 14.595000 6.255000 29.190000
Ni 14.595000 4.170000 31.275000
Ni 12.510000 6.255000 31.275000
Ni 12.510000 4.170000 33.360000
Ni 14.595000 6.255000 33.360000
Ni 14.595000 4.170000 35.445000
Ni 12.510000 6.255000 35.445000
Ni 12.510000 4.170000 37.530000
Ni 14.595000 6.255000 37.530000
Ni 14.595000 4.170000 39.615000
Ni 12.510000 6.255000 39.615000
Ni 12.510000 8.340000 0.000000
Ni 14.595000 10.425000 0.000000
Ni 14.595000 8.340000 2.085000
Ni 12.510000 10.425000 2.085000
Ni 12.510000 8.340000 4.170000
Ni 14.595000 10.425000 4.170000
Ni 14.595000 8.340000 6.255000
Ni 12.510000 10.425000 6.255000
Ni 12.510000 8.340000 8.340000
Ni 14.595000 10.425000 8.340000
Ni 14.595000 8.340000 10.425000
Ni 12.510000 10.425000 10.425000
Ni 12.510000 8.340000 12.510000
Ni 14.595000 10.425000 12.510000
Ni 14.595000 8.340000 14.595000
Ni 12.510000 10.425000 14.595000
Ni 12.510000 8.340000 16.680000
Ni 14.595000 10.425000 16.680000
Ni 14.595000 8.340000 18.765000
Ni 12.510000 10.425000 18.765000
Ni 12.510000 8.340000 20.850000
Ni 14.595000 10.425000 20.850000
Ni 14.595000 8.340000 22.935000
Ni 12.510000 10.425000 22.935000
Ni 12.510000 8.340000 25.020000
Ni 14.595000 10.425000 25.020000
Ni 14.595000 8.340000 27.105000
Ni 12.510000 10.425000 27.105000
Ni 12.510000 8.340000 29.190000
Ni 14.595000 10.425000 29.190000
Ni 14.595000 8.340000 31.275000
Ni 12.510000 10.425000 31.275000
Ni 12.510000 8.340000 33.360000
Ni 14.595000 10.425000 33.360000
Ni 14.595000 8.340000 35.445000
Ni 12.510000 10.425000 35.445000
Ni 12.510000 8.340000 37.530000
Ni 12.510000 12.510000 0.000000
Ni 14.595000 14.595000 0.000000
Ni 14.595000 12.510000 2.085000
Ni 12.510000 14.595000 2.085000
Ni 12.510000 12.510000 4.170000
Ni 14.595000 14.595000 4.170000
Ni 14.595000 12.510000 6.255000
Ni 12.510000 14.595000 6.255000
Ni 12.510000 12.510000 8.340000
Ni 14.595000 14.595000 8.340000
Ni 14.595000 12.510000 10.425000
Ni 12.510000 14.595000 10.425000
Ni 12.510000 12.510000 12.510000
Ni 14.595000 14.595000 12.510000
Ni 14.595000 12.510000 14.595000
Ni 12.510000 14.595000 14.595000
Ni 12.510000 12.510000 16.680000
Ni 14.595000 14.595000 16.680000
Ni 14.595000 12.510000 18.765000
Ni 12.510000 14.595000 18.765000
Ni 12.510000 12.510000 20.850000
Ni 14.595000 14.595000 20.850000
Ni 14.595000 12.510000 22.935000
Ni 12.510000 14.595000 22.935000
Ni 12.510000 12.510000 25.020000
Ni 14.595000 14.595000 25.020000
Ni 14.595000 12.510000 27.105000
Ni 12.510000 14.595000 27.105000
Ni 12.510000 12.510000 29.190000
Ni 14.595000 14.595000 29.190000
Ni 14.595000 12.510000 31.275000
Ni 12.510000 14.595000 31.275000
Ni 12.510000 12.510000 33.360000
Ni 12.510000 16.680000 0.000000
Ni 14.595000 18.765000 0.000000
Ni 14.595000 16.680000 2.085000
Ni 12.510000 18.765000 2.085000
Ni 12.510000 16.680000 4.170000
Ni 14.595000 18.765000 4.170000
Ni 14.595000 16.680000 6.255000
Ni 12.510000 18.765000 6.255000
Ni 12.510000 16.680000 8.340000
Ni 14.595000 18.765000 8.340000
Ni 14.595000 16.680000 10.425000
Ni 12.510000 18.765000 10.425000
Ni 12.510000 16.680000 12.510000
Ni 14.595000 18.765000 12.510000
Ni 14.595000 16.680000 14.595000
Ni 12.510000 18.765000 14.595000
Ni 12.510000 16.680000 16.680000
Ni 14.595000 18.765000 16.680000
Ni 14.595000 16.680000 18.765000
Ni 12.510000 18.765000 18.765000
Ni 12.510000 16.680000 20.850000
Ni 14.595000 18.765000 20.850000
Ni 14.595000 16.680000 22.935000
Ni 12.510000 18.765000 22.935000
Ni 12.510000 16.680000 25.020000
Ni 14.595000 18.765000 25.020000
Ni 14.595000 16.680000 27.105000
Ni 12.510000 18.765000 27.105000
Ni 12.510000 16.680000 29.190000
Ni 12.510000 20.850000 0.000000
Ni 14.595000 22.935000 0.000000
Ni 14.595000 20.850000 2.085000
Ni 12.510000 22.935000 2.085000
Ni 12.510000 20.850000 4.170000
Ni 14.595000 22.935000 4.170000
Ni 14.595000 20.850000 6.255000
Ni 12.510000 22.935000 6.255000
Ni 12.510000 20.850000 8.340000
Ni 14.595000 22.935000 8.340000
Ni 14.595000 20.850000 10.425000
Ni 12.510000 22.935000 10.425000
Ni 12.510000 20.850000 12.510000
Ni 14.595000 22.935000 12.510000
Ni 14.595000 20.850000 14.595000
Ni 12.510000 22.935000 14.595000
Ni 12.510000 20.850000 16.680000
Ni 14.595000 22.935000 16.680000
Ni 14.595000 20.850000 18.765000
Ni 12.510000 22.935000 18.765000
Ni 12.510000 20.850000 20.850000
Ni 14.595000 22.935000 20.850000
Ni 14.595000 20.850000 22.935000
Ni 12.510000 22.935000 22.935000
Ni 12.510000 20.850000 25.020000
Ni 14.595000 22.935000 25.020000
Ni 12.510000 22.935000 27.105000
Ni 12.510000 25.020000 0.000000
Ni 14.595000 27.105000 0.000000
Ni 14.595000 25.020000 2.085000
Ni 12.510000 27.105000 2.085000
Ni 12.510000 25.020000 4.170000
Ni 14.595000 27.105000 4.170000
Ni 14.595000 25.020000 6.255000
Ni 12.510000 27.105000 6.255000
Ni 12.510000 25.020000 8.340000
Ni 14.595000 27.105000 8.340000
Ni 14.595000 25.020000 10.425000
Ni 12.510000 27.105000 10.425000
Ni 12.510000 25.020000 12.510000
Ni 14.595000 27.105000 12.510000
Ni 14.595000 25.020000 14.595000
Ni 12.510000 27.105000 14.595000
Ni 12.510000 25.020000 16.680000
Ni 14.595000 27.105000 16.680000
Ni 14.595000 25.020000 18.765000
Ni 12.510000 27.105000 18.765000
Ni 12.510000 25.020000 20.850000
Ni 14.595000 27.105000 20.850000
Ni 14.595000 25.020000 22.935000
Ni 12.510000 27.105000 22.935000
Ni 12.510000 25.020000 25.020000
Ni 14.595000 27.105000 25.020000
Ni 14.595000 25.020000 27.105000
Ni 12.510000 27.105000 27.105000
Ni 12.510000 25.020000 29.190000
Ni 14.595000 27.105000 29.190000
Ni 12.510000 27.105000 31.275000
Ni 12.510000 29.190000 0.000000
Ni 14.595000 31.275000 0.000000
Ni 14.595000 29.190000 2.085000
Ni 12.510000 31.275000 2.085000
Ni 12.510000 29.190000 4.170000
Ni 14.595000 31.275000 4.170000
Ni 14.595000 29.190000 6.255000
Ni 12.510000 31.275000 6.255000
Ni 12.510000 29.190000 8.340000
Ni 14.595000 31.275000 8.340000
Ni 14.595000 29.190000 10.425000
Ni 12.510000 31.275000 10.425000
Ni 12.510000 29.190000 12.510000
Ni 14.595000 31.275000 12.510000
Ni 14.595000 29.190000 14.595000
Ni 12.510000 31.275000 14.595000
Ni 12.510000 29.190000 16.680000
Ni 14.595000 31.275000 16.680000
Ni 14.595000 29.190000 18.765000
Ni 12.510000 31.275000 18.765000
Ni 12.510000 29.190000 20.850000
Ni 14.595000 31.275000 20.850000
Ni 14.595000 29.190000 22.935000
Ni 12.510000 31.275000 22.935000
Ni 12.510000 29.190000 25.020000
Ni 14.595000 31.275000 25.020000
Ni 14.595000 29.190000 27.105000
Ni 12.510000 31.275000 27.105000
Ni 12.510000 29.190000 29.190000
Ni 14.595000 31.275000 29.190000
Ni 14.595000 29.190000 31.275000
Ni 12.510000 31.275000 31.275000
Ni 12.510000 29.190000 33.360000
Ni 14.595000 31.275000 33.360000
Ni 12.510000 31.275000 35.445000
Ni 12.510000 33.360000 0.000000
Ni 14.595000 35.445000 0.000000
Ni 14.595000 33.360000 2.085000
Ni 12.510000 35.445000 2.085000
Ni 12.510000 33.360000 4.170000
Ni 14.595000 35.445000 4.170000
Ni 14.595000 33.360000 6.255000
Ni 12.510000 35.445000 6.255000
Ni 12.510000 33.360000 8.340000
Ni 14.595000 35.445000 8.340000
Ni 14.595000 33.360000 10.425000
Ni 12.510000 35.445000 10.425000
Ni 12.510000 33.360000 12.510000
Ni 14.595000 35.445000 12.510000
Ni 14.595000 33.360000 14.595000
Ni 12.510000 35.445000 14.595000
Ni 12.510000 33.360000 16.680000
Ni 14.595000 35.445000 16.680000
Ni 14.595000 33.360000 18.765000
Ni 12.510000 35.445000 18.765000
Ni 12.510000 33.360000 20.850000
Ni 14.595000 35.445000 20.850000
Ni 14.595000 33.360000 22.935000
Ni 12.510000 35.445000 22.935000
Ni 12.510000 33.360000 25.020000
Ni 14.595000 35.445000 25.020000
Ni 14.595000 33.360000 27.105000
Ni 12.510000 35.445000 27.105000
Ni 12.510000 33.360000 29.190000
Ni 14.595000 35.445000 29.190000
Ni 14.595000 33.360000 31.275000
Ni 12.510000 35.445000 31.275000
Ni 12.510000 33.360000 33.360000
Ni 14.595000 35.445000 33.360000
Ni 14.595000 33.360000 35.445000
Ni 12.510000 35.445000 35.445000
Ni 12.510000 33.360000 37.530000
Ni 14.595000 35.445000 37.530000
Ni 12.510000 35.445000 39.615000
Ni 12.510000 37.530000 0.000000
Ni 14.595000 39.615000 0.000000
Ni 14.595000 37.530000 2.085000
Ni 12.510000 39.615000 2.085000
Ni 12.510000 37.530000 4.170000
Ni 14.595000 39.615000 4.170000
Ni 14.595000 37.530000 6.255000
Ni 12.510000 39.615000 6.255000
Ni 12.510000 37.530000 8.340000
Ni 14.595000 39.615000 8.340000
Ni 14.595000 37.530000 10.425000
Ni 12.510000 39.615000 10.425000
Ni 12.510000 37.530000 12.510000
Ni 14.595000 39.615000 12.510000
Ni 14.595000 37.530000 14.595000
Ni 12.510000 39.615000 14.595000
Ni 12.510000 37.530000 16.680000
Ni 14.595000 39.615000 16.680000
Ni 14.595000 37.530000 18.765000
Ni 12.510000 39.615000 18.765000
Ni 12.510000 37.530000 20.850000
Ni 14.595000 39.615000 20.850000
Ni 14.595000 37.530000 22.935000
Ni 12.510000 39.615000 22.935000
Ni 12.510000 37.530000 25.020000
Ni 14.595000 39.615000 25.020000
Ni 14.595000 37.530000 27.105000
Ni 12.510000 39.615000 27.105000
Ni 12.510000 37.530000 29.190000
Ni 14.595000 39.615000 29.190000
Ni 14.595000 37.530000 31.275000
Ni 12.510000 39.615000 31.275000
Ni 12.510000 37.530000 33.360000
Ni 14.595000 39.615000 33.360000
Ni 14.595000 37.530000 35.445000
Ni 12.510000 39.615000 35.445000
Ni 12.510000 37.530000 37.530000
Ni 14.595000 39.615000 37.530000
Ni 14.595000 37.530000 39.615000
Ni 12.510000 39.615000 39.615000
Ni 16.680000 0.000000 0.000000
Ni 18.765000 2.085000 0.000000
Ni 18.765000 0.000000 2.085000
Ni 16.680000 2.085000 2.085000
Ni 16.680000 0.000000 4.170000
Ni 18.765000 2.085000 4.170000
Ni 18.765000 0.000000 6.255000
Ni 16.680000 2.085000 6.255000
Ni 16.680000 0.000000 8.340000
Ni 18.765000 2.085000 8.340000
Ni 18.765000 0.000000 10.425000
Ni 16.680000 2.085000 10.425000
Ni 16.680000 0.000000 12.510000
Ni 18.765000 2.085000 12.510000
Ni 18.765000 0.000000 14.595000
Ni 16.680000 2.085000 14.595000
Ni 16.680000 0.000000 16.680000
Ni 18.765000 2.085000 16.680000
Ni 18.765000 0.000000 18.765000
Ni 16.680000 2.085000 18.765000
Ni 16.680000 0.000000 20.850000
Ni 18.765000 2.085000 20.850000
Ni 18.765000 0.000000 22.935000
Ni 16.680000 2.085000 22.935000
Ni 16.680000 0.000000 25.020000
Ni 18.765000 2.085000 25.020000
Ni 18.765000 0.000000 27.105000
Ni 16.680000 2.085000 27.105000
Ni 16.680000 0.000000 29.190000
Ni 18.765000 2.085000 29.190000
Ni 18.765000 0.000000 31.275000
Ni 16.680000 2.085000 31.275000
Ni 16.680000 0.000000 33.360000
Ni 18.765000 2.085000 33.360000
Ni 18.765000 0.000000 35.445000
Ni 16.680000 2.085000 35.445000
Ni 16.680000 0.000000 37.530000
Ni 18.765000 2.085000 37.530000
Ni 18.765000 0.000000 39.615000
Ni 16.680000 2.085000 39.615000
Ni 16.680000 4.170000 0.000000
Ni 18.765000 6.255000 0.000000
Ni 18.765000 4.170000 2.085000
Ni 16.680000 6.255000 2.085000
Ni 16.680000 4.170000 4.170000
Ni 18.765000 6.255000 4.170000
Ni 18.765000 4.170000 6.255000
Ni 16.680000 6.255000 6.255000
Ni 16.680000 4.170000 8.340000
Ni 18.765000 6.255000 8.340000
Ni 18.765000 4.170000 10.425000
Ni 16.680000 6.255000 10.425000
Ni 16.680000 4.170000 12.510000
Ni 18.765000 6.255000 12.510000
Ni 18.765000 4.170000 14.595000
Ni 16.680000 6.255000 14.595000
Ni 16.680000 4.170000 16.680000
Ni 18.765000 6.255000 16.680000
Ni 18.765000 4.170000 18.765000
Ni 16.680000 6.255000 18.765000
Ni 16.680000 4.170000 20.850000
Ni 18.765000 6.255000 20.850000
Ni 18.765000 4.170000 22.935000
Ni 16.680000 6.255000 22.935000
Ni 16.680000 4.170000 25.020000
Ni 18.765000 6.255000 25.020000
Ni 18.765000 4.170000 27.105000
Ni 16.680000 6.255000 27.105000
Ni 16.680000 4.170000 29.190000
Ni 18.765000 6.255000 29.190000
Ni 18.765000 4.170000 31.275000
Ni 16.680000 6.255000 31.275000
Ni 16.680000 4.170000 33.360000
Ni 18.765000 6.255000 33.360000
Ni 18.765000 4.170000 35.445000
Ni 16.680000 6.255000 35.445000
Ni 16.680000 4.170000 37.530000
Ni 18.765000 6.255000 37.530000
Ni 18.765000 4.170000 39.615000
Ni 16.680000 6.255000 39.615000
Ni 16.680000 8.340000 0.000000
Ni 18.765000 10.425000 0.000000
Ni 18.765000 8.340000 2.085000
Ni 16.680000 10.425000 2.085000
Ni 16.680000 8.340000 4.170000
Ni 18.765000 10.425000 4.170000
Ni 18.765000 8.340000 6.255000
Ni 16.680000 10.425000 6.255000
Ni 16.680000 8.340000 8.340000
Ni 18.765000 10.425000 8.340000
Ni 18.765000 8.340000 10.425000
Ni 16.680000 10.425000 10.425000
Ni 16.680000 8.340000 12.510000
Ni 18.765000 10.425000 12.510000
Ni 18.765000 8.340000 14.595000
Ni 16.680000 10.425000 14.595000
Ni 16.680000 8.340000 16.680000
Ni 18.765000 10.425000 16.680000
Ni 18.765000 8.340000 18.765000
Ni 16.680000 10.425000 18.765000
Ni 16.680000 8.340000 20.850000
Ni 18.765000 10.425000 20.850000
Ni 18.765000 8.340000 22.935000
Ni 16.680000 10.425000 22.935000
Ni 16.680000 8.340000 25.020000
Ni 18.765000 10.425000 25.020000
Ni 18.765000 8.340000 27.105000
Ni 16.680000 10.425000 27.105000
Ni 16.680000 8.340000 29.190000
Ni 18.765000 10.425000 29.190000
Ni 18.765000 8.340000 31.275000
Ni 16.680000 10.425000 31.275000
Ni 16.680000 8.340000 33.360000
Ni 18.765000 10.425000 33.360000
Ni 18.765000 8.340000 35.445000
Ni 16.680000 10.425000 35.445000
Ni 16.680000 8.340000 37.530000
Ni 16.680000 12.510000 0.000000
Ni 18.765000 14.595000 0.000000
Ni 18.765000 12.510000 2.085000
Ni 16.680000 14.595000 2.085000
Ni 16.680000 12.510000 4.170000
Ni 18.765000 14.595000 4.170000
Ni 18.765000 12.510000 6.255000
Ni 16.680000 14.595000 6.255000
Ni 16.680000 12.510000 8.340000
Ni 18.765000 14.595000 8.340000
Ni 18.765000 12.510000 10.425000
Ni 16.680000 14.595000 10.425000
Ni 16.680000 12.510000 12.510000
Ni 18.765000 14.595000 12.510000
Ni 18.765000 12.510000 14.595000
Ni 16.680000 14.595000 14.595000
Ni 16.680000 12.510000 16.680000
Ni 18.765000 14.595000 16.680000
Ni 18.765000 12.510000 18.765000
Ni 16.680000 14.595000 18.765000
Ni 16.680000 12.510000 20.850000
Ni 18.765000 14.595000 20.850000
Ni 18.765000 12.510000 22.935000
Ni 16.680000 14.595000 22.935000
Ni 16.680000 12.510000 25.020000
Ni 18.765000 14.595000 25.020000
Ni 18.765000 12.510000 27.105000
Ni 16.680000 14.595000 27.105000
Ni 16.680000 12.510000 29.190000
Ni 18.765000 14.595000 29.190000
Ni 18.765000 12.510000 31.275000
Ni 16.680000 14.595000 31.275000
Ni 16.680000 12.510000 33.360000
Ni 16.680000 16.680000 0.000000
Ni 18.765000 18.765000 0.000000
Ni 18.765000 16.680000 2.085000
Ni 16.680000 18.765000 2.085000
Ni 16.680000 16.680000 4.170000
Ni 18.765000 18.765000 4.170000
Ni 18.765000 16.680000 6.255000
Ni 16.680000 18.765000 6.255000
Ni 16.680000 16.680000 8.340000
Ni 18.765000 18.765000 8.340000
Ni 18.765000 16.680000 10.425000
Ni 16.680000 18.765000 10.425000
Ni 16.680000 16.680000 12.510000
Ni 18.765000 18.765000 12.510000
Ni 18.765000 16.680000 14.595000
Ni 16.680000 18.765000 14.595000
Ni 16.680000 16.680000 16.680000
Ni 18.765000 18.765000 16.680000
Ni 18.765000 16.680000 18.765000
Ni 16.680000 18.765000 18.765000
Ni 16.680000 16.680000 20.850000
Ni 18.765000 18.765000 20.850000
Ni 18.765000 16.680000 22.935000
Ni 16.680000 18.765000 22.935000
Ni 16.680000 16.680000 25.020000
Ni 18.765000 18.765000 25.020000
Ni 18.765000 16.680000 27.105000
Ni 16.680000 18.765000 27.105000
Ni 16.680000 16.680000 29.190000
Ni 16.680000 20.850000 0.000000
Ni 18.765000 22.935000 0.000000
Ni 18.765000 20.850000 2.085000
Ni 16.680000 22.935000 2.085000
Ni 16.680000 20.850000 4.170000
Ni 18.765000 22.935000 4.170000
Ni 18.765000 20.850000 6.255000
Ni 16.680000 22.935000 6.255000
Ni 16.680000 20.850000 8.340000
Ni 18.765000 22.935000 8.340000
Ni 18.765000 20.850000 10.425000
Ni 16.680000 22.935000 10.425000
Ni 16.680000 20.850000 12.510000
Ni 18.765000 22.935000 12.510000
Ni 18.765000 20.850000 14.595000
Ni 16.680000 22.935000 14.595000
Ni 16.680000 20.850000 16.680000
Ni 18.765000 22.935000 16.680000
Ni 18.765000 20.850000 18.765000
Ni 16.680000 22.935000 18.765000
Ni 16.680000 20.850000 20.850000
Ni 18.765000 22.935000 20.850000
Ni 18.765000 20.850000 22.935000
Ni 16.680000 22.935000 22.935000
Ni 16.680000 20.850000 25.020000
Ni 18.765000 22.935000 25.020000
Ni 16.680000 22.935000 27.105000
Ni 16.680000 25.020000 0.000000
Ni 18.765000 27.105000 0.000000
Ni 18.765000 25.020000 2.085000
Ni 16.680000 27.105000 2.085000
Ni 16.680000 25.020000 4.170000
Ni 18.765000 27.105000 4.170000
Ni 18.765000 25.020000 6.255000
Ni 16.680000 27.105000 6.255000
Ni 16.680000 25.020000 8.340000
Ni 18.765000 27.105000 8.340000
Ni 18.765000 25.020000 10.425000
Ni 16.680000 27.105000 10.425000
Ni 16.680000 25.020000 12.510000
Ni 18.765000 27.105000 12.510000
Ni 18.765000 25.020000 14.595000
Ni 16.680000 27.105000 14.595000
Ni 16.680000 25.020000 16.680000
Ni 18.765000 27.105000 16.680000
Ni 18.765000 25.020000 18.765000
Ni 16.680000 27.105000 18.765000
Ni 16.680000 25.020000 20.850000
Ni 18.765000 27.105000 20.850000
Ni 18.765000 25.020000 22.935000
Ni 16.680000 27.105000 22.935000
Ni 16.680000 25.020000 25.020000
Ni 18.765000 27.105000 25.020000
Ni 18.765000 25.020000 27.105000
Ni 16.680000 27.105000 27.105000
Ni 16.680000 25.020000 29.190000
Ni 18.765000 27.105000 29.190000
Ni 16.680000 27.105000 31.275000
Ni 16.680000 29.190000 0.000000
Ni 18.765000 31.275000 0.000000
Ni 18.765000 29.190000 2.085000
Ni 16.680000 31.275000 2.085000
Ni 16.680000 29.190000 4.170000
Ni 18.765000 31.275000 4.170000
Ni 18.765000 29.190000 6.255000
Ni 16.680000 31.275000 6.255000
Ni 16.680000 29.190000 8.340000
Ni 18.765000 31.275000 8.340000
Ni 18.765000 29.190000 10.425000
Ni 16.680000 31.275000 10.425000
Ni 16.680000 29.190000 12.510000
Ni 18.765000 31.275000 12.510000
Ni 18.765000 29.190000 14.595000
Ni 16.680000 31.275000 14.595000
Ni 16.680000 29.190000 16.680000
Ni 18.765000 31.275000 16.680000
Ni 18.765000 29.190000 18.765000
Ni 16.680000 31.275000 18.765000
Ni 16.680000 29.190000 20.850000
Ni 18.765000 31.275000 20.850000
Ni 18.765000 29.190000 22.935000
Ni 16.680000 31.275000 22.935000
Ni 16.680000 29.190000 25.020000
Ni 18.765000 31.275000 25.020000
Ni 18.765000 29.190000 27.105000
Ni 16.680000 31.275000 27.105000
Ni 16.680000 29.190000 29.190000
Ni 18.765000 31.275000 29.190000
Ni 18.765000 29.190000 31.275000
Ni 16.680000 31.275000 31.275000
Ni 16.680000 29.190000 33.360000
Ni 18.765000 31.275000 33.360000
Ni 16.680000 31.275000 35.445000
Ni 16.680000 33.360000 0.000000
Ni 18.765000 35.445000 0.000000
Ni 18.765000 33.360000 2.085000
Ni 16.680000 35.445000 2.085000
Ni 16.680000 33.360000 4.170000
Ni 18.765000 35.445000 4.170000
Ni 18.765000 33.360000 6.255000
Ni 16.680000 35.445000 6.255000
Ni 16.680000 33.360000 8.340000
Ni 18.765000 35.445000 8.340000
Ni 18.765000 33.360000 10.425000
Ni 16.680000 35.445000 10.425000
Ni 16.680000 33.360000 12.510000
Ni 18.765000 35.445000 12.510000
Ni 18.765000 33.360000 14.595000
Ni 16.680000 35.445000 14.595000
Ni 16.680000 33.360000 16.680000
Ni 18.765000 35.445000 16.680000
Ni 18.765000 33.360000 18.765000
Ni 16.680000 35.445000 18.765000
Ni 16.680000 33.360000 20.850000
Ni 18.765000 35.445000 20.850000
Ni 18.765000 33.360000 22.935000
Ni 16.680000 35.445000 22.935000
Ni 16.680000 33.360000 25.020000
Ni 18.765000 35.445000 25.020000
Ni 18.765000 33.360000 27.105000
Ni 16.680000 35.445000 27.105000
Ni 16.680000 33.360000 29.190000
Ni 18.765000 35.445000 29.190000
Ni 18.765000 33.360000 31.275000
Ni 16.680000 35.445000 31.275000
Ni 16.680000 33.360000 33.360000
Ni 18.765000 35.445000 33.360000
Ni 18.765000 33.360000 35.445000
Ni 16.680000 35.445000 35.445000
Ni 16.680000 33.360000 37.530000
Ni 18.765000 35.445000 37.530000
Ni 16.680000 35.445000 39.615000
Ni 16.680000 37.530000 0.000000
Ni 18.765000 39.615000 0.000000
Ni 18.765000 37.530000 2.085000
Ni 16.680000 39.615000 2.085000
Ni 16.680000 37.530000 4.170000
Ni 18.765000 39.615000 4.170000
Ni 18.765000 37.530000 6.255000
Ni 16.680000 39.615000 6.255000
Ni 16.680000 37.530000 8.340000
Ni 18.765000 39.615000 8.340000
Ni 18.765000 37.530000 10.425000
Ni 16.680000 39.615000 10.425000
Ni 16.680000 37.530000 12.510000
Ni 18.765000 39.615000 12.510000
Ni 18.765000 37.530000 14.595000
Ni 16.680000 39.615000 14.595000
Ni 16.680000 37.530000 16.680000
Ni 18.765000 39.615000 16.680000
Ni 18.765000 37.530000 18.765000
Ni 16.680000 39.615000 18.765000
Ni 16.680000 37.530000 20.850000
Ni 18.765000 39.615000 20.850000
Ni 18.765000 37.530000 22.935000
Ni 16.680000 39.615000 22.935000
Ni 16.680000 37.530000 25.020000
Ni 18.765000 39.615000 25.020000
Ni 18.765000 37.530000 27.105000
Ni 16.680000 39.615000 27.105000
Ni 16.680000 37.530000 29.190000
Ni 18.765000 39.615000 29.190000
Ni 18.765000 37.530000 31.275000
Ni 16.680000 39.615000 31.275000
Ni 16.680000 37.530000 33.360000
Ni 18.765000 39.615000 33.360000
Ni 18.765000 37.530000 35.445000
Ni 16.680000 39.615000 35.445000
Ni 16.680000 37.530000 37.530000
Ni 18.765000 39.615000 37.530000
Ni 18.765000 37.530000 39.615000
Ni 16.680000 39.615000 39.615000
Ni 20.850000 0.000000 0.000000
Ni 22.935000 2.085000 0.000000
Ni 22.935000 0.000000 2.085000
Ni 20.850000 2.085000 2.085000
Ni 20.850000 0.000000 4.170000
Ni 22.935000 2.085000 4.170000
Ni 22.935000 0.000000 6.255000
Ni 20.850000 2.085000 6.255000
Ni 20.850000 0.000000 8.340000
Ni 22.935000 2.085000 8.340000
Ni 22.935000 0.000000 10.425000
Ni 20.850000 2.085000 10.425000
Ni 20.850000 0.000000 12.510000
Ni 22.935000 2.085000 12.510000
Ni 22.935000 0.000000 14.595000
Ni 20.850000 2.085000 14.595000
Ni 20.850000 0.000000 16.680000
Ni 22.935000 2.085000 16.680000
Ni 22.935000 0.000000 18.765000
Ni 20.850000 2.085000 18.765000
Ni 20.850000 0.000000 20.850000
Ni 22.935000 2.085000 20.850000
Ni 22.935000 0.000000 22.935000
Ni 20.850000 2.085000 22.935000
Ni 20.850000 0.000000 25.020000
Ni 22.935000 2.085000 25.020000
Ni 22.935000 0.000000 27.105000
Ni 20.850000 2.085000 27.105000
Ni 20.850000 0.000000 29.190000
Ni 22.935000 2.085000 29.190000
Ni 22.935000 0.000000 31.275000
Ni 20.850000 2.085000 31.275000
Ni 20.850000 0.000000 33.360000
Ni 22.935000 2.085000 33.360000
Ni 22.935000 0.000000 35.445000
Ni 20.850000 2.085000 35.445000
Ni 20.850000 0.000000 37.530000
Ni 22.935000 2.085000 37.530000
Ni 22.935000 0.000000 39.615000
Ni 20.850000 2.085000 39.615000
Ni 20.850000 4.170000 0.000000
Ni 22.935000 6.255000 0.000000
Ni 22.935000 4.170000 2.085000
Ni 20.850000 6.255000 2.085000
Ni 20.850000 4.170000 4.170000
Ni 22.935000 6.255000 4.170000
Ni 22.935000 4.170000 6.255000
Ni 20.850000 6.255000 6.255000
Ni 20.850000 4.170000 8.340000
Ni 22.935000 6.255000 8.340000
Ni 22.935000 4.170000 10.425000
Ni 20.850000 6.255000 10.425000
Ni 20.850000 4.170000 12.510000
Ni 22.935000 6.255000 12.510000
Ni 22.935000 4.170000 14.595000
Ni 20.850000 6.255000 14.595000
Ni 20.850000 4.170000 16.680000
Ni 22.935000 6.255000 16.680000
Ni 22.935000 4.170000 18.765000
Ni 20.850000 6.255000 18.765000
Ni 20.850000 4.170000 20.850000
Ni 22.935000 6.255000 20.850000
Ni 22.935000 4.170000 22.935000
Ni 20.850000 6.255000 22.935000
Ni 20.850000 4.170000 25.020000
Ni 22.935000 6.255000 25.020000
Ni 22.935000 4.170000 27.105000
Ni 20.850000 6.255000 27.105000
Ni 20.850000 4.170000 29.190000
Ni 22.935000 6.255000 29.190000
Ni 22.935000 4.170000 31.275000
Ni 20.850000 6.255000 31.275000
Ni 20.850000 4.170000 33.360000
Ni 22.935000 6.255000 33.360000
Ni 22.935000 4.170000 35.445000
Ni 20.850000 6.255000 35.445000
Ni 20.850000 4.170000 37.530000
Ni 22.935000 6.255000 37.530000
Ni 22.935000 4.170000 39.615000
Ni 20.850000 6.255000 39.615000
Ni 20.850000 8.340000 0.000000
Ni 22.935000 10.425000 0.000000
Ni 22.935000 8.340000 2.085000
Ni 20.850000 10.425000 2.085000
Ni 20.850000 8.340000 4.170000
Ni 22.935000 10.425000 4.170000
Ni 22.935000 8.340000 6.255000
Ni 20.850000 10.425000 6.255000
Ni 20.850000 8.340000 8.340000
Ni 22.935000 10.425000 8.340000
Ni 22.935000 8.340000 10.425000
Ni 20.850000 10.425000 10.425000
Ni 20.850000 8.340000 12.510000
Ni 22.935000 10.425000 12.510000
Ni 22.935000 8.340000 14.595000
Ni 20.850000 10.425000 14.595000
Ni 20.850000 8.340000 16.680000
Ni 22.935000 10.425000 16.680000
Ni 22.935000 8.340000 18.765000
Ni 20.850000 10.425000 18.765000
Ni 20.850000 8.340000 20.850000
Ni 22.935000 10.425000 20.850000
Ni 22.935000 8.340000 22.935000
Ni 20.850000 10.425000 22.935000
Ni 20.850000 8.340000 25.020000
Ni 22.935000 10.425000 25.020000
Ni 22.935000 8.340000 27.105000
Ni 20.850000 10.425000 27.105000
Ni 20.850000 8.340000 29.190000
Ni 22.935000 10.425000 29.190000
Ni 22.935000 8.340000 31.275000
Ni 20.850000 10.425000 31.275000
Ni 20.850000 8.340000 33.360000
Ni 22.935000 10.425000 33.360000
Ni 22.935000 8.340000 35.445000
Ni 20.850000 10.425000 35.445000
Ni 20.850000 8.340000 37.530000
Ni 20.850000 12.510000 0.000000
Ni 22.935000 14.595000 0.000000
Ni 22.935000 12.510000 2.085000
Ni 20.850000 14.595000 2.085000
Ni 20.850000 12.510000 4.170000
Ni 22.935000 14.595000 4.170000
Ni 22.935000 12.510000 6.255000
Ni 20.850000 14.595000 6.255000
Ni 20.850000 12.510000 8.340000
Ni 22.935000 14.595000 8.340000
Ni 22.935000 12.510000 10.425000
Ni 20.850000 14.595000 10.425000
Ni 20.850000 12.510000 12.510000
Ni 22.935000 14.595000 12.510000
Ni 22.935000 12.510000 14.595000
Ni 20.850000 14.595000 14.595000
Ni 20.850000 12.510000 16.680000
Ni 22.935000 14.595000 16.680000
Ni 22.935000 12.510000 18.765000
Ni 20.850000 14.595000 18.765000
Ni 20.850000 12.510000 20.850000
Ni 22.935000 14.595000 20.850000
Ni 22.935000 12.510000 22.935000
Ni 20.850000 14.595000 22.935000
Ni 20.850000 12.510000 25.020000
Ni 22.935000 14.595000 25.020000
Ni 22.935000 12.510000 27.105000
Ni 20.850000 14.595000 27.105000
Ni 20.850000 12.510000 29.190000
Ni 22.935000 14.595000 29.190000
Ni 22.935000 12.510000 31.275000
Ni 20.850000 14.595000 31.275000
Ni 20.850000 12.510000 33.360000
Ni 20.850000 16.680000 0.000000
Ni 22.935000 18.765000 0.000000
Ni 22.935000 16.680000 2.085000
Ni 20.850000 18.765000 2.085000
Ni 20.850000 16.680000 4.170000
Ni 22.935000 18.765000 4.170000
Ni 22.935000 16.680000 6.255000
Ni 20.850000 18.765000 6.255000
Ni 20.850000 16.680000 8.340000
Ni 22.935000 18.765000 8.340000
Ni 22.935000 16.680000 10.425000
Ni 20.850000 18.765000 10.425000
Ni 20.850000 16.680000 12.510000
Ni 22.935000 18.765000 12.510000
Ni 22.935000 16.680000 14.595000
Ni 20.850000 18.765000 14.595000
Ni 20.850000 16.680000 16.680000
Ni 22.935000 18.765000 16.680000
Ni 22.935000 16.680000 18.765000
Ni 20.850000 18.765000 18.765000
Ni 20.850000 16.680000 20.850000
Ni 22.935000 18.765000 20.850000
Ni 22.935000 16.680000 22.935000
Ni 20.850000 18.765000 22.935000
Ni 20.850000 16.680000 25.020000
Ni 22.935000 18.765000 25.020000
Ni 22.935000 16.680000 27.105000
Ni 20.850000 18.765000 27.105000
Ni 20.850000 16.680000 29.190000
Ni 20.850000 20.850000 0.000000
Ni 22.935000 22.935000 0.000000
Ni 22.935000 20.850000 2.085000
Ni 20.850000 22.935000 2.085000
Ni 20.850000 20.850000 4.170000
Ni 22.935000 22.935000 4.170000
Ni 22.935000 20.850000 6.255000
Ni 20.850000 22.935000 6.255000
Ni 20.850000 20.850000 8.340000
Ni 22.935000 22.935000 8.340000
Ni 22.935000 20.850000 10.425000
Ni 20.850000 22.935000 10.425000
Ni 20.850000 20.850000 12.510000
Ni 22.935000 22.935000 12.510000
Ni 22.935000 20.850000 14.595000
Ni 20.850000 22.935000 14.595000
Ni 20.850000 20.850000 16.680000
Ni 22.935000 22.935000 16.680000
Ni 22.935000 20.850000 18.765000
Ni 20.850000 22.935000 18.765000
Ni 20.850000 20.850000 20.850000
Ni 22.935000 22.935000 20.850000
Ni 22.935000 20.850000 22.935000
Ni 20.850000 22.935000 22.935000
Ni 20.850000 20.850000 25.020000
Ni 22.935000 22.935000 25.020000
Ni 20.850000 22.935000 27.105000
Ni 20.850000 25.020000 0.000000
Ni 22.935000 27.105000 0.000000
Ni 22.935000 25.020000 2.085000
Ni 20.850000 27.105000 2.085000
Ni 20.850000 25.020000 4.170000
Ni 22.935000 27.105000 4.170000
Ni 22.935000 25.020000 6.255000
Ni 20.850000 27.105000 6.255000
Ni 20.850000 25.020000 8.340000
Ni 22.935000 27.105000 8.340000
Ni 22.935000 25.020000 10.425000
Ni 20.850000 27.105000 10.425000
Ni 20.850000 25.020000 12.510000
Ni 22.935000 27.105000 12.510000
Ni 22.935000 25.020000 14.595000
Ni 20.850000 27.105000 14.595000
Ni 20.850000 25.020000 16.680000
Ni 22.935000 27.105000 16.680000
Ni 22.935000 25.020000 18.765000
Ni 20.850000 27.105000 18.765000
Ni 20.850000 25.020000 20.850000
Ni 22.935000 27.105000 20.850000
Ni 22.935000 25.020000 22.935000
Ni 20.850000 27.105000 22.935000
Ni 20.850000 25.020000 25.020000
Ni 22.935000 27.105000 25.020000
Ni 22.935000 25.020000 27.105000
Ni 20.850000 27.105000 27.105000
Ni 20.850000 25.020000 29.190000
Ni 22.935000 27.105000 29.190000
Ni 20.850000 27.105000 31.275000
Ni 20.850000 29.190000 0.000000
Ni 22.935000 31.275000 0.000000
Ni 22.935000 29.190000 2.085000
Ni 20.850000 31.275000 2.085000
Ni 20.850000 29.190000 4.170000
Ni 22.935000 31.275000 4.170000
Ni 22.935000 29.190000 6.255000
Ni 20.850000 31.275000 6.255000
Ni 20.850000 29.190000 8.340000
Ni 22.935000 31.275000 8.340000
Ni 22.935000 29.190000 10.425000
Ni 20.850000 31.275000 10.425000
Ni 20.850000 29.190000 12.510000
Ni 22.935000 31.275000 12.510000
Ni 22.935000 29.190000 14.595000
Ni 20.850000 31.275000 14.595000
Ni 20.850000 29.190000 16.680000
Ni 22.935000 31.275000 16.680000
Ni 22.935000 29.190000 18.765000
Ni 20.850000 31.275000 18.765000
Ni 20.850000 29.190000 20.850000
Ni 22.935000 31.275000 20.850000
Ni 22.935000 29.190000 22.935000
Ni 20.850000 31.275000 22.935000
Ni 20.850000 29.190000 25.020000
Ni 22.935000 31.275000 25.020000
Ni 22.935000 29.190000 27.105000
Ni 20.850000 31.275000 27.105000
Ni 20.850000 29.190000 29.190000
Ni 22.935000 31.275000 29.190000
Ni 22.935000 29.190000 31.275000
Ni 20.850000 31.275000 31.275000
Ni 20.850000 29.190000 33.360000
Ni 22.935000 31.275000 33.360000
Ni 20.850000 31.275000 35.445000
Ni 20.850000 33.360000 0.000000
Ni 22.935000 35.445000 0.000000
Ni 22.935000 33.360000 2.085000
Ni 20.850000 35.445000 2.085000
Ni 20.850000 33.360000 4.170000
Ni 22.935000 35.445000 4.170000
Ni 22.935000 33.360000 6.255000
Ni 20.850000 35.445000 6.255000
Ni 20.850000 33.360000 8.340000
Ni 22.935000 35.445000 8.340000
Ni 22.935000 33.360000 10.425000
Ni 20.850000 35.445000 10.425000
Ni 20.850000 33.360000 12.510000
Ni 22.935000 35.445000 12.510000
Ni 22.935000 33.360000 14.595000
Ni 20.850000 35.445000 14.595000
Ni 20.850000 33.360000 16.680000
Ni 22.935000 35.445000 16.680000
Ni 22.935000 33.360000 18.765000
Ni 20.850000 35.445000 18.765000
Ni 20.850000 33.360000 20.850000
Ni 22.935000 35.445000 20.850000
Ni 22.935000 33.360000 22.935000
Ni 20.850000 35.445000 22.935000
Ni 20.850000 33.360000 25.020000
Ni 22.935000 35.445000 25.020000
Ni 22.935000 33.360000 27.105000
Ni 20.850000 35.445000 27.105000
Ni 20.850000 33.360000 29.190000
Ni 22.935000 35.445000 29.190000
Ni 22.935000 33.360000 31.275000
Ni 20.850000 35.445000 31.275000
Ni 20.850000 33.360000 33.360000
Ni 22.935000 35.445000 33.360000
Ni 22.935000 33.360000 35.445000
Ni 20.850000 35.445000 35.445000
Ni 20.850000 33.360000 37.530000
Ni 22.935000 35.445000 37.530000
Ni 20.850000 35.445000 39.615000
Ni 20.850000 37.530000 0.000000
Ni 22.935000 39.615000 0.000000
Ni 22.935000 37.530000 2.085000
Ni 20.850000 39.615000 2.085000
Ni 20.850000 37.530000 4.170000
Ni 22.935000 39.615000 4.170000
Ni 22.935000 37.530000 6.255000
Ni 20.850000 39.615000 6.255000
Ni 20.850000 37.530000 8.340000
Ni 22.935000 39.615000 8.340000
Ni 22.935000 37.530000 10.425000
Ni 20.850000 39.615000 10.425000
Ni 20.850000 37.530000 12.510000
Ni 22.935000 39.615000 12.510000
Ni 22.935000 37.530000 14.595000
Ni 20.850000 39.615000 14.595000
Ni 20.850000 37.530000 16.680000
Ni 22.935000 39.615000 16.680000
Ni 22.935000 37.530000 18.765000
Ni 20.850000 39.615000 18.765000
Ni 20.850000 37.530000 20.850000
Ni 22.935000 39.615000 20.850000
Ni 22.935000 37.530000 22.935000
Ni 20.850000 39.615000 22.935000
Ni 20.850000 37.530000 25.020000
Ni 22.935000 39.615000 25.020000
Ni 22.935000 37.530000 27.105000
Ni 20.850000 39.615000 27.105000
Ni 20.850000 37.530000 29.190000
Ni 22.935000 39.615000 29.190000
Ni 22.935000 37.530000 31.275000
Ni 20.850000 39.615000 31.275000
Ni 20.850000 37.530000 33.360000
Ni 22.935000 39.615000 33.360000
Ni 22.935000 37.530000 35.445000
Ni 20.850000 39.615000 35.445000
Ni 20.850000 37.530000 37.530000
Ni 22.935000 39.615000 37.530000
Ni 22.935000 37.530000 39.615000
Ni 20.850000 39.615000 39.615000
Ni 25.020000 0.000000 0.000000
Ni 27.105000 2.085000 0.000000
Ni 27.105000 0.000000 2.085000
Ni 25.020000 2.085000 2.085000
Ni 25.020000 0.000000 4.170000
Ni 27.105000 2.085000 4.170000
Ni 27.105000 0.000000 6.255000
Ni 25.020000 2.085000 6.255000
Ni 25.020000 0.000000 8.340000
Ni 27.105000 2.085000 8.340000
Ni 27.105000 0.000000 10.425000
Ni 25.020000 2.085000 10.425000
Ni 25.020000 0.000000 12.510000
Ni 27.105000 2.085000 12.510000
Ni 27.105000 0.000000 14.595000
Ni 25.020000 2.085000 14.595000
Ni 25.020000 0.000000 16.680000
Ni 27.105000 2.085000 16.680000
Ni 27.105000 0.000000 18.765000
Ni 25.020000 2.085000 18.765000
Ni 25.020000 0.000000 20.850000
Ni 27.105000 2.085000 20.850000
Ni 27.105000 0.000000 22.935000
Ni 25.020000 2.085000 22.935000
Ni 25.020000 0.000000 25.020000
Ni 27.105000 2.085000 25.020000
Ni 27.105000 0.000000 27.105000
Ni 25.020000 2.085000 27.105000
Ni 25.020000 0.000000 29.190000
Ni 27.105000 2.085000 29.190000
Ni 27.105000 0.000000 31.275000
Ni 25.020000 2.085000 31.275000
Ni 25.020000 0.000000 33.360000
Ni 27.105000 2.085000 33.360000
Ni 27.105000 0.000000 35.445000
Ni 25.020000 2.085000 35.445000
Ni 25.020000 0.000000 37.530000
Ni 27.105000 2.085000 37.530000
Ni 27.105000 0.000000 39.615000
Ni 25.020000 2.085000 39.615000
Ni 25.020000 4.170000 0.000000
Ni 27.105000 6.255000 0.000000
Ni 27.105000 4.170000 2.085000
Ni 25.020000 6.255000 2.085000
Ni 25.020000 4.170000 4.170000
Ni 27.105000 6.255000 4.170000
Ni 27.105000 4.170000 6.255000
Ni 25.020000 6.255000 6.255000
Ni 25.020000 4.170000 8.340000
Ni 27.105000 6.255000 8.340000
Ni 27.105000 4.170000 10.425000
Ni 25.020000 6.255000 10.425000
Ni 25.020000 4.170000 12.510000
Ni 27.105000 6.255000 12.510000
Ni 27.105000 4.170000 14.595000
Ni 25.020000 6.255000 14.595000
Ni 25.020000 4.170000 16.680000
Ni 27.105000 6.255000 16.680000
Ni 27.105000 4.170000 18.765000
Ni 25.020000 6.255000 18.765000
Ni 25.020000 4.170000 20.850000
Ni 27.105000 6.255000 20.850000
Ni 27.105000 4.170000 22.935000
Ni 25.020000 6.255000 22.935000
Ni 25.020000 4.170000 25.020000
Ni 27.105000 6.255000 25.020000
Ni 27.105000 4.170000 27.105000
Ni 25.020000 6.255000 27.105000
Ni 25.020000 4.170000 29.190000
Ni 27.105000 6.255000 29.190000
Ni 27.105000 4.170000 31.275000
Ni 25.020000 6.255000 31.275000
Ni 25.020000 4.170000 33.360000
Ni 27.105000 6.255000 33.360000
Ni 27.105000 4.170000 35.445000
Ni 25.020000 6.255000 35.445000
Ni 25.020000 4.170000 37.530000
Ni 27.105000 6.255000 37.530000
Ni 27.105000 4.170000 39.615000
Ni 25.020000 6.255000 39.615000
Ni 25.020000 8.340000 0.000000
Ni 27.105000 10.425000 0.000000
Ni 27.105000 8.340000 2.085000
Ni 25.020000 10.425000 2.085000
Ni 25.020000 8.340000 4.170000
Ni 27.105000 10.425000 4.170000
Ni 27.105000 8.340000 6.255000
Ni 25.020000 10.425000 6.255000
Ni 25.020000 8.340000 8.340000
Ni 27.105000 10.425000 8.340000
Ni 27.105000 8.340000 10.425000
Ni 25.020000 10.425000 10.425000
Ni 25.020000 8.340000 12.510000
Ni 27.105000 10.425000 12.510000
Ni 27.105000 8.340000 14.595000
Ni 25.020000 10.425000 14.595000
Ni 25.020000 8.340000 16.680000
Ni 27.105000 10.425000 16.680000
Ni 27.105000 8.340000 18.765000
Ni 25.020000 10.425000 18.765000
Ni 25.020000 8.340000 20.850000
Ni 27.105000 10.425000 20.850000
Ni 27.105000 8.340000 22.935000
Ni 25.020000 10.425000 22.935000
Ni 25.020000 8.340000 25.020000
Ni 27.105000 10.425000 25.020000
Ni 27.105000 8.340000 27.105000
Ni 25.020000 10.425000 27.105000
Ni 25.020000 8.340000 29.190000
Ni 27.105000 10.425000 29.190000
Ni 27.105000 8.340000 31.275000
Ni 25.020000 10.425000 31.275000
Ni 25.020000 8.340000 33.360000
Ni 27.105000 10.425000 33.360000
Ni 27.105000 8.340000 35.445000
Ni 25.020000 10.425000 35.445000
Ni 25.020000 8.340000 37.530000
Ni 25.020000 12.510000 0.000000
Ni 27.105000 14.595000 0.000000
Ni 27.105000 12.510000 2.085000
Ni 25.020000 14.595000 2.085000
Ni 25.020000 12.510000 4.170000
Ni 27.105000 14.595000 4.170000
Ni 27.105000 12.510000 6.255000
Ni 25.020000 14.595000 6.255000
Ni 25.020000 12.510000 8.340000
Ni 27.105000 14.595000 8.340000
Ni 27.105000 12.510000 10.425000
Ni 25.020000 14.595000 10.425000
Ni 25.020000 12.510000 12.510000
Ni 27.105000 14.595000 12.510000
Ni 27.105000 12.510000 14.595000
Ni 25.020000 14.595000 14.595000
Ni 25.020000 12.510000 16.680000
Ni 27.105000 14.595000 16.680000
Ni 27.105000 12.510000 18.765000
Ni 25.020000 14.595000 18.765000
Ni 25.020000 12.510000 20.850000
Ni 27.105000 14.595000 20.850000
Ni 27.105000 12.510000 22.935000
Ni 25.020000 14.595000 22.935000
Ni 25.020000 12.510000 25.020000
Ni 27.105000 14.595000 25.020000
Ni 27.105000 12.510000 27.105000
Ni 25.020000 14.595000 27.105000
Ni 25.020000 12.510000 29.190000
Ni 27.105000 14.595000 29.190000
Ni 27.105000 12.510000 31.275000
Ni 25.020000 14.595000 31.275000
Ni 25.020000 12.510000 33.360000
Ni 25.020000 16.680000 0.000000
Ni 27.105000 18.765000 0.000000
Ni 27.105000 16.680000 2.085000
Ni 25.020000 18.765000 2.085000
Ni 25.020000 16.680000 4.170000
Ni 27.105000 18.765000 4.170000
Ni 27.105000 16.680000 6.255000
Ni 25.020000 18.765000 6.255000
Ni 25.020000 16.680000 8.340000
Ni 27.105000 18.765000 8.340000
Ni 27.105000 16.680000 10.425000
Ni 25.020000 18.765000 10.425000
Ni 25.020000 16.680000 12.510000
Ni 27.105000 18.765000 12.510000
Ni 27.105000 16.680000 14.595000
Ni 25.020000 18.765000 14.595000
Ni 25.020000 16.680000 16.680000
Ni 27.105000 18.765000 16.680000
Ni 27.105000 16.680000 18.765000
Ni 25.020000 18.765000 18.765000
Ni 25.020000 16.680000 20.850000
Ni 27.105000 18.765000 20.850000
Ni 27.105000 16.680000 22.935000
Ni 25.020000 18.765000 22.935000
Ni 25.020000 16.680000 25.020000
Ni 27.105000 18.765000 25.020000
Ni 27.105000 16.680000 27.105000
Ni 25.020000 18.765000 27.105000
Ni 25.020000 16.680000 29.190000
Ni 25.020000 20.850000 0.000000
Ni 27.105000 22.935000 0.000000
Ni 27.105000 20.850000 2.085000
Ni 25.020000 22.935000 2.085000
Ni 25.020000 20.850000 4.170000
Ni 27.105000 22.935000 4.170000
Ni 27.105000 20.850000 6.255000
Ni 25.020000 22.935000 6.255000
Ni 25.020000 20.850000 8.340000
Ni 27.105000 22.935000 8.340000
Ni 27.105000 20.850000 10.425000
Ni 25.020000 22.935000 10.425000
Ni 25.020000 20.850000 12.510000
Ni 27.105000 22.935000 12.510000
Ni 27.105000 20.850000 14.595000
Ni 25.020000 22.935000 14.595000
Ni 25.020000 20.850000 16.680000
Ni 27.105000 22.935000 16.680000
Ni 27.105000 20.850000 18.765000
Ni 25.020000 22.935000 18.765000
Ni 25.020000 20.850000 20.850000
Ni 27.105000 22.935000 20.850000
Ni 27.105000 20.850000 22.935000
Ni 25.020000 22.935000 22.935000
Ni 25.020000 20.850000 25.020000
Ni 27.105000 22.935000 25.020000
Ni 25.020000 22.935000 27.105000
Ni 25.020000 25.020000 0.000000
Ni 27.105000 27.105000 0.000000
Ni 27.105000 25.020000 2.085000
Ni 25.020000 27.105000 2.085000
Ni 25.020000 25.020000 4.170000
Ni 27.105000 27.105000 4.170000
Ni 27.105000 25.020000 6.255000
Ni 25.020000 27.105000 6.255000
Ni 25.020000 25.020000 8.340000
Ni 27.105000 27.105000 8.340000
Ni 27.105000 25.020000 10.425000
Ni 25.020000 27.105000 10.425000
Ni 25.020000 25.020000 12.510000
Ni 27.105000 27.105000 12.510000
Ni 27.105000 25.020000 14.595000
Ni 25.020000 27.105000 14.595000
Ni 25.020000 25.020000 16.680000
Ni 27.105000 27.105000 16.680000
Ni 27.105000 25.020000 18.765000
Ni 25.020000 27.105000 18.765000
Ni 25.020000 25.020000 20.850000
Ni 27.105000 27.105000 20.850000
Ni 27.105000 25.020000 22.935000
Ni 25.020000 27.105000 22.935000
Ni 25.020000 25.020000 25.020000
Ni 27.105000 27.105000 25.020000
Ni 27.105000 25.020000 27.105000
Ni 25.020000 27.105000 27.105000
Ni 25.020000 25.020000 29.190000
Ni 27.105000 27.105000 29.190000
Ni 25.020000 27.105000 31.275000
Ni 25.020000 29.190000 0.000000
Ni 27.105000 31.275000 0.000000
Ni 27.105000 29.190000 2.085000
Ni 25.020000 31.275000 2.085000
Ni 25.020000 29.190000 4.170000
Ni 27.105000 31.275000 4.170000
Ni 27.105000 29.190000 6.255000
Ni 25.020000 31.275000 6.255000
Ni 25.020000 29.190000 8.340000
Ni 27.105000 31.275000 8.340000
Ni 27.105000 29.190000 10.425000
Ni 25.020000 31.275000 10.425000
Ni 25.020000 29.190000 12.510000
Ni 27.105000 31.275000 12.510000
Ni 27.105000 29.190000 14.595000
Ni 25.020000 31.275000 14.595000
Ni 25.020000 29.190000 16.680000
Ni 27.105000 31.275000 16.680000
Ni 27.105000 29.190000 18.765000
Ni 25.020000 31.275000 18.765000
Ni 25.020000 29.190000 20.850000
Ni 27.105000 31.275000 20.850000
Ni 27.105000 29.190000 22.935000
Ni 25.020000 31.275000 22.935000
Ni 25.020000 29.190000 25.020000
Ni 27.105000 31.275000 25.020000
Ni 27.105000 29.190000 27.105000
Ni 25.020000 31.275000 27.105000
Ni 25.020000 29.190000 29.190000
Ni 27.105000 31.275000 29.190000
Ni 27.105000 29.190000 31.275000
Ni 25.020000 31.275000 31.275000
Ni 25.020000 29.190000 33.360000
Ni 27.105000 31.275000 33.360000
Ni 25.020000 31.275000 35.445000
Ni 25.020000 33.360000 0.000000
Ni 27.105000 35.445000 0.000000
Ni 27.105000 33.360000 2.085000
Ni 25.020000 35.445000 2.085000
Ni 25.020000 33.360000 4.170000
Ni 27.105000 35.445000 4.170000
Ni 27.105000 33.360000 6.255000
Ni 25.020000 35.445000 6.255000
Ni 25.020000 33.360000 8.340000
Ni 27.105000 35.445000 8.340000
Ni 27.105000 33.360000 10.425000
Ni 25.020000 35.445000 10.425000
Ni 25.020000 33.360000 12.510000
Ni 27.105000 35.445000 12.510000
Ni 27.105000 33.360000 14.595000
Ni 25.020000 35.445000 14.595000
Ni 25.020000 33.360000 16.680000
Ni 27.105000 35.445000 16.680000
Ni 27.105000 33.360000 18.765000
Ni 25.020000 35.445000 18.765000
Ni 25.020000 33.360000 20.850000
Ni 27.105000 35.445000 20.850000
Ni 27.105000 33.360000 22.935000
Ni 25.020000 35.445000 22.935000
Ni 25.020000 33.360000 25.020000
Ni 27.105000 35.445000 25.020000
Ni 27.105000 33.360000 27.105000
Ni 25.020000 35.445000 27.105000
Ni 25.020000 33.360000 29.190000
Ni 27.105000 35.445000 29.190000
Ni 27.105000 33.360000 31.275000
Ni 25.020000 35.445000 31.275000
Ni 25.020000 33.360000 33.360000
Ni 27.105000 35.445000 33.360000
Ni 27.105000 33.360000 35.445000
Ni 25.020000 35.445000 35.445000
Ni 25.020000 33.360000 37.530000
Ni 27.105000 35.445000 37.530000
Ni 25.020000 35.445000 39.615000
Ni 25.020000 37.530000 0.000000
Ni 27.105000 39.615000 0.000000
Ni 27.105000 37.530000 2.085000
Ni 25.020000 39.615000 2.085000
Ni 25.020000 37.530000 4.170000
Ni 27.105000 39.615000 4.170000
Ni 27.105000 37.530000 6.255000
Ni 25.020000 39.615000 6.255000
Ni 25.020000 37.530000 8.340000
Ni 27.105000 39.615000 8.340000
Ni 27.105000 37.530000 10.425000
Ni 25.020000 39.615000 10.425000
Ni 25.020000 37.530000 12.510000
Ni 27.105000 39.615000 12.510000
Ni 27.105000 37.530000 14.595000
Ni 25.020000 39.615000 14.595000
Ni 25.020000 37.530000 16.680000
Ni 27.105000 39.615000 16.680000
Ni 27.105000 37.530000 18.765000
Ni 25.020000 39.615000 18.765000
Ni 25.020000 37.530000 20.850000
Ni 27.105000 39.615000 20.850000
Ni 27.105000 37.530000 22.935000
Ni 25.020000 39.615000 22.935000
Ni 25.020000 37.530000 25.020000
Ni 27.105000 39.615000 25.020000
Ni 27.105000 37.530000 27.105000
Ni 25.020000 39.615000 27.105000
Ni 25.020000 37.530000 29.190000
Ni 27.105000 39.615000 29.190000
Ni 27.105000 37.530000 31.275000
Ni 25.020000 39.615000 31.275000
Ni 25.020000 37.530000 33.360000
Ni 27.105000 39.615000 33.360000
Ni 27.105000 37.530000 35.445000
Ni 25.020000 39.615000 35.445000
Ni 25.020000 37.530000 37.530000
Ni 27.105000 39.615000 37.530000
Ni 27.105000 37.530000 39.615000
Ni 25.020000 39.615000 39.615000
Ni 29.190000 0.000000 0.000000
Ni 31.275000 2.085000 0.000000
Ni 31.275000 0.000000 2.085000
Ni 29.190000 2.085000 2.085000
Ni 29.190000 0.000000 4.170000
Ni 31.275000 2.085000 4.170000
Ni 31.275000 0.000000 6.255000
Ni 29.190000 2.085000 6.255000
Ni 29.190000 0.000000 8.340000
Ni 31.275000 2.085000 8.340000
Ni 31.275000 0.000000 10.425000
Ni 29.190000 2.085000 10.425000
Ni 29.190000 0.000000 12.510000
Ni 31.275000 2.085000 12.510000
Ni 31.275000 0.000000 14.595000
Ni 29.190000 2.085000 14.595000
Ni 29.190000 0.000000 16.680000
Ni 31.275000 2.085000 16.680000
Ni 31.275000 0.000000 18.765000
Ni 29.190000 2.085000 18.765000
Ni 29.190000 0.000000 20.850000
Ni 31.275000 2.085000 20.850000
Ni 31.275000 0.000000 22.935000
Ni 29.190000 2.085000 22.935000
Ni 29.190000 0.000000 25.020000
Ni 31.275000 2.085000 25.020000
Ni 31.275000 0.000000 27.105000
Ni 29.190000 2.085000 27.105000
Ni 29.190000 0.000000 29.190000
Ni 31.275000 2.085000 29.190000
Ni 31.275000 0.000000 31.275000
Ni 29.190000 2.085000 31.275000
Ni 29.190000 0.000000 33.360000
Ni 31.275000 2.085000 33.360000
Ni 31.275000 0.000000 35.445000
Ni 29.190000 2.085000 35.445000
Ni 29.190000 0.000000 37.530000
Ni 31.275000 2.085000 37.530000
Ni 31.275000 0.000000 39.615000
Ni 29.190000 2.085000 39.615000
Ni 29.190000 4.170000 0.000000
Ni 31.275000 6.255000 0.000000
Ni 31.275000 4.170000 2.085000
Ni 29.190000 6.255000 2.085000
Ni 29.190000 4.170000 4.170000
Ni 31.275000 6.255000 4.170000
Ni 31.275000 4.170000 6.255000
Ni 29.190000 6.255000 6.255000
Ni 29.190000 4.170000 8.340000
Ni 31.275000 6.255000 8.340000
Ni 31.275000 4.170000 10.425000
Ni 29.190000 6.255000 10.425000
Ni 29.190000 4.170000 12.510000
Ni 31.275000 6.255000 12.510000
Ni 31.275000 4.170000 14.595000
Ni 29.190000 6.255000 14.595000
Ni 29.190000 4.170000 16.680000
Ni 31.275000 6.255000 16.680000
Ni 31.275000 4.170000 18.765000
Ni 29.190000 6.255000 18.765000
Ni 29.190000 4.170000 20.850000
Ni 31.275000 6.255000 20.850000
Ni 31.275000 4.170000 22.935000
Ni 29.190000 6.255000 22.935000
Ni 29.190000 4.170000 25.020000
Ni 31.275000 6.255000 25.020000
Ni 31.275000 4.170000 27.105000
Ni 29.190000 6.255000 27.105000
Ni 29.190000 4.170000 29.190000
Ni 31.275000 6.255000 29.190000
Ni 31.275000 4.170000 31.275000
Ni 29.190000 6.255000 31.275000
Ni 29.190000 4.170000 33.360000
Ni 31.275000 6.255000 33.360000
Ni 31.275000 4.170000 35.445000
Ni 29.190000 6.255000 35.445000
Ni 29.190000 4.170000 37.530000
Ni 31.275000 6.255000 37.530000
Ni 31.275000 4.170000 39.615000
Ni 29.190000 6.255000 39.615000
Ni 29.190000 8.340000 0.000000
Ni 31.275000 10.425000 0.000000
Ni 31.275000 8.340000 2.085000
Ni 29.190000 10.425000 2.085000
Ni 29.190000 8.340000 4.170000
Ni 31.275000 10.425000 4.170000
Ni 31.275000 8.340000 6.255000
Ni 29.190000 10.425000 6.255000
Ni 29.190000 8.340000 8.340000
Ni 31.275000 10.425000 8.340000
Ni 31.275000 8.340000 10.425000
Ni 29.190000 10.425000 10.425000
Ni 29.190000 8.340000 12.510000
Ni 31.275000 10.425000 12.510000
Ni 31.275000 8.340000 14.595000
Ni 29.190000 10.425000 14.595000
Ni 29.190000 8.340000 16.680000
Ni 31.275000 10.425000 16.680000
Ni 31.275000 8.340000 18.765000
Ni 29.190000 10.425000 18.765000
Ni 29.190000 8.340000 20.850000
Ni 31.275000 10.425000 20.850000
Ni 31.275000 8.340000 22.935000
Ni 29.190000 10.425000 22.935000
Ni 29.190000 8.340000 25.020000
Ni 31.275000 10.425000 25.020000
Ni 31.275000 8.340000 27.105000
Ni 29.190000 10.425000 27.105000
Ni 29.190000 8.340000 29.190000
Ni 31.275000 10.425000 29.190000
Ni 31.275000 8.340000 31.275000
Ni 29.190000 10.425000 31.275000
Ni 29.190000 8.340000 33.360000
Ni 31.275000 10.425000 33.360000
Ni 31.275000 8.340000 35.445000
Ni 29.190000 10.425000 35.445000
Ni 29.190000 8.340000 37.530000
Ni 29.190000 12.510000 0.000000
Ni 31.275000 14.595000 0.000000
Ni 31.275000 12.510000 2.085000
Ni 29.190000 14.595000 2.085000
Ni 29.190000 12.510000 4.170000
Ni 31.275000 14.595000 4.170000
Ni 31.275000 12.510000 6.255000
Ni 29.190000 14.595000 6.255000
Ni 29.190000 12.510000 8.340000
Ni 31.275000 14.595000 8.340000
Ni 31.275000 12.510000 10.425000
Ni 29.190000 14.595000 10.425000
Ni 29.190000 12.510000 12.510000
Ni 31.275000 14.595000 12.510000
Ni 31.275000 12.510000 14.595000
Ni 29.190000 14.595000 14.595000
Ni 29.190000 12.510000 16.680000
Ni 31.275000 14.595000 16.680000
Ni 31.275000 12.510000 18.765000
Ni 29.190000 14.595000 18.765000
Ni 29.190000 12.510000 20.850000
Ni 31.275000 14.595000 20.850000
Ni 31.275000 12.510000 22.935000
Ni 29.190000 14.595000 22.935000
Ni 29.190000 12.510000 25.020000
Ni 31.275000 14.595000 25.020000
Ni 31.275000 12.510000 27.105000
Ni 29.190000 14.595000 27.105000
Ni 29.190000 12.510000 29.190000
Ni 31.275000 14.595000 29.190000
Ni 31.275000 12.510000 31.275000
Ni 29.190000 14.595000 31.275000
Ni 29.190000 12.510000 33.360000
Ni 29.190000 16.680000 0.000000
Ni 31.275000 18.765000 0.000000
Ni 31.275000 16.680000 2.085000
Ni 29.190000 18.765000 2.085000
Ni 29.190000 16.680000 4.170000
Ni 31.275000 18.765000 4.170000
Ni 31.275000 16.680000 6.255000
Ni 29.190000 18.765000 6.255000
Ni 29.190000 16.680000 8.340000
Ni 31.275000 18.765000 8.340000
Ni 31.275000 16.680000 10.425000
Ni 29.190000 18.765000 10.425000
Ni 29.190000 16.680000 12.510000
Ni 31.275000 18.765000 12.510000
Ni 31.275000 16.680000 14.595000
Ni 29.190000 18.765000 14.595000
Ni 29.190000 16.680000 16.680000
Ni 31.275000 18.765000 16.680000
Ni 31.275000 16.680000 18.765000
Ni 29.190000 18.765000 18.765000
Ni 29.190000 16.680000 20.850000
Ni 31.275000 18.765000 20.850000
Ni 31.275000 16.680000 22.935000
Ni 29.190000 18.765000 22.935000
Ni 29.190000 16.680000 25.020000
Ni 31.275000 18.765000 25.020000
Ni 31.275000 16.680000 27.105000
Ni 29.190000 18.765000 27.105000
Ni 29.190000 16.680000 29.190000
Ni 29.190000 20.850000 0.000000
Ni 31.275000 22.935000 0.000000
Ni 31.275000 20.850000 2.085000
Ni 29.190000 22.935000 2.085000
Ni 29.190000 20.850000 4.170000
Ni 31.275000 22.935000 4.170000
Ni 31.275000 20.850000 6.255000
Ni 29.190000 22.935000 6.255000
Ni 29.190000 20.850000 8.340000
Ni 31.275000 22.935000 8.340000
Ni 31.275000 20.850000 10.425000
Ni 29.190000 22.935000 10.425000
Ni 29.190000 20.850000 12.510000
Ni 31.275000 22.935000 12.510000
Ni 31.275000 20.850000 14.595000
Ni 29.190000 22.935000 14.595000
Ni 29.190000 20.850000 16.680000
Ni 31.275000 22.935000 16.680000
Ni 31.275000 20.850000 18.765000
Ni 29.190000 22.935000 18.765000
Ni 29.190000 20.850000 20.850000
Ni 31.275000 22.935000 20.850000
Ni 31.275000 20.850000 22.935000
Ni 29.190000 22.935000 22.935000
Ni 29.190000 20.850000 25.020000
Ni 31.275000 22.935000 25.020000
Ni 29.190000 22.935000 27.105000
Ni 29.190000 25.020000 0.000000
Ni 31.275000 27.105000 0.000000
Ni 31.275000 25.020000 2.085000
Ni 29.190000 27.105000 2.085000
Ni 29.190000 25.020000 4.170000
Ni 31.275000 27.105000 4.170000
Ni 31.275000 25.020000 6.255000
Ni 29.190000 27.105000 6.255000
Ni 29.190000 25.020000 8.340000
Ni 31.275000 27.105000 8.340000
Ni 31.275000 25.020000 10.425000
Ni 29.190000 27.105000 10.425000
Ni 29.190000 25.020000 12.510000
Ni 31.275000 27.105000 12.510000
Ni 31.275000 25.020000 14.595000
Ni 29.190000 27.105000 14.595000
Ni 29.190000 25.020000 16.680000
Ni 31.275000 27.105000 16.680000
Ni 31.275000 25.020000 18.765000
Ni 29.190000 27.105000 18.765000
Ni 29.190000 25.020000 20.850000
Ni 31.275000 27.105000 20.850000
Ni 31.275000 25.020000 22.935000
Ni 29.190000 27.105000 22.935000
Ni 29.190000 25.020000 25.020000
Ni 31.275000 27.105000 25.020000
Ni 31.275000 25.020000 27.105000
Ni 29.190000 27.105000 27.105000
Ni 29.190000 25.020000 29.190000
Ni 31.275000 27.105000 29.190000
Ni 29.190000 27.105000 31.275000
Ni 29.190000 29.190000 0.000000
Ni 31.275000 31.275000 0.000000
Ni 31.275000 29.190000 2.085000
Ni 29.190000 31.275000 2.085000
Ni 29.190000 29.190000 4.170000
Ni 31.275000 31.275000 4.170000
Ni 31.275000 29.190000 6.255000
Ni 29.190000 31.275000 6.255000
Ni 29.190000 29.190000 8.340000
Ni 31.275000 31.275000 8.340000
Ni 31.275000 29.190000 10.425000
Ni 29.190000 31.275000 10.425000
Ni 29.190000 29.190000 12.510000
Ni 31.275000 31.275000 12.510000
Ni 31.275000 29.190000 14.595000
Ni 29.190000 31.275000 14.595000
Ni 29.190000 29.190000 16.680000
Ni 31.275000 31.275000 16.680000
Ni 31.275000 29.190000 18.765000
Ni 29.190000 31.275000 18.765000
Ni 29.190000 29.190000 20.850000
Ni 31.275000 31.275000 20.850000
Ni 31.275000 29.190000 22.935000
Ni 29.190000 31.275000 22.935000
Ni 29.190000 29.190000 25.020000
Ni 31.275000 31.275000 25.020000
Ni 31.275000 29.190000 27.105000
Ni 29.190000 31.275000 27.105000
Ni 29.190000 29.190000 29.190000
Ni 31.275000 31.275000 29.190000
Ni 31.275000 29.190000 31.275000
Ni 29.190000 31.275000 31.275000
Ni 29.190000 29.190000 33.360000
Ni 31.275000 31.275000 33.360000
Ni 29.190000 31.275000 35.445000
Ni 29.190000 33.360000 0.000000
Ni 31.275000 35.445000 0.000000
Ni 31.275000 33.360000 2.085000
Ni 29.190000 35.445000 2.085000
Ni 29.190000 33.360000 4.170000
Ni 31.275000 35.445000 4.170000
Ni 31.275000 33.360000 6.255000
Ni 29.190000 35.445000 6.255000
Ni 29.190000 33.360000 8.340000
Ni 31.275000 35.445000 8.340000
Ni 31.275000 33.360000 10.425000
Ni 29.190000 35.445000 10.425000
Ni 29.190000 33.360000 12.510000
Ni 31.275000 35.445000 12.510000
Ni 31.275000 33.360000 14.595000
Ni 29.190000 35.445000 14.595000
Ni 29.190000 33.360000 16.680000
Ni 31.275000 35.445000 16.680000
Ni 31.275000 33.360000 18.765000
Ni 29.190000 35.445000 18.765000
Ni 29.190000 33.360000 20.850000
Ni 31.275000 35.445000 20.850000
Ni 31.275000 33.360000 22.935000
Ni 29.190000 35.445000 22.935000
Ni 29.190000 33.360000 25.020000
Ni 31.275000 35.445000 25.020000
Ni 31.275000 33.360000 27.105000
Ni 29.190000 35.445000 27.105000
Ni 29.190000 33.360000 29.190000
Ni 31.275000 35.445000 29.190000
Ni 31.275000 33.360000 31.275000
Ni 29.190000 35.445000 31.275000
Ni 29.190000 33.360000 33.360000
Ni 31.275000 35.445000 33.360000
Ni 31.275000 33.360000 35.445000
Ni 29.190000 35.445000 35.445000
Ni 29.190000 33.360000 37.530000
Ni 31.275000 35.445000 37.530000
Ni 29.190000 35.445000 39.615000
Ni 29.190000 37.530000 0.000000
Ni 31.275000 39.615000 0.000000
Ni 31.275000 37.530000 2.085000
Ni 29.190000 39.615000 2.085000
Ni 29.190000 37.530000 4.170000
Ni 31.275000 39.615000 4.170000
Ni 31.275000 37.530000 6.255000
Ni 29.190000 39.615000 6.255000
Ni 29.190000 37.530000 8.340000
Ni 31.275000 39.615000 8.340000
Ni 31.275000 37.530000 10.425000
Ni 29.190000 39.615000 10.425000
Ni 29.190000 37.530000 12.510000
Ni 31.275000 39.615000 12.510000
Ni 31.275000 37.530000 14.595000
Ni 29.190000 39.615000 14.595000
Ni 29.190000 37.530000 16.680000
Ni 31.275000 39.615000 16.680000
Ni 31.275000 37.530000 18.765000
Ni 29.190000 39.615000 18.765000
Ni 29.190000 37.530000 20.850000
Ni 31.275000 39.615000 20.850000
Ni 31.275000 37.530000 22.935000
Ni 29.190000 39.615000 22.935000
Ni 29.190000 37.530000 25.020000
Ni 31.275000 39.615000 25.020000
Ni 31.275000 37.530000 27.105000
Ni 29.190000 39.615000 27.105000
Ni 29.190000 37.530000 29.190000
Ni 31.275000 39.615000 29.190000
Ni 31.275000 37.530000 31.275000
Ni 29.190000 39.615000 31.275000
Ni 29.190000 37.530000 33.360000
Ni 31.275000 39.615000 33.360000
Ni 31.275000 37.530000 35.445000
Ni 29.190000 39.615000 35.445000
Ni 29.190000 37.530000 37.530000
Ni 31.275000 39.615000 37.530000
Ni 31.275000 37.530000 39.615000
Ni 29.190000 39.615000 39.615000
Ni 33.360000 0.000000 0.000000
Ni 35.445000 2.085000 0.000000
Ni 35.445000 0.000000 2.085000
Ni 33.360000 2.085000 2.085000
Ni 33.360000 0.000000 4.170000
Ni 35.445000 2.085000 4.170000
Ni 35.445000 0.000000 6.255000
Ni 33.360000 2.085000 6.255000
Ni 33.360000 0.000000 8.340000
Ni 35.445000 2.085000 8.340000
Ni 35.445000 0.000000 10.425000
Ni 33.360000 2.085000 10.425000
Ni 33.360000 0.000000 12.510000
Ni 35.445000 2.085000 12.510000
Ni 35.445000 0.000000 14.595000
Ni 33.360000 2.085000 14.595000
Ni 33.360000 0.000000 16.680000
Ni 35.445000 2.085000 16.680000
Ni 35.445000 0.000000 18.765000
Ni 33.360000 2.085000 18.765000
Ni 33.360000 0.000000 20.850000
Ni 35.445000 2.085000 20.850000
Ni 35.445000 0.000000 22.935000
Ni 33.360000 2.085000 22.935000
Ni 33.360000 0.000000 25.020000
Ni 35.445000 2.085000 25.020000
Ni 35.445000 0.000000 27.105000
Ni 33.360000 2.085000 27.105000
Ni 33.360000 0.000000 29.190000
Ni 35.445000 2.085000 29.190000
Ni 35.445000 0.000000 31.275000
Ni 33.360000 2.085000 31.275000
Ni 33.360000 0.000000 33.360000
Ni 35.445000 2.085000 33.360000
Ni 35.445000 0.000000 35.445000
Ni 33.360000 2.085000 35.445000
Ni 33.360000 0.000000 37.530000
Ni 35.445000 2.085000 37.530000
Ni 35.445000 0.000000 39.615000
Ni 33.360000 2.085000 39.615000
Ni 33.360000 4.170000 0.000000
Ni 35.445000 6.255000 0.000000
Ni 35.445000 4.170000 2.085000
Ni 33.360000 6.255000 2.085000
Ni 33.360000 4.170000 4.170000
Ni 35.445000 6.255000 4.170000
Ni 35.445000 4.170000 6.255000
Ni 33.360000 6.255000 6.255000
Ni 33.360000 4.170000 8.340000
Ni 35.445000 6.255000 8.340000
Ni 35.445000 4.170000 10.425000
Ni 33.360000 6.255000 10.425000
Ni 33.360000 4.170000 12.510000
Ni 35.445000 6.255000 12.510000
Ni 35.445000 4.170000 14.595000
Ni 33.360000 6.255000 14.595000
Ni 33.360000 4.170000 16.680000
Ni 35.445000 6.255000 16.680000
Ni 35.445000 4.170000 18.765000
Ni 33.360000 6.255000 18.765000
Ni 33.360000 4.170000 20.850000
Ni 35.445000 6.255000 20.850000
Ni 35.445000 4.170000 22.935000
Ni 33.360000 6.255000 22.935000
Ni 33.360000 4.170000 25.020000
Ni 35.445000 6.255000 25.020000
Ni 35.445000 4.170000 27.105000
Ni 33.360000 6.255000 27.105000
Ni 33.360000 4.170000 29.190000
Ni 35.445000 6.255000 29.190000
Ni 35.445000 4.170000 31.275000
Ni 33.360000 6.255000 31.275000
Ni 33.360000 4.170000 33.360000
Ni 35.445000 6.255000 33.360000
Ni 35.445000 4.170000 35.445000
Ni 33.360000 6.255000 35.445000
Ni 33.360000 4.170000 37.530000
Ni 35.445000 6.255000 37.530000
Ni 35.445000 4.170000 39.615000
Ni 33.360000 6.255000 39.615000
Ni 33.360000 8.340000 0.000000
Ni 35.445000 10.425000 0.000000
Ni 35.445000 8.340000 2.085000
Ni 33.360000 10.425000 2.085000
Ni 33.360000 8.340000 4.170000
Ni 35.445000 10.425000 4.170000
Ni 35.445000 8.340000 6.255000
Ni 33.360000 10.425000 6.255000
Ni 33.360000 8.340000 8.340000
Ni 35.445000 10.425000 8.340000
Ni 35.445000 8.340000 10.425000
Ni 33.360000 10.425000 10.425000
Ni 33.360000 8.340000 12.510000
Ni 35.445000 10.425000 12.510000
Ni 35.445000 8.340000 14.595000
Ni 33.360000 10.425000 14.595000
Ni 33.360000 8.340000 16.680000
Ni 35.445000 10.425000 16.680000
Ni 35.445000 8.340000 18.765000
Ni 33.360000 10.425000 18.765000
Ni 33.360000 8.340000 20.850000
Ni 35.445000 10.425000 20.850000
Ni 35.445000 8.340000 22.935000
Ni 33.360000 10.425000 22.935000
Ni 33.360000 8.340000 25.020000
Ni 35.445000 10.425000 25.020000
Ni 35.445000 8.340000 27.105000
Ni 33.360000 10.425000 27.105000
Ni 33.360000 8.340000 29.190000
Ni 35.445000 10.425000 29.190000
Ni 35.445000 8.340000 31.275000
Ni 33.360000 10.425000 31.275000
Ni 33.360000 8.340000 33.360000
Ni 35.445000 10.425000 33.360000
Ni 35.445000 8.340000 35.445000
Ni 33.360000 10.425000 35.445000
Ni 33.360000 8.340000 37.530000
Ni 33.360000 12.510000 0.000000
Ni 35.445000 14.595000 0.000000
Ni 35.445000 12.510000 2.085000
Ni 33.360000 14.595000 2.085000
Ni 33.360000 12.510000 4.170000
Ni 35.445000 14.595000 4.170000
Ni 35.445000 12.510000 6.255000
Ni 33.360000 14.595000 6.255000
Ni 33.360000 12.510000 8.340000
Ni 35.445000 14.595000 8.340000
Ni 35.445000 12.510000 10.425000
Ni 33.360000 14.595000 10.425000
Ni 33.360000 12.510000 12.510000
Ni 35.445000 14.595000 12.510000
Ni 35.445000 12.510000 14.595000
Ni 33.360000 14.595000 14.595000
Ni 33.360000 12.510000 16.680000
Ni 35.445000 14.595000 16.680000
Ni 35.445000 12.510000 18.765000
Ni 33.360000 14.595000 18.765000
Ni 33.360000 12.510000 20.850000
Ni 35.445000 14.595000 20.850000
Ni 35.445000 12.510000 22.935000
Ni 33.360000 14.595000 22.935000
Ni 33.360000 12.510000 25.020000
Ni 35.445000 14.595000 25.020000
Ni 35.445000 12.510000 27.105000
Ni 33.360000 14.595000 27.105000
Ni 33.360000 12.510000 29.190000
Ni 35.445000 14.595000 29.190000
Ni 35.445000 12.510000 31.275000
Ni 33.360000 14.595000 31.275000
Ni 33.360000 12.510000 33.360000
Ni 33.360000 16.680000 0.000000
Ni 35.445000 18.765000 0.000000
Ni 35.445000 16.680000 2.085000
Ni 33.360000 18.765000 2.085000
Ni 33.360000 16.680000 4.170000
Ni 35.445000 18.765000 4.170000
Ni 35.445000 16.680000 6.255000
Ni 33.360000 18.765000 6.255000
Ni 33.360000 16.680000 8.340000
Ni 35.445000 18.765000 8.340000
Ni 35.445000 16.680000 10.425000
Ni 33.360000 18.765000 10.425000
Ni 33.360000 16.680000 12.510000
Ni 35.445000 18.765000 12.510000
Ni 35.445000 16.680000 14.595000
Ni 33.360000 18.765000 14.595000
Ni 33.360000 16.680000 16.680000
Ni 35.445000 18.765000 16.680000
Ni 35.445000 16.680000 18.765000
Ni 33.360000 18.765000 18.765000
Ni 33.360000 16.680000 20.850000
Ni 35.445000 18.765000 20.850000
Ni 35.445000 16.680000 22.935000
Ni 33.360000 18.765000 22.935000
Ni 33.360000 16.680000 25.020000
Ni 35.445000 18.765000 25.020000
Ni 35.445000 16.680000 27.105000
Ni 33.360000 18.765000 27.105000
Ni 33.360000 16.680000 29.190000
Ni 33.360000 20.850000 0.000000
Ni 35.445000 22.935000 0.000000
Ni 35.445000 20.850000 2.085000
Ni 33.360000 22.935000 2.085000
Ni 33.360000 20.850000 4.170000
Ni 35.445000 22.935000 4.170000
Ni 35.445000 20.850000 6.255000
Ni 33.360000 22.935000 6.255000
Ni 33.360000 20.850000 8.340000
Ni 35.445000 22.935000 8.340000
Ni 35.445000 20.850000 10.425000
Ni 33.360000 22.935000 10.425000
Ni 33.360000 20.850000 12.510000
Ni 35.445000 22.935000 12.510000
Ni 35.445000 20.850000 14.595000
Ni 33.360000 22.935000 14.595000
Ni 33.360000 20.850000 16.680000
Ni 35.445000 22.935000 16.680000
Ni 35.445000 20.850000 18.765000
Ni 33.360000 22.935000 18.765000
Ni 33.360000 20.850000 20.850000
Ni 35.445000 22.935000 20.850000
Ni 35.445000 20.850000 22.935000
Ni 33.360000 22.935000 22.935000
Ni 33.360000 20.850000 25.020000
Ni 35.445000 22.935000 25.020000
Ni 33.360000 22.935000 27.105000
Ni 33.360000 25.020000 0.000000
Ni 35.445000 27.105000 0.000000
Ni 35.445000 25.020000 2.085000
Ni 33.360000 27.105000 2.085000
Ni 33.360000 25.020000 4.170000
Ni 35.445000 27.105000 4.170000
Ni 35.445000 25.020000 6.255000
Ni 33.360000 27.105000 6.255000
Ni 33.360000 25.020000 8.340000
Ni 35.445000 27.105000 8.340000
Ni 35.445000 25.020000 10.425000
Ni 33.360000 27.105000 10.425000
Ni 33.360000 25.020000 12.510000
Ni 35.445000 27.105000 12.510000
Ni 35.445000 25.020000 14.595000
Ni 33.360000 27.105000 14.595000
Ni 33.360000 25.020000 16.680000
Ni 35.445000 27.105000 16.680000
Ni 35.445000 25.020000 18.765000
Ni 33.360000 27.105000 18.765000
Ni 33.360000 25.020000 20.850000
Ni 35.445000 27.105000 20.850000
Ni 35.445000 25.020000 22.935000
Ni 33.360000 27.105000 22.935000
Ni 33.360000 25.020000 25.020000
Ni 35.445000 27.105000 25.020000
Ni 35.445000 25.020000 27.105000
Ni 33.360000 27.105000 27.105000
Ni 33.360000 25.020000 29.190000
Ni 35.445000 27.105000 29.190000
Ni 33.360000 27.105000 31.275000
Ni 33.360000 29.190000 0.000000
Ni 35.445000 31.275000 0.000000
Ni 35.445000 29.190000 2.085000
Ni 33.360000 31.275000 2.085000
Ni 33.360000 29.190000 4.170000
Ni 35.445000 31.275000 4.170000
Ni 35.445000 29.190000 6.255000
Ni 33.360000 31.275000 6.255000
Ni 33.360000 29.190000 8.340000
Ni 35.445000 31.275000 8.340000
Ni 35.445000 29.190000 10.425000
Ni 33.360000 31.275000 10.425000
Ni 33.360000 29.190000 12.510000
Ni 35.445000 31.275000 12.510000
Ni 35.445000 29.190000 14.595000
Ni 33.360000 31.275000 14.595000
Ni 33.360000 29.190000 16.680000
Ni 35.445000 31.275000 16.680000
Ni 35.445000 29.190000 18.765000
Ni 33.360000 31.275000 18.765000
Ni 33.360000 29.190000 20.850000
Ni 35.445000 31.275000 20.850000
Ni 35.445000 29.190000 22.935000
Ni 33.360000 31.275000 22.935000
Ni 33.360000 29.190000 25.020000
Ni 35.445000 31.275000 25.020000
Ni 35.445000 29.190000 27.105000
Ni 33.360000 31.275000 27.105000
Ni 33.360000 29.190000 29.190000
Ni 35.445000 31.275000 29.190000
Ni 35.445000 29.190000 31.275000
Ni 33.360000 31.275000 31.275000
Ni 33.360000 29.190000 33.360000
Ni 35.445000 31.275000 33.360000
Ni 33.360000 31.275000 35.445000
Ni 33.360000 33.360000 0.000000
Ni 35.445000 35.445000 0.000000
Ni 35.445000 33.360000 2.085000
Ni 33.360000 35.445000 2.085000
Ni 33.360000 33.360000 4.170000
Ni 35.445000 35.445000 4.170000
Ni 35.445000 33.360000 6.255000
Ni 33.360000 35.445000 6.255000
Ni 33.360000 33.360000 8.340000
Ni 35.445000 35.445000 8.340000
Ni 35.445000 33.360000 10.425000
Ni 33.360000 35.445000 10.425000
Ni 33.360000 33.360000 12.510000
Ni 35.445000 35.445000 12.510000
Ni 35.445000 33.360000 14.595000
Ni 33.360000 35.445000 14.595000
Ni 33.360000 33.360000 16.680000
Ni 35.445000 35.445000 16.680000
Ni 35.445000 33.360000 18.765000
Ni 33.360000 35.445000 18.765000
Ni 33.360000 33.360000 20.850000
Ni 35.445000 35.445000 20.850000
Ni 35.445000 33.360000 22.935000
Ni 33.360000 35.445000 22.935000
Ni 33.360000 33.360000 25.020000
Ni 35.445000 35.445000 25.020000
Ni 35.445000 33.360000 27.105000
Ni 33.360000 35.445000 27.105000
Ni 33.360000 33.360000 29.190000
Ni 35.445000 35.445000 29.190000
Ni 35.445000 33.360000 31.275000
Ni 33.360000 35.445000 31.275000
Ni 33.360000 33.360000 33.360000
Ni 35.445000 35.445000 33.360000
Ni 35.445000 33.360000 35.445000
Ni 33.360000 35.445000 35.445000
Ni 33.360000 33.360000 37.530000
Ni 35.445000 35.445000 37.530000
Ni 33.360000 35.445000 39.615000
Ni 33.360000 37.530000 0.000000
Ni 35.445000 39.615000 0.000000
Ni 35.445000 37.530000 2.085000
Ni 33.360000 39.615000 2.085000
Ni 33.360000 37.530000 4.170000
Ni 35.445000 39.615000 4.170000
Ni 35.445000 37.530000 6.255000
Ni 33.360000 39.615000 6.255000
Ni 33.360000 37.530000 8.340000
Ni 35.445000 39.615000 8.340000
Ni 35.445000 37.530000 10.425000
Ni 33.360000 39.615000 10.425000
Ni 33.360000 37.530000 12.510000
Ni 35.445000 39.615000 12.510000
Ni 35.445000 37.530000 14.595000
Ni 33.360000 39.615000 14.595000
Ni 33.360000 37.530000 16.680000
Ni 35.445000 39.615000 16.680000
Ni 35.445000 37.530000 18.765000
Ni 33.360000 39.615000 18.765000
Ni 33.360000 37.530000 20.850000
Ni 35.445000 39.615000 20.850000
Ni 35.445000 37.530000 22.935000
Ni 33.360000 39.615000 22.935000
Ni 33.360000 37.530000 25.020000
Ni 35.445000 39.615000 25.020000
Ni 35.445000 37.530000 27.105000
Ni 33.360000 39.615000 27.105000
Ni 33.360000 37.530000 29.190000
Ni 35.445000 39.615000 29.190000
Ni 35.445000 37.530000 31.275000
Ni 33.360000 39.615000 31.275000
Ni 33.360000 37.530000 33.360000
Ni 35.445000 39.615000 33.360000
Ni 35.445000 37.530000 35.445000
Ni 33.360000 39.615000 35.445000
Ni 33.360000 37.530000 37.530000
Ni 35.445000 39.615000 37.530000
Ni 35.445000 37.530000 39.615000
Ni 33.360000 39.615000 39.615000
Ni 37.530000 0.000000 0.000000
Ni 39.615000 2.085000 0.000000
Ni 39.615000 0.000000 2.085000
Ni 37.530000 2.085000 2.085000
Ni 37.530000 0.000000 4.170000
Ni 39.615000 2.085000 4.170000
Ni 39.615000 0.000000 6.255000
Ni 37.530000 2.085000 6.255000
Ni 37.530000 0.000000 8.340000
Ni 39.615000 2.085000 8.340000
Ni 39.615000 0.000000 10.425000
Ni 37.530000 2.085000 10.425000
Ni 37.530000 0.000000 12.510000
Ni 39.615000 2.085000 12.510000
Ni 39.615000 0.000000 14.595000
Ni 37.530000 2.085000 14.595000
Ni 37.530000 0.000000 16.680000
Ni 39.615000 2.085000 16.680000
Ni 39.615000 0.000000 18.765000
Ni 37.530000 2.085000 18.765000
Ni 37.530000 0.000000 20.850000
Ni 39.615000 2.085000 20.850000
Ni 39.615000 0.000000 22.935000
Ni 37.530000 2.085000 22.935000
Ni 37.530000 0.000000 25.020000
Ni 39.615000 2.085000 25.020000
Ni 39.615000 0.000000 27.105000
Ni 37.530000 2.085000 27.105000
Ni 37.530000 0.000000 29.190000
Ni 39.615000 2.085000 29.190000
Ni 39.615000 0.000000 31.275000
Ni 37.530000 2.085000 31.275000
Ni 37.530000 0.000000 33.360000
Ni 39.615000 2.085000 33.360000
Ni 39.615000 0.000000 35.445000
Ni 37.530000 2.085000 35.445000
Ni 37.530000 0.000000 37.530000
Ni 39.615000 2.085000 37.530000
Ni 39.615000 0.000000 39.615000
Ni 37.530000 2.085000 39.615000
Ni 37.530000 4.170000 0.000000
Ni 39.615000 6.255000 0.000000
Ni 39.615000 4.170000 2.085000
Ni 37.530000 6.255000 2.085000
Ni 37.530000 4.170000 4.170000
Ni 39.615000 6.255000 4.170000
Ni 39.615000 4.170000 6.255000
Ni 37.530000 6.255000 6.255000
Ni 37.530000 4.170000 8.340000
Ni 39.615000 6.255000 8.340000
Ni 39.615000 4.170000 10.425000
Ni 37.530000 6.255000 10.425000
Ni 37.530000 4.170000 12.510000
Ni 39.615000 6.255000 12.510000
Ni 39.615000 4.170000 14.595000
Ni 37.530000 6.255000 14.595000
Ni 37.530000 4.170000 16.680000
Ni 39.615000 6.255000 16.680000
Ni 39.615000 4.170000 18.765000
Ni 37.530000 6.255000 18.765000
Ni 37.530000 4.170000 20.850000
Ni 39.615000 6.255000 20.850000
Ni 39.615000 4.170000 22.935000
Ni 37.530000 6.255000 22.935000
Ni 37.530000 4.170000 25.020000
Ni 39.615000 6.255000 25.020000
Ni 39.615000 4.170000 27.105000
Ni 37.530000 6.255000 27.105000
Ni 37.530000 4.170000 29.190000
Ni 39.615000 6.255000 29.190000
Ni 39.615000 4.170000 31.275000
Ni 37.530000 6.255000 31.275000
Ni 37.530000 4.170000 33.360000
Ni 39.615000 6.255000 33.360000
Ni 39.615000 4.170000 35.445000
Ni 37.530000 6.255000 35.445000
Ni 37.530000 4.170000 37.530000
Ni 39.615000 6.255000 37.530000
Ni 39.615000 4.170000 39.615000
Ni 37.530000 6.255000 39.615000
Ni 37.530000 8.340000 0.000000
Ni 39.615000 10.425000 0.000000
Ni 39.615000 8.340000 2.085000
Ni 37.530000 10.425000 2.085000
Ni 37.530000 8.340000 4.170000
Ni 39.615000 10.425000 4.170000
Ni 39.615000 8.340000 6.255000
Ni 37.530000 10.425000 6.255000
Ni 37.530000 8.340000 8.340000
Ni 39.615000 10.425000 8.340000
Ni 39.615000 8.340000 10.425000
Ni 37.530000 10.425000 10.425000
Ni 37.530000 8.340000 12.510000
Ni 39.615000 10.425000 12.510000
Ni 39.615000 8.340000 14.595000
Ni 37.530000 10.425000 14.595000
Ni 37.530000 8.340000 16.680000
Ni 39.615000 10.425000 16.680000
Ni 39.615000 8.340000 18.765000
Ni 37.530000 10.425000 18.765000
Ni 37.530000 8.340000 20.850000
Ni 39.615000 10.425000 20.850000
Ni 39.615000 8.340000 22.935000
Ni 37.530000 10.425000 22.935000
Ni 37.530000 8.340000 25.020000
Ni 39.615000 10.425000 25.020000
Ni 39.615000 8.340000 27.105000
Ni 37.530000 10.425000 27.105000
Ni 37.530000 8.340000 29.190000
Ni 39.615000 10.425000 29.190000
Ni 39.615000 8.340000 31.275000
Ni 37.530000 10.425000 31.275000
Ni 37.530000 8.340000 33.360000
Ni 39.615000 10.425000 33.360000
Ni 39.615000 8.340000 35.445000
Ni 37.530000 10.425000 35.445000
Ni 37.530000 8.340000 37.530000
Ni 37.530000 12.510000 0.000000
Ni 39.615000 14.595000 0.000000
Ni 39.615000 12.510000 2.085000
Ni 37.530000 14.595000 2.085000
Ni 37.530000 12.510000 4.170000
Ni 39.615000 14.595000 4.170000
Ni 39.615000 12.510000 6.255000
Ni 37.530000 14.595000 6.255000
Ni 37.530000 12.510000 8.340000
Ni 39.615000 14.595000 8.340000
Ni 39.615000 12.510000 10.425000
Ni 37.530000 14.595000 10.425000
Ni 37.530000 12.510000 12.510000
Ni 39.615000 14.595000 12.510000
Ni 39.615000 12.510000 14.595000
Ni 37.530000 14.595000 14.595000
Ni 37.530000 12.510000 16.680000
Ni 39.615000 14.595000 16.680000
Ni 39.615000 12.510000 18.765000
Ni 37.530000 14.595000 18.765000
Ni 37.530000 12.510000 20.850000
Ni 39.615000 14.595000 20.850000
Ni 39.615000 12.510000 22.935000
Ni 37.530000 14.595000 22.935000
Ni 37.530000 12.510000 25.020000
Ni 39.615000 14.595000 25.020000
Ni 39.615000 12.510000 27.105000
Ni 37.530000 14.595000 27.105000
Ni 37.530000 12.510000 29.190000
Ni 39.615000 14.595000 29.190000
Ni 39.615000 12.510000 31.275000
Ni 37.530000 14.595000 31.275000
Ni 37.530000 12.510000 33.360000
Ni 37.530000 16.680000 0.000000
Ni 39.615000 18.765000 0.000000
Ni 39.615000 16.680000 2.085000
Ni 37.530000 18.765000 2.085000
Ni 37.530000 16.680000 4.170000
Ni 39.615000 18.765000 4.170000
Ni 39.615000 16.680000 6.255000
Ni 37.530000 18.765000 6.255000
Ni 37.530000 16.680000 8.340000
Ni 39.615000 18.765000 8.340000
Ni 39.615000 16.680000 10.425000
Ni 37.530000 18.765000 10.425000
Ni 37.530000 16.680000 12.510000
Ni 39.615000 18.765000 12.510000
Ni 39.615000 16.680000 14.595000
Ni 37.530000 18.765000 14.595000
Ni 37.530000 16.680000 16.680000
Ni 39.615000 18.765000 16.680000
Ni 39.615000 16.680000 18.765000
Ni 37.530000 18.765000 18.765000
Ni 37.530000 16.680000 20.850000
Ni 39.615000 18.765000 20.850000
Ni 39.615000 16.680000 22.935000
Ni 37.530000 18.765000 22.935000
Ni 37.530000 16.680000 25.020000
Ni 39.615000 18.765000 25.020000
Ni 39.615000 16.680000 27.105000
Ni 37.530000 18.765000 27.105000
Ni 37.530000 16.680000 29.190000
Ni 37.530000 20.850000 0.000000
Ni 39.615000 22.935000 0.000000
Ni 39.615000 20.850000 2.085000
Ni 37.530000 22.935000 2.085000
Ni 37.530000 20.850000 4.170000
Ni 39.615000 22.935000 4.170000
Ni 39.615000 20.850000 6.255000
Ni 37.530000 22.935000 6.255000
Ni 37.530000 20.850000 8.340000
Ni 39.615000 22.935000 8.340000
Ni 39.615000 20.850000 10.425000
Ni 37.530000 22.935000 10.425000
Ni 37.530000 20.850000 12.510000
Ni 39.615000 22.935000 12.510000
Ni 39.615000 20.850000 14.595000
Ni 37.530000 22.935000 14.595000
Ni 37.530000 20.850000 16.680000
Ni 39.615000 22.935000 16.680000
Ni 39.615000 20.850000 18.765000
Ni 37.530000 22.935000 18.765000
Ni 37.530000 20.850000 20.850000
Ni 39.615000 22.935000 20.850000
Ni 39.615000 20.850000 22.935000
Ni 37.530000 22.935000 22.935000
Ni 37.530000 20.850000 25.020000
Ni 39.615000 22.935000 25.020000
Ni 37.530000 22.935000 27.105000
Ni 37.530000 25.020000 0.000000
Ni 39.615000 27.105000 0.000000
Ni 39.615000 25.020000 2.085000
Ni 37.530000 27.105000 2.085000
Ni 37.530000 25.020000 4.170000
Ni 39.615000 27.105000 4.170000
Ni 39.615000 25.020000 6.255000
Ni 37.530000 27.105000 6.255000
Ni 37.530000 25.020000 8.340000
Ni 39.615000 27.105000 8.340000
Ni 39.615000 25.020000 10.425000
Ni 37.530000 27.105000 10.425000
Ni 37.530000 25.020000 12.510000
Ni 39.615000 27.105000 12.510000
Ni 39.615000 25.020000 14.595000
Ni 37.530000 27.105000 14.595000
Ni 37.530000 25.020000 16.680000
Ni 39.615000 27.105000 16.680000
Ni 39.615000 25.020000 18.765000
Ni 37.530000 27.105000 18.765000
Ni 37.530000 25.020000 20.850000
Ni 39.615000 27.105000 20.850000
Ni 39.615000 25.020000 22.935000
Ni 37.530000 27.105000 22.935000
Ni 37.530000 25.020000 25.020000
Ni 39.615000 27.105000 25.020000
Ni 39.615000 25.020000 27.105000
Ni 37.530000 27.105000 27.105000
Ni 37.530000 25.020000 29.190000
Ni 39.615000 27.105000 29.190000
Ni 37.530000 27.105000 31.275000
Ni 37.530000 29.190000 0.000000
Ni 39.615000 31.275000 0.000000
Ni 39.615000 29.190000 2.085000
Ni 37.530000 31.275000 2.085000
Ni 37.530000 29.190000 4.170000
Ni 39.615000 31.275000 4.170000
Ni 39.615000 29.190000 6.255000
Ni 37.530000 31.275000 6.255000
Ni 37.530000 29.190000 8.340000
Ni 39.615000 31.275000 8.340000
Ni 39.615000 29.190000 10.425000
Ni 37.530000 31.275000 10.425000
Ni 37.530000 29.190000 12.510000
Ni 39.615000 31.275000 12.510000
Ni 39.615000 29.190000 14.595000
Ni 37.530000 31.275000 14.595000
Ni 37.530000 29.190000 16.680000
Ni 39.615000 31.275000 16.680000
Ni 39.615000 29.190000 18.765000
Ni 37.530000 31.275000 18.765000
Ni 37.530000 29.190000 20.850000
Ni 39.615000 31.275000 20.850000
Ni 39.615000 29.190000 22.935000
Ni 37.530000 31.275000 22.935000
Ni 37.530000 29.190000 25.020000
Ni 39.615000 31.275000 25.020000
Ni 39.615000 29.190000 27.105000
Ni 37.530000 31.275000 27.105000
Ni 37.530000 29.190000 29.190000
Ni 39.615000 31.275000 29.190000
Ni 39.615000 29.190000 31.275000
Ni 37.530000 31.275000 31.275000
Ni 37.530000 29.190000 33.360000
Ni 39.615000 31.275000 33.360000
Ni 37.530000 31.275000 35.445000
Ni 37.530000 33.360000 0.000000
Ni 39.615000 35.445000 0.000000
Ni 39.615000 33.360000 2.085000
Ni 37.530000 35.445000 2.085000
Ni 37.530000 33.360000 4.170000
Ni 39.615000 35.445000 4.170000
Ni 39.615000 33.360000 6.255000
Ni 37.530000 35.445000 6.255000
Ni 37.530000 33.360000 8.340000
Ni 39.615000 35.445000 8.340000
Ni 39.615000 33.360000 10.425000
Ni 37.530000 35.445000 10.425000
Ni 37.530000 33.360000 12.510000
Ni 39.615000 35.445000 12.510000
Ni 39.615000 33.360000 14.595000
Ni 37.530000 35.445000 14.595000
Ni 37.530000 33.360000 16.680000
Ni 39.615000 35.445000 16.680000
Ni 39.615000 33.360000 18.765000
Ni 37.530000 35.445000 18.765000
Ni 37.530000 33.360000 20.850000
Ni 39.615000 35.445000 20.850000
Ni 39.615000 33.360000 22.935000
Ni 37.530000 35.445000 22.935000
Ni 37.530000 33.360000 25.020000
Ni 39.615000 35.445000 25.020000
Ni 39.615000 33.360000 27.105000
Ni 37.530000 35.445000 27.105000
Ni 37.530000 33.360000 29.190000
Ni 39.615000 35.445000 29.190000
Ni 39.615000 33.360000 31.275000
Ni 37.530000 35.445000 31.275000
Ni 37.530000 33.360000 33.360000
Ni 39.615000 35.445000 33.360000
Ni 39.615000 33.360000 35.445000
Ni 37.530000 35.445000 35.445000
Ni 37.530000 33.360000 37.530000
Ni 39.615000 35.445000 37.530000
Ni 37.530000 35.445000 39.615000
Ni 37.530000 37.530000 0.000000
Ni 39.615000 39.615000 0.000000
Ni 39.615000 37.530000 2.085000
Ni 37.530000 39.615000 2.085000
Ni 37.530000 37.530000 4.170000
Ni 39.615000 39.615000 4.170000
Ni 39.615000 37.530000 6.255000
Ni 37.530000 39.615000 6.255000
Ni 37.530000 37.530000 8.340000
Ni 39.615000 39.615000 8.340000
Ni 39.615000 37.530000 10.425000
Ni 37.530000 39.615000 10.425000
Ni 37.530000 37.530000 12.510000
Ni 39.615000 39.615000 12.510000
Ni 39.615000 37.530000 14.595000
Ni 37.530000 39.615000 14.595000
Ni 37.530000 37.530000 16.680000
Ni 39.615000 39.615000 16.680000
Ni 39.615000 37.530000 18.765000
Ni 37.530000 39.615000 18.765000
Ni 37.530000 37.530000 20.850000
Ni 39.615000 39.615000 20.850000
Ni 39.615000 37.530000 22.935000
Ni 37.530000 39.615000 22.935000
Ni 37.530000 37.530000 25.020000
Ni 39.615000 39.615000 25.020000
Ni 39.615000 37.530000 27.105000
Ni 37.530000 39.615000 27.105000
Ni 37.530000 37.530000 29.190000
Ni 39.615000 39.615000 29.190000
Ni 39.615000 37.530000 31.275000
Ni 37.530000 39.615000 31.275000
Ni 37.530000 37.530000 33.360000
Ni 39.615000 39.615000 33.360000
Ni 39.615000 37.530000 35.445000
Ni 37.530000 39.615000 35.445000
Ni 37.530000 37.530000 37.530000
Ni 39.615000 39.615000 37.530000
Ni 39.615000 37.530000 39.615000
Ni 37.530000 39.615000 39.615000
Ni 41.700000 0.000000 0.000000
Ni 43.785000 2.085000 0.000000
Ni 43.785000 0.000000 2.085000
Ni 41.700000 2.085000 2.085000
Ni 41.700000 0.000000 4.170000
Ni 43.785000 2.085000 4.170000
Ni 43.785000 0.000000 6.255000
Ni 41.700000 2.085000 6.255000
Ni 41.700000 0.000000 8.340000
Ni 43.785000 2.085000 8.340000
Ni 43.785000 0.000000 10.425000
Ni 41.700000 2.085000 10.425000
Ni 41.700000 0.000000 12.510000
Ni 43.785000 2.085000 12.510000
Ni 43.785000 0.000000 14.595000
Ni 41.700000 2.085000 14.595000
Ni 41.700000 0.000000 16.680000
Ni 43.785000 2.085000 16.680000
Ni 43.785000 0.000000 18.765000
Ni 41.700000 2.085000 18.765000
Ni 41.700000 0.000000 20.850000
Ni 43.785000 2.085000 20.850000
Ni 43.785000 0.000000 22.935000
Ni 41.700000 2.085000 22.935000
Ni 41.700000 0.000000 25.020000
Ni 43.785000 2.085000 25.020000
Ni 43.785000 0.000000 27.105000
Ni 41.700000 2.085000 27.105000
Ni 41.700000 0.000000 29.190000
Ni 43.785000 2.085000 29.190000
Ni 43.785000 0.000000 31.275000
Ni 41.700000 2.085000 31.275000
Ni 41.700000 0.000000 33.360000
Ni 43.785000 2.085000 33.360000
Ni 43.785000 0.000000 35.445000
Ni 41.700000 2.085000 35.445000
Ni 41.700000 0.000000 37.530000
Ni 43.785000 2.085000 37.530000
Ni 43.785000 0.000000 39.615000
Ni 41.700000 2.085000 39.615000
Ni 41.700000 4.170000 0.000000
Ni 43.785000 6.255000 0.000000
Ni 43.785000 4.170000 2.085000
Ni 41.700000 6.255000 2.085000
Ni 41.700000 4.170000 4.170000
Ni 43.785000 6.255000 4.170000
Ni 43.785000 4.170000 6.255000
Ni 41.700000 6.255000 6.255000
Ni 41.700000 4.170000 8.340000
Ni 43.785000 6.255000 8.340000
Ni 43.785000 4.170000 10.425000
Ni 41.700000 6.255000 10.425000
Ni 41.700000 4.170000 12.510000
Ni 43.785000 6.255000 12.510000
Ni 43.785000 4.170000 14.595000
Ni 41.700000 6.255000 14.595000
Ni 41.700000 4.170000 16.680000
Ni 43.785000 6.255000 16.680000
Ni 43.785000 4.170000 18.765000
Ni 41.700000 6.255000 18.765000
Ni 41.700000 4.170000 20.850000
Ni 43.785000 6.255000 20.850000
Ni 43.785000 4.170000 22.935000
Ni 41.700000 6.255000 22.935000
Ni 41.700000 4.170000 25.020000
Ni 43.785000 6.255000 25.020000
Ni 43.785000 4.170000 27.105000
Ni 41.700000 6.255000 27.105000
Ni 41.700000 4.170000 29.190000
Ni 43.785000 6.255000 29.190000
Ni 43.785000 4.170000 31.275000
Ni 41.700000 6.255000 31.275000
Ni 41.700000 4.170000 33.360000
Ni 43.785000 6.255000 33.360000
Ni 43.785000 4.170000 35.445000
Ni 41.700000 6.255000 35.445000
Ni 41.700000 4.170000 37.530000
Ni 43.785000 6.255000 37.530000
Ni 43.785000 4.170000 39.615000
Ni 41.700000 6.255000 39.615000
Ni 41.700000 8.340000 0.000000
Ni 43.785000 10.425000 0.000000
Ni 43.785000 8.340000 2.085000
Ni 41.700000 10.425000 2.085000
Ni 41.700000 8.340000 4.170000
Ni 43.785000 10.425000 4.170000
Ni 43.785000 8.340000 6.255000
Ni 41.700000 10.425000 6.255000
Ni 41.700000 8.340000 8.340000
Ni 43.785000 10.425000 8.340000
Ni 43.785000 8.340000 10.425000
Ni 41.700000 10.425000 10.425000
Ni 41.700000 8.340000 12.510000
Ni 43.785000 10.425000 12.510000
Ni 43.785000 8.340000 14.595000
Ni 41.700000 10.425000 14.595000
Ni 41.700000 8.340000 16.680000
Ni 43.785000 10.425000 16.680000
Ni 43.785000 8.340000 18.765000
Ni 41.700000 10.425000 18.765000
Ni 41.700000 8.340000 20.850000
Ni 43.785000 10.425000 20.850000
Ni 43.785000 8.340000 22.935000
Ni 41.700000 10.425000 22.935000
Ni 41.700000 8.340000 25.020000
Ni 43.785000 10.425000 25.020000
Ni 43.785000 8.340000 27.105000
Ni 41.700000 10.425000 27.105000
Ni 41.700000 8.340000 29.190000
Ni 43.785000 10.425000 29.190000
Ni 43.785000 8.340000 31.275000
Ni 41.700000 10.425000 31.275000
Ni 41.700000 8.340000 33.360000
Ni 43.785000 10.425000 33.360000
Ni 43.785000 8.340000 35.445000
Ni 41.700000 10.425000 35.445000
Ni 41.700000 8.340000 37.530000
Ni 41.700000 12.510000 0.000000
Ni 43.785000 14.595000 0.000000
Ni 43.785000 12.510000 2.085000
Ni 41.700000 14.595000 2.085000
Ni 41.700000 12.510000 4.170000
Ni 43.785000 14.595000 4.170000
Ni 43.785000 12.510000 6.255000
Ni 41.700000 14.595000 6.255000
Ni 41.700000 12.510000 8.340000
Ni 43.785000 14.595000 8.340000
Ni 43.785000 12.510000 10.425000
Ni 41.700000 14.595000 10.425000
Ni 41.700000 12.510000 12.510000
Ni 43.785000 14.595000 12.510000
Ni 43.785000 12.510000 14.595000
Ni 41.700000 14.595000 14.595000
Ni 41.700000 12.510000 16.680000
Ni 43.785000 14.595000 16.680000
Ni 43.785000 12.510000 18.765000
Ni 41.700000 14.595000 18.765000
Ni 41.700000 12.510000 20.850000
Ni 43.785000 14.595000 20.850000
Ni 43.785000 12.510000 22.935000
Ni 41.700000 14.595000 22.935000
Ni 41.700000 12.510000 25.020000
Ni 43.785000 14.595000 25.020000
Ni 43.785000 12.510000 27.105000
Ni 41.700000 14.595000 27.105000
Ni 41.700000 12.510000 29.190000
Ni 43.785000 14.595000 29.190000
Ni 43.785000 12.510000 31.275000
Ni 41.700000 14.595000 31.275000
Ni 41.700000 12.510000 33.360000
Ni 41.700000 16.680000 0.000000
Ni 43.785000 18.765000 0.000000
Ni 43.785000 16.680000 2.085000
Ni 41.700000 18.765000 2.085000
Ni 41.700000 16.680000 4.170000
Ni 43.785000 18.765000 4.170000
Ni 43.785000 16.680000 6.255000
Ni 41.700000 18.765000 6.255000
Ni 41.700000 16.680000 8.340000
Ni 43.785000 18.765000 8.340000
Ni 43.785000 16.680000 10.425000
Ni 41.700000 18.765000 10.425000
Ni 41.700000 16.680000 12.510000
Ni 43.785000 18.765000 12.510000
Ni 43.785000 16.680000 14.595000
Ni 41.700000 18.765000 14.595000
Ni 41.700000 16.680000 16.680000
Ni 43.785000 18.765000 16.680000
Ni 43.785000 16.680000 18.765000
Ni 41.700000 18.765000 18.765000
Ni 41.700000 16.680000 20.850000
Ni 43.785000 18.765000 20.850000
Ni 43.785000 16.680000 22.935000
Ni 41.700000 18.765000 22.935000
Ni 41.700000 16.680000 25.020000
Ni 43.785000 18.765000 25.020000
Ni 43.785000 16.680000 27.105000
Ni 41.700000 18.765000 27.105000
Ni 41.700000 16.680000 29.190000
Ni 41.700000 20.850000 0.000000
Ni 43.785000 22.935000 0.000000
Ni 43.785000 20.850000 2.085000
Ni 41.700000 22.935000 2.085000
Ni 41.700000 20.850000 4.170000
Ni 43.785000 22.935000 4.170000
Ni 43.785000 20.850000 6.255000
Ni 41.700000 22.935000 6.255000
Ni 41.700000 20.850000 8.340000
Ni 43.785000 22.935000 8.340000
Ni 43.785000 20.850000 10.425000
Ni 41.700000 22.935000 10.425000
Ni 41.700000 20.850000 12.510000
Ni 43.785000 22.935000 12.510000
Ni 43.785000 20.850000 14.595000
Ni 41.700000 22.935000 14.595000
Ni 41.700000 20.850000 16.680000
Ni 43.785000 22.935000 16.680000
Ni 43.785000 20.850000 18.765000
Ni 41.700000 22.935000 18.765000
Ni 41.700000 20.850000 20.850000
Ni 43.785000 22.935000 20.850000
Ni 43.785000 20.850000 22.935000
Ni 41.700000 22.935000 22.935000
Ni 41.700000 20.850000 25.020000
Ni 43.785000 22.935000 25.020000
Ni 41.700000 22.935000 27.105000
Ni 41.700000 25.020000 0.000000
Ni 43.785000 27.105000 0.000000
Ni 43.785000 25.020000 2.085000
Ni 41.700000 27.105000 2.085000
Ni 41.700000 25.020000 4.170000
Ni 43.785000 27.105000 4.170000
Ni 43.785000 25.020000 6.255000
Ni 41.700000 27.105000 6.255000
Ni 41.700000 25.020000 8.340000
Ni 43.785000 27.105000 8.340000
Ni 43.785000 25.020000 10.425000
Ni 41.700000 27.105000 10.425000
Ni 41.700000 25.020000 12.510000
Ni 43.785000 27.105000 12.510000
Ni 43.785000 25.020000 14.595000
Ni 41.700000 27.105000 14.595000
Ni 41.700000 25.020000 16.680000
Ni 43.785000 27.105000 16.680000
Ni 43.785000 25.020000 18.765000
Ni 41.700000 27.105000 18.765000
Ni 41.700000 25.020000 20.850000
Ni 43.785000 27.105000 20.850000
Ni 43.785000 25.020000 22.935000
Ni 41.700000 27.105000 22.935000
Ni 41.700000 25.020000 25.020000
Ni 43.785000 27.105000 25.020000
Ni 43.785000 25.020000 27.105000
Ni 41.700000 27.105000 27.105000
Ni 41.700000 25.020000 29.190000
Ni 43.785000 27.105000 29.190000
Ni 41.700000 27.105000 31.275000
Ni 41.700000 29.190000 0.000000
Ni 43.785000 31.275000 0.000000
Ni 43.785000 29.190000 2.085000
Ni 41.700000 31.275000 2.085000
Ni 41.700000 29.190000 4.170000
Ni 43.785000 31.275000 4.170000
Ni 43.785000 29.190000 6.255000
Ni 41.700000 31.275000 6.255000
Ni 41.700000 29.190000 8.340000
Ni 43.785000 31.275000 8.340000
Ni 43.785000 29.190000 10.425000
Ni 41.700000 31.275000 10.425000
Ni 41.700000 29.190000 12.510000
Ni 43.785000 31.275000 12.510000
Ni 43.785000 29.190000 14.595000
Ni 41.700000 31.275000 14.595000
Ni 41.700000 29.190000 16.680000
Ni 43.785000 31.275000 16.680000
Ni 43.785000 29.190000 18.765000
Ni 41.700000 31.275000 18.765000
Ni 41.700000 29.190000 20.850000
Ni 43.785000 31.275000 20.850000
Ni 43.785000 29.190000 22.935000
Ni 41.700000 31.275000 22.935000
Ni 41.700000 29.190000 25.020000
Ni 43.785000 31.275000 25.020000
Ni 43.785000 29.190000 27.105000
Ni 41.700000 31.275000 27.105000
Ni 41.700000 29.190000 29.190000
Ni 43.785000 31.275000 29.190000
Ni 43.785000 29.190000 31.275000
Ni 41.700000 31.275000 31.275000
Ni 41.700000 29.190000 33.360000
Ni 43.785000 31.275000 33.360000
Ni 41.700000 31.275000 35.445000
Ni 41.700000 33.360000 0.000000
Ni 43.785000 35.445000 0.000000
Ni 43.785000 33.360000 2.085000
Ni 41.700000 35.445000 2.085000
Ni 41.700000 33.360000 4.170000
Ni 43.785000 35.445000 4.170000
Ni 43.785000 33.360000 6.255000
Ni 41.700000 35.445000 6.255000
Ni 41.700000 33.360000 8.340000
Ni 43.785000 35.445000 8.340000
Ni 43.785000 33.360000 10.425000
Ni 41.700000 35.445000 10.425000
Ni 41.700000 33.360000 12.510000
Ni 43.785000 35.445000 12.510000
Ni 43.785000 33.360000 14.595000
Ni 41.700000 35.445000 14.595000
Ni 41.700000 33.360000 16.680000
Ni 43.785000 35.445000 16.680000
Ni 43.785000 33.360000 18.765000
Ni 41.700000 35.445000 18.765000
Ni 41.700000 33.360000 20.850000
Ni 43.785000 35.445000 20.850000
Ni 43.785000 33.360000 22.935000
Ni 41.700000 35.445000 22.935000
Ni 41.700000 33.360000 25.020000
Ni 43.785000 35.445000 25.020000
Ni 43.785000 33.360000 27.105000
Ni 41.700000 35.445000 27.105000
Ni 41.700000 33.360000 29.190000
Ni 43.785000 35.445000 29.190000
Ni 43.785000 33.360000 31.275000
Ni 41.700000 35.445000 31.275000
Ni 41.700000 33.360000 33.360000
Ni 43.785000 35.445000 33.360000
Ni 43.785000 33.360000 35.445000
Ni 41.700000 35.445000 35.445000
Ni 41.700000 33.360000 37.530000
Ni 43.785000 35.445000 37.530000
Ni 41.700000 35.445000 39.615000
Ni 41.700000 37.530000 0.000000
Ni 43.785000 39.615000 0.000000
Ni 43.785000 37.530000 2.085000
Ni 41.700000 39.615000 2.085000
Ni 41.700000 37.530000 4.170000
Ni 43.785000 39.615000 4.170000
Ni 43.785000 37.530000 6.255000
Ni 41.700000 39.615000 6.255000
Ni 41.700000 37.530000 8.340000
Ni 43.785000 39.615000 8.340000
Ni 43.785000 37.530000 10.425000
Ni 41.700000 39.615000 10.425000
Ni 41.700000 37.530000 12.510000
Ni 43.785000 39.615000 12.510000
Ni 43.785000 37.530000 14.595000
Ni 41.700000 39.615000 14.595000
Ni 41.700000 37.530000 16.680000
Ni 43.785000 39.615000 16.680000
Ni 43.785000 37.530000 18.765000
Ni 41.700000 39.615000 18.765000
Ni 41.700000 37.530000 20.850000
Ni 43.785000 39.615000 20.850000
Ni 43.785000 37.530000 22.935000
Ni 41.700000 39.615000 22.935000
Ni 41.700000 37.530000 25.020000
Ni 43.785000 39.615000 25.020000
Ni 43.785000 37.530000 27.105000
Ni 41.700000 39.615000 27.105000
Ni 41.700000 37.530000 29.190000
Ni 43.785000 39.615000 29.190000
Ni 43.785000 37.530000 31.275000
Ni 41.700000 39.615000 31.275000
Ni 41.700000 37.530000 33.360000
Ni 43.785000 39.615000 33.360000
Ni 43.785000 37.530000 35.445000
Ni 41.700000 39.615000 35.445000
Ni 41.700000 37.530000 37.530000
Ni 43.785000 39.615000 37.530000
Ni 43.785000 37.530000 39.615000
Ni 41.700000 39.615000 39.615000
Ni 45.870000 0.000000 0.000000
Ni 47.955000 2.085000 0.000000
Ni 47.955000 0.000000 2.085000
Ni 45.870000 2.085000 2.085000
Ni 45.870000 0.000000 4.170000
Ni 47.955000 2.085000 4.170000
Ni 47.955000 0.000000 6.255000
Ni 45.870000 2.085000 6.255000
Ni 45.870000 0.000000 8.340000
Ni 47.955000 2.085000 8.340000
Ni 47.955000 0.000000 10.425000
Ni 45.870000 2.085000 10.425000
Ni 45.870000 0.000000 12.510000
Ni 47.955000 2.085000 12.510000
Ni 47.955000 0.000000 14.595000
Ni 45.870000 2.085000 14.595000
Ni 45.870000 0.000000 16.680000
Ni 47.955000 2.085000 16.680000
Ni 47.955000 0.000000 18.765000
Ni 45.870000 2.085000 18.765000
Ni 45.870000 0.000000 20.850000
Ni 47.955000 2.085000 20.850000
Ni 47.955000 0.000000 22.935000
Ni 45.870000 2.085000 22.935000
Ni 45.870000 0.000000 25.020000
Ni 47.955000 2.085000 25.020000
Ni 47.955000 0.000000 27.105000
Ni 45.870000 2.085000 27.105000
Ni 45.870000 0.000000 29.190000
Ni 47.955000 2.085000 29.190000
Ni 47.955000 0.000000 31.275000
Ni 45.870000 2.085000 31.275000
Ni 45.870000 0.000000 33.360000
Ni 47.955000 2.085000 33.360000
Ni 47.955000 0.000000 35.445000
Ni 45.870000 2.085000 35.445000
Ni 45.870000 0.000000 37.530000
Ni 47.955000 2.085000 37.530000
Ni 47.955000 0.000000 39.615000
Ni 45.870000 2.085000 39.615000
Ni 45.870000 4.170000 0.000000
Ni 47.955000 6.255000 0.000000
Ni 47.955000 4.170000 2.085000
Ni 45.870000 6.255000 2.085000
Ni 45.870000 4.170000 4.170000
Ni 47.955000 6.255000 4.170000
Ni 47.955000 4.170000 6.255000
Ni 45.870000 6.255000 6.255000
Ni 45.870000 4.170000 8.340000
Ni 47.955000 6.255000 8.340000
Ni 47.955000 4.170000 10.425000
Ni 45.870000 6.255000 10.425000
Ni 45.870000 4.170000 12.510000
Ni 47.955000 6.255000 12.510000
Ni 47.955000 4.170000 14.595000
Ni 45.870000 6.255000 14.595000
Ni 45.870000 4.170000 16.680000
Ni 47.955000 6.255000 16.680000
Ni 47.955000 4.170000 18.765000
Ni 45.870000 6.255000 18.765000
Ni 45.870000 4.170000 20.850000
Ni 47.955000 6.255000 20.850000
Ni 47.955000 4.170000 22.935000
Ni 45.870000 6.255000 22.935000
Ni 45.870000 4.170000 25.020000
Ni 47.955000 6.255000 25.020000
Ni 47.955000 4.170000 27.105000
Ni 45.870000 6.255000 27.105000
Ni 45.870000 4.170000 29.190000
Ni 47.955000 6.255000 29.190000
Ni 47.955000 4.170000 31.275000
Ni 45.870000 6.255000 31.275000
Ni 45.870000 4.170000 33.360000
Ni 47.955000 6.255000 33.360000
Ni 47.955000 4.170000 35.445000
Ni 45.870000 6.255000 35.445000
Ni 45.870000 4.170000 37.530000
Ni 47.955000 6.255000 37.530000
Ni 47.955000 4.170000 39.615000
Ni 45.870000 6.255000 39.615000
Ni 45.870000 8.340000 0.000000
Ni 47.955000 10.425000 0.000000
Ni 47.955000 8.340000 2.085000
Ni 45.870000 10.425000 2.085000
Ni 45.870000 8.340000 4.170000
Ni 47.955000 10.425000 4.170000
Ni 47.955000 8.340000 6.255000
Ni 45.870000 10.425000 6.255000
Ni 45.870000 8.340000 8.340000
Ni 47.955000 10.425000 8.340000
Ni 47.955000 8.340000 10.425000
Ni 45.870000 10.425000 10.425000
Ni 45.870000 8.340000 12.510000
Ni 47.955000 10.425000 12.510000
Ni 47.955000 8.340000 14.595000
Ni 45.870000 10.425000 14.595000
Ni 45.870000 8.340000 16.680000
Ni 47.955000 10.425000 16.680000
Ni 47.955000 8.340000 18.765000
Ni 45.870000 10.425000 18.765000
Ni 45.870000 8.340000 20.850000
Ni 47.955000 10.425000 20.850000
Ni 47.955000 8.340000 22.935000
Ni 45.870000 10.425000 22.935000
Ni 45.870000 8.340000 25.020000
Ni 47.955000 10.425000 25.020000
Ni 47.955000 8.340000 27.105000
Ni 45.870000 10.425000 27.105000
Ni 45.870000 8.340000 29.190000
Ni 47.955000 10.425000 29.190000
Ni 47.955000 8.340000 31.275000
Ni 45.870000 10.425000 31.275000
Ni 45.870000 8.340000 33.360000
Ni 47.955000 10.425000 33.360000
Ni 47.955000 8.340000 35.445000
Ni 45.870000 10.425000 35.445000
Ni 45.870000 8.340000 37.530000
Ni 45.870000 12.510000 0.000000
Ni 47.955000 14.595000 0.000000
Ni 47.955000 12.510000 2.085000
Ni 45.870000 14.595000 2.085000
Ni 45.870000 12.510000 4.170000
Ni 47.955000 14.595000 4.170000
Ni 47.955000 12.510000 6.255000
Ni 45.870000 14.595000 6.255000
Ni 45.870000 12.510000 8.340000
Ni 47.955000 14.595000 8.340000
Ni 47.955000 12.510000 10.425000
Ni 45.870000 14.595000 10.425000
Ni 45.870000 12.510000 12.510000
Ni 47.955000 14.595000 12.510000
Ni 47.955000 12.510000 14.595000
Ni 45.870000 14.595000 14.595000
Ni 45.870000 12.510000 16.680000
Ni 47.955000 14.595000 16.680000
Ni 47.955000 12.510000 18.765000
Ni 45.870000 14.595000 18.765000
Ni 45.870000 12.510000 20.850000
Ni 47.955000 14.595000 20.850000
Ni 47.955000 12.510000 22.935000
Ni 45.870000 14.595000 22.935000
Ni 45.870000 12.510000 25.020000
Ni 47.955000 14.595000 25.020000
Ni 47.955000 12.510000 27.105000
Ni 45.870000 14.595000 27.105000
Ni 45.870000 12.510000 29.190000
Ni 47.955000 14.595000 29.190000
Ni 47.955000 12.510000 31.275000
Ni 45.870000 14.595000 31.275000
Ni 45.870000 12.510000 33.360000
Ni 45.870000 16.680000 0.000000
Ni 47.955000 18.765000 0.000000
Ni 47.955000 16.680000 2.085000
Ni 45.870000 18.765000 2.085000
Ni 45.870000 16.680000 4.170000
Ni 47.955000 18.765000 4.170000
Ni 47.955000 16.680000 6.255000
Ni 45.870000 18.765000 6.255000
Ni 45.870000 16.680000 8.340000
Ni 47.955000 18.765000 8.340000
Ni 47.955000 16.680000 10.425000
Ni 45.870000 18.765000 10.425000
Ni 45.870000 16.680000 12.510000
Ni 47.955000 18.765000 12.510000
Ni 47.955000 16.680000 14.595000
Ni 45.870000 18.765000 14.595000
Ni 45.870000 16.680000 16.680000
Ni 47.955000 18.765000 16.680000
Ni 47.955000 16.680000 18.765000
Ni 45.870000 18.765000 18.765000
Ni 45.870000 16.680000 20.850000
Ni 47.955000 18.765000 20.850000
Ni 47.955000 16.680000 22.935000
Ni 45.870000 18.765000 22.935000
Ni 45.870000 16.680000 25.020000
Ni 47.955000 18.765000 25.020000
Ni 47.955000 16.680000 27.105000
Ni 45.870000 18.765000 27.105000
Ni 45.870000 16.680000 29.190000
Ni 45.870000 20.850000 0.000000
Ni 47.955000 22.935000 0.000000
Ni 47.955000 20.850000 2.085000
Ni 45.870000 22.935000 2.085000
Ni 45.870000 20.850000 4.170000
Ni 47.955000 22.935000 4.170000
Ni 47.955000 20.850000 6.255000
Ni 45.870000 22.935000 6.255000
Ni 45.870000 20.850000 8.340000
Ni 47.955000 22.935000 8.340000
Ni 47.955000 20.850000 10.425000
Ni 45.870000 22.935000 10.425000
Ni 45.870000 20.850000 12.510000
Ni 47.955000 22.935000 12.510000
Ni 47.955000 20.850000 14.595000
Ni 45.870000 22.935000 14.595000
Ni 45.870000 20.850000 16.680000
Ni 47.955000 22.935000 16.680000
Ni 47.955000 20.850000 18.765000
Ni 45.870000 22.935000 18.765000
Ni 45.870000 20.850000 20.850000
Ni 47.955000 22.935000 20.850000
Ni 47.955000 20.850000 22.935000
Ni 45.870000 22.935000 22.935000
Ni 45.870000 20.850000 25.020000
Ni 47.955000 22.935000 25.020000
Ni 45.870000 22.935000 27.105000
Ni 45.870000 25.020000 0.000000
Ni 47.955000 27.105000 0.000000
Ni 47.955000 25.020000 2.085000
Ni 45.870000 27.105000 2.085000
Ni 45.870000 25.020000 4.170000
Ni 47.955000 27.105000 4.170000
Ni 47.955000 25.020000 6.255000
Ni 45.870000 27.105000 6.255000
Ni 45.870000 25.020000 8.340000
Ni 47.955000 27.105000 8.340000
Ni 47.955000 25.020000 10.425000
Ni 45.870000 27.105000 10.425000
Ni 45.870000 25.020000 12.510000
Ni 47.955000 27.105000 12.510000
Ni 47.955000 25.020000 14.595000
Ni 45.870000 27.105000 14.595000
Ni 45.870000 25.020000 16.680000
Ni 47.955000 27.105000 16.680000
Ni 47.955000 25.020000 18.765000
Ni 45.870000 27.105000 18.765000
Ni 45.870000 25.020000 20.850000
Ni 47.955000 27.105000 20.850000
Ni 47.955000 25.020000 22.935000
Ni 45.870000 27.105000 22.935000
Ni 45.870000 25.020000 25.020000
Ni 47.955000 27.105000 25.020000
Ni 47.955000 25.020000 27.105000
Ni 45.870000 27.105000 27.105000
Ni 45.870000 25.020000 29.190000
Ni 47.955000 27.105000 29.190000
Ni 45.870000 27.105000 31.275000
Ni 45.870000 29.190000 0.000000
Ni 47.955000 31.275000 0.000000
Ni 47.955000 29.190000 2.085000
Ni 45.870000 31.275000 2.085000
Ni 45.870000 29.190000 4.170000
Ni 47.955000 31.275000 4.170000
Ni 47.955000 29.190000 6.255000
Ni 45.870000 31.275000 6.255000
Ni 45.870000 29.190000 8.340000
Ni 47.955000 31.275000 8.340000
Ni 47.955000 29.190000 10.425000
Ni 45.870000 31.275000 10.425000
Ni 45.870000 29.190000 12.510000
Ni 47.955000 31.275000 12.510000
Ni 47.955000 29.190000 14.595000
Ni 45.870000 31.275000 14.595000
Ni 45.870000 29.190000 16.680000
Ni 47.955000 31.275000 16.680000
Ni 47.955000 29.190000 18.765000
Ni 45.870000 31.275000 18.765000
Ni 45.870000 29.190000 20.850000
Ni 47.955000 31.275000 20.850000
Ni 47.955000 29.190000 22.935000
Ni 45.870000 31.275000 22.935000
Ni 45.870000 29.190000 25.020000
Ni 47.955000 31.275000 25.020000
Ni 47.955000 29.190000 27.105000
Ni 45.870000 31.275000 27.105000
Ni 45.870000 29.190000 29.190000
Ni 47.955000 31.275000 29.190000
Ni 47.955000 29.190000 31.275000
Ni 45.870000 31.275000 31.275000
Ni 45.870000 29.190000 33.360000
Ni 47.955000 31.275000 33.360000
Ni 45.870000 31.275000 35.445000
Ni 45.870000 33.360000 0.000000
Ni 47.955000 35.445000 0.000000
Ni 47.955000 33.360000 2.085000
Ni 45.870000 35.445000 2.085000
Ni 45.870000 33.360000 4.170000
Ni 47.955000 35.445000 4.170000
Ni 47.955000 33.360000 6.255000
Ni 45.870000 35.445000 6.255000
Ni 45.870000 33.360000 8.340000
Ni 47.955000 35.445000 8.340000
Ni 47.955000 33.360000 10.425000
Ni 45.870000 35.445000 10.425000
Ni 45.870000 33.360000 12.510000
Ni 47.955000 35.445000 12.510000
Ni 47.955000 33.360000 14.595000
Ni 45.870000 35.445000 14.595000
Ni 45.870000 33.360000 16.680000
Ni 47.955000 35.445000 16.680000
Ni 47.955000 33.360000 18.765000
Ni 45.870000 35.445000 18.765000
Ni 45.870000 33.360000 20.850000
Ni 47.955000 35.445000 20.850000
Ni 47.955000 33.360000 22.935000
Ni 45.870000 35.445000 22.935000
Ni 45.870000 33.360000 25.020000
Ni 47.955000 35.445000 25.020000
Ni 47.955000 33.360000 27.105000
Ni 45.870000 35.445000 27.105000
Ni 45.870000 33.360000 29.190000
Ni 47.955000 35.445000 29.190000
Ni 47.955000 33.360000 31.275000
Ni 45.870000 35.445000 31.275000
Ni 45.870000 33.360000 33.360000
Ni 47.955000 35.445000 33.360000
Ni 47.955000 33.360000 35.445000
Ni 45.870000 35.445000 35.445000
Ni 45.870000 33.360000 37.530000
Ni 47.955000 35.445000 37.530000
Ni 45.870000 35.445000 39.615000
Ni 45.870000 37.530000 0.000000
Ni 47.955000 39.615000 0.000000
Ni 47.955000 37.530000 2.085000
Ni 45.870000 39.615000 2.085000
Ni 45.870000 37.530000 4.170000
Ni 47.955000 39.615000 4.170000
Ni 47.955000 37.530000 6.255000
Ni 45.870000 39.615000 6.255000
Ni 45.870000 37.530000 8.340000
Ni 47.955000 39.615000 8.340000
Ni 47.955000 37.530000 10.425000
Ni 45.870000 39.615000 10.425000
Ni 45.870000 37.530000 12.510000
Ni 47.955000 39.615000 12.510000
Ni 47.955000 37.530000 14.595000
Ni 45.870000 39.615000 14.595000
Ni 45.870000 37.530000 16.680000
Ni 47.955000 39.615000 16.680000
Ni 47.955000 37.530000 18.765000
Ni 45.870000 39.615000 18.765000
Ni 45.870000 37.530000 20.850000
Ni 47.955000 39.615000 20.850000
Ni 47.955000 37.530000 22.935000
Ni 45.870000 39.615000 22.935000
Ni 45.870000 37.530000 25.020000
Ni 47.955000 39.615000 25.020000
Ni 47.955000 37.530000 27.105000
Ni 45.870000 39.615000 27.105000
Ni 45.870000 37.530000 29.190000
Ni 47.955000 39.615000 29.190000
Ni 47.955000 37.530000 31.275000
Ni 45.870000 39.615000 31.275000
Ni 45.870000 37.530000 33.360000
Ni 47.955000 39.615000 33.360000
Ni 47.955000 37.530000 35.445000
Ni 45.870000 39.615000 35.445000
Ni 45.870000 37.530000 37.530000
Ni 47.955000 39.615000 37.530000
Ni 47.955000 37.530000 39.615000
Ni 45.870000 39.615000 39.615000
Ni 50.040000 0.000000 0.000000
Ni 52.125000 2.085000 0.000000
Ni 52.125000 0.000000 2.085000
Ni 50.040000 2.085000 2.085000
Ni 50.040000 0.000000 4.170000
Ni 52.125000 2.085000 4.170000
Ni 52.125000 0.000000 6.255000
Ni 50.040000 2.085000 6.255000
Ni 50.040000 0.000000 8.340000
Ni 52.125000 2.085000 8.340000
Ni 52.125000 0.000000 10.425000
Ni 50.040000 2.085000 10.425000
Ni 50.040000 0.000000 12.510000
Ni 52.125000 2.085000 12.510000
Ni 52.125000 0.000000 14.595000
Ni 50.040000 2.085000 14.595000
Ni 50.040000 0.000000 16.680000
Ni 52.125000 2.085000 16.680000
Ni 52.125000 0.000000 18.765000
Ni 50.040000 2.085000 18.765000
Ni 50.040000 0.000000 20.850000
Ni 52.125000 2.085000 20.850000
Ni 52.125000 0.000000 22.935000
Ni 50.040000 2.085000 22.935000
Ni 50.040000 0.000000 25.020000
Ni 52.125000 2.085000 25.020000
Ni 52.125000 0.000000 27.105000
Ni 50.040000 2.085000 27.105000
Ni 50.040000 0.000000 29.190000
Ni 52.125000 2.085000 29.190000
Ni 52.125000 0.000000 31.275000
Ni 50.040000 2.085000 31.275000
Ni 50.040000 0.000000 33.360000
Ni 52.125000 2.085000 33.360000
Ni 52.125000 0.000000 35.445000
Ni 50.040000 2.085000 35.445000
Ni 50.040000 0.000000 37.530000
Ni 52.125000 2.085000 37.530000
Ni 52.125000 0.000000 39.615000
Ni 50.040000 2.085000 39.615000
Ni 50.040000 4.170000 0.000000
Ni 52.125000 6.255000 0.000000
Ni 52.125000 4.170000 2.085000
Ni 50.040000 6.255000 2.085000
Ni 50.040000 4.170000 4.170000
Ni 52.125000 6.255000 4.170000
Ni 52.125000 4.170000 6.255000
Ni 50.040000 6.255000 6.255000
Ni 50.040000 4.170000 8.340000
Ni 52.125000 6.255000 8.340000
Ni 52.125000 4.170000 10.425000
Ni 50.040000 6.255000 10.425000
Ni 50.040000 4.170000 12.510000
Ni 52.125000 6.255000 12.510000
Ni 52.125000 4.170000 14.595000
Ni 50.040000 6.255000 14.595000
Ni 50.040000 4.170000 16.680000
Ni 52.125000 6.255000 16.680000
Ni 52.125000 4.170000 18.765000
Ni 50.040000 6.255000 18.765000
Ni 50.040000 4.170000 20.850000
Ni 52.125000 6.255000 20.850000
Ni 52.125000 4.170000 22.935000
Ni 50.040000 6.255000 22.935000
Ni 50.040000 4.170000 25.020000
Ni 52.125000 6.255000 25.020000
Ni 52.125000 4.170000 27.105000
Ni 50.040000 6.255000 27.105000
Ni 50.040000 4.170000 29.190000
Ni 52.125000 6.255000 29.190000
Ni 52.125000 4.170000 31.275000
Ni 50.040000 6.255000 31.275000
Ni 50.040000 4.170000 33.360000
Ni 52.125000 6.255000 33.360000
Ni 52.125000 4.170000 35.445000
Ni 50.040000 6.255000 35.445000
Ni 50.040000 4.170000 37.530000
Ni 52.125000 6.255000 37.530000
Ni 52.125000 4.170000 39.615000
Ni 50.040000 6.255000 39.615000
Ni 50.040000 8.340000 0.000000
Ni 52.125000 10.425000 0.000000
Ni 52.125000 8.340000 2.085000
Ni 50.040000 10.425000 2.085000
Ni 50.040000 8.340000 4.170000
Ni 52.125000 10.425000 4.170000
Ni 52.125000 8.340000 6.255000
Ni 50.040000 10.425000 6.255000
Ni 50.040000 8.340000 8.340000
Ni 52.125000 10.425000 8.340000
Ni 52.125000 8.340000 10.425000
Ni 50.040000 10.425000 10.425000
Ni 50.040000 8.340000 12.510000
Ni 52.125000 10.425000 12.510000
Ni 52.125000 8.340000 14.595000
Ni 50.040000 10.425000 14.595000
Ni 50.040000 8.340000 16.680000
Ni 52.125000 10.425000 16.680000
Ni 52.125000 8.340000 18.765000
Ni 50.040000 10.425000 18.765000
Ni 50.040000 8.340000 20.850000
Ni 52.125000 10.425000 20.850000
Ni 52.125000 8.340000 22.935000
Ni 50.040000 10.425000 22.935000
Ni 50.040000 8.340000 25.020000
Ni 52.125000 10.425000 25.020000
Ni 52.125000 8.340000 27.105000
Ni 50.040000 10.425000 27.105000
Ni 50.040000 8.340000 29.190000
Ni 52.125000 10.425000 29.190000
Ni 52.125000 8.340000 31.275000
Ni 50.040000 10.425000 31.275000
Ni 50.040000 8.340000 33.360000
Ni 52.125000 10.425000 33.360000
Ni 52.125000 8.340000 35.445000
Ni 50.040000 10.425000 35.445000
Ni 50.040000 8.340000 37.530000
Ni 50.040000 12.510000 0.000000
Ni 52.125000 14.595000 0.000000
Ni 52.125000 12.510000 2.085000
Ni 50.040000 14.595000 2.085000
Ni 50.040000 12.510000 4.170000
Ni 52.125000 14.595000 4.170000
Ni 52.125000 12.510000 6.255000
Ni 50.040000 14.595000 6.255000
Ni 50.040000 12.510000 8.340000
Ni 52.125000 14.595000 8.340000
Ni 52.125000 12.510000 10.425000
Ni 50.040000 14.595000 10.425000
Ni 50.040000 12.510000 12.510000
Ni 52.125000 14.595000 12.510000
Ni 52.125000 12.510000 14.595000
Ni 50.040000 14.595000 14.595000
Ni 50.040000 12.510000 16.680000
Ni 52.125000 14.595000 16.680000
Ni 52.125000 12.510000 18.765000
Ni 50.040000 14.595000 18.765000
Ni 50.040000 12.510000 20.850000
Ni 52.125000 14.595000 20.850000
Ni 52.125000 12.510000 22.935000
Ni 50.040000 14.595000 22.935000
Ni 50.040000 12.510000 25.020000
Ni 52.125000 14.595000 25.020000
Ni 52.125000 12.510000 27.105000
Ni 50.040000 14.595000 27.105000
Ni 50.040000 12.510000 29.190000
Ni 52.125000 14.595000 29.190000
Ni 52.125000 12.510000 31.275000
Ni 50.040000 14.595000 31.275000
Ni 50.040000 12.510000 33.360000
Ni 50.040000 16.680000 0.000000
Ni 52.125000 18.765000 0.000000
Ni 52.125000 16.680000 2.085000
Ni 50.040000 18.765000 2.085000
Ni 50.040000 16.680000 4.170000
Ni 52.125000 18.765000 4.170000
Ni 52.125000 16.680000 6.255000
Ni 50.040000 18.765000 6.255000
Ni 50.040000 16.680000 8.340000
Ni 52.125000 18.765000 8.340000
Ni 52.125000 16.680000 10.425000
Ni 50.040000 18.765000 10.425000
Ni 50.040000 16.680000 12.510000
Ni 52.125000 18.765000 12.510000
Ni 52.125000 16.680000 14.595000
Ni 50.040000 18.765000 14.595000
Ni 50.040000 16.680000 16.680000
Ni 52.125000 18.765000 16.680000
Ni 52.125000 16.680000 18.765000
Ni 50.040000 18.765000 18.765000
Ni 50.040000 16.680000 20.850000
Ni 52.125000 18.765000 20.850000
Ni 52.125000 16.680000 22.935000
Ni 50.040000 18.765000 22.935000
Ni 50.040000 16.680000 25.020000
Ni 52.125000 18.765000 25.020000
Ni 52.125000 16.680000 27.105000
Ni 50.040000 18.765000 27.105000
Ni 50.040000 16.680000 29.190000
Ni 50.040000 20.850000 0.000000
Ni 52.125000 22.935000 0.000000
Ni 52.125000 20.850000 2.085000
Ni 50.040000 22.935000 2.085000
Ni 50.040000 20.850000 4.170000
Ni 52.125000 22.935000 4.170000
Ni 52.125000 20.850000 6.255000
Ni 50.040000 22.935000 6.255000
Ni 50.040000 20.850000 8.340000
Ni 52.125000 22.935000 8.340000
Ni 52.125000 20.850000 10.425000
Ni 50.040000 22.935000 10.425000
Ni 50.040000 20.850000 12.510000
Ni 52.125000 22.935000 12.510000
Ni 52.125000 20.850000 14.595000
Ni 50.040000 22.935000 14.595000
Ni 50.040000 20.850000 16.680000
Ni 52.125000 22.935000 16.680000
Ni 52.125000 20.850000 18.765000
Ni 50.040000 22.935000 18.765000
Ni 50.040000 20.850000 20.850000
Ni 52.125000 22.935000 20.850000
Ni 52.125000 20.850000 22.935000
Ni 50.040000 22.935000 22.935000
Ni 50.040000 20.850000 25.020000
Ni 52.125000 22.935000 25.020000
Ni 50.040000 22.935000 27.105000
Ni 50.040000 25.020000 0.000000
Ni 52.125000 27.105000 0.000000
Ni 52.125000 25.020000 2.085000
Ni 50.040000 27.105000 2.085000
Ni 50.040000 25.020000 4.170000
Ni 52.125000 27.105000 4.170000
Ni 52.125000 25.020000 6.255000
Ni 50.040000 27.105000 6.255000
Ni 50.040000 25.020000 8.340000
Ni 52.125000 27.105000 8.340000
Ni 52.125000 25.020000 10.425000
Ni 50.040000 27.105000 10.425000
Ni 50.040000 25.020000 12.510000
Ni 52.125000 27.105000 12.510000
Ni 52.125000 25.020000 14.595000
Ni 50.040000 27.105000 14.595000
Ni 50.040000 25.020000 16.680000
Ni 52.125000 27.105000 16.680000
Ni 52.125000 25.020000 18.765000
Ni 50.040000 27.105000 18.765000
Ni 50.040000 25.020000 20.850000
Ni 52.125000 27.105000 20.850000
Ni 52.125000 25.020000 22.935000
Ni 50.040000 27.105000 22.935000
Ni 50.040000 25.020000 25.020000
Ni 52.125000 27.105000 25.020000
Ni 52.125000 25.020000 27.105000
Ni 50.040000 27.105000 27.105000
Ni 50.040000 25.020000 29.190000
Ni 52.125000 27.105000 29.190000
Ni 50.040000 27.105000 31.275000
Ni 50.040000 29.190000 0.000000
Ni 52.125000 31.275000 0.000000
Ni 52.125000 29.190000 2.085000
Ni 50.040000 31.275000 2.085000
Ni 50.040000 29.190000 4.170000
Ni 52.125000 31.275000 4.170000
Ni 52.125000 29.190000 6.255000
Ni 50.040000 31.275000 6.255000
Ni 50.040000 29.190000 8.340000
Ni 52.125000 31.275000 8.340000
Ni 52.125000 29.190000 10.425000
Ni 50.040000 31.275000 10.425000
Ni 50.040000 29.190000 12.510000
Ni 52.125000 31.275000 12.510000
Ni 52.125000 29.190000 14.595000
Ni 50.040000 31.275000 14.595000
Ni 50.040000 29.190000 16.680000
Ni 52.125000 31.275000 16.680000
Ni 52.125000 29.190000 18.765000
Ni 50.040000 31.275000 18.765000
Ni 50.040000 29.190000 20.850000
Ni 52.125000 31.275000 20.850000
Ni 52.125000 29.190000 22.935000
Ni 50.040000 31.275000 22.935000
Ni 50.040000 29.190000 25.020000
Ni 52.125000 31.275000 25.020000
Ni 52.125000 29.190000 27.105000
Ni 50.040000 31.275000 27.105000
Ni 50.040000 29.190000 29.190000
Ni 52.125000 31.275000 29.190000
Ni 52.125000 29.190000 31.275000
Ni 50.040000 31.275000 31.275000
Ni 50.040000 29.190000 33.360000
Ni 52.125000 31.275000 33.360000
Ni 50.040000 31.275000 35.445000
Ni 50.040000 33.360000 0.000000
Ni 52.125000 35.445000 0.000000
Ni 52.125000 33.360000 2.085000
Ni 50.040000 35.445000 2.085000
Ni 50.040000 33.360000 4.170000
Ni 52.125000 35.445000 4.170000
Ni 52.125000 33.360000 6.255000
Ni 50.040000 35.445000 6.255000
Ni 50.040000 33.360000 8.340000
Ni 52.125000 35.445000 8.340000
Ni 52.125000 33.360000 10.425000
Ni 50.040000 35.445000 10.425000
Ni 50.040000 33.360000 12.510000
Ni 52.125000 35.445000 12.510000
Ni 52.125000 33.360000 14.595000
Ni 50.040000 35.445000 14.595000
Ni 50.040000 33.360000 16.680000
Ni 52.125000 35.445000 16.680000
Ni 52.125000 33.360000 18.765000
Ni 50.040000 35.445000 18.765000
Ni 50.040000 33.360000 20.850000
Ni 52.125000 35.445000 20.850000
Ni 52.125000 33.360000 22.935000
Ni 50.040000 35.445000 22.935000
Ni 50.040000 33.360000 25.020000
Ni 52.125000 35.445000 25.020000
Ni 52.125000 33.360000 27.105000
Ni 50.040000 35.445000 27.105000
Ni 50.040000 33.360000 29.190000
Ni 52.125000 35.445000 29.190000
Ni 52.125000 33.360000 31.275000
Ni 50.040000 35.445000 31.275000
Ni 50.040000 33.360000 33.360000
Ni 52.125000 35.445000 33.360000
Ni 52.125000 33.360000 35.445000
Ni 50.040000 35.445000 35.445000
Ni 50.040000 33.360000 37.530000
Ni 52.125000 35.445000 37.530000
Ni 50.040000 35.445000 39.615000
Ni 50.040000 37.530000 0.000000
Ni 52.125000 39.615000 0.000000
Ni 52.125000 37.530000 2.085000
Ni 50.040000 39.615000 2.085000
Ni 50.040000 37.530000 4.170000
Ni 52.125000 39.615000 4.170000
Ni 52.125000 37.530000 6.255000
Ni 50.040000 39.615000 6.255000
Ni 50.040000 37.530000 8.340000
Ni 52.125000 39.615000 8.340000
Ni 52.125000 37.530000 10.425000
Ni 50.040000 39.615000 10.425000
Ni 50.040000 37.530000 12.510000
Ni 52.125000 39.615000 12.510000
Ni 52.125000 37.530000 14.595000
Ni 50.040000 39.615000 14.595000
Ni 50.040000 37.530000 16.680000
Ni 52.125000 39.615000 16.680000
Ni 52.125000 37.530000 18.765000
Ni 50.040000 39.615000 18.765000
Ni 50.040000 37.530000 20.850000
Ni 52.125000 39.615000 20.850000
Ni 52.125000 37.530000 22.935000
Ni 50.040000 39.615000 22.935000
Ni 50.040000 37.530000 25.020000
Ni 52.125000 39.615000 25.020000
Ni 52.125000 37.530000 27.105000
Ni 50.040000 39.615000 27.105000
Ni 50.040000 37.530000 29.190000
Ni 52.125000 39.615000 29.190000
Ni 52.125000 37.530000 31.275000
Ni 50.040000 39.615000 31.275000
Ni 50.040000 37.530000 33.360000
Ni 52.125000 39.615000 33.360000
Ni 52.125000 37.530000 35.445000
Ni 50.040000 39.615000 35.445000
Ni 50.040000 37.530000 37.530000
Ni 52.125000 39.615000 37.530000
Ni 52.125000 37.530000 39.615000
Ni 50.040000 39.615000 39.615000
Ni 54.210000 0.000000 0.000000
Ni 56.295000 2.085000 0.000000
Ni 56.295000 0.000000 2.085000
Ni 54.210000 2.085000 2.085000
Ni 54.210000 0.000000 4.170000
Ni 56.295000 2.085000 4.170000
Ni 56.295000 0.000000 6.255000
Ni 54.210000 2.085000 6.255000
Ni 54.210000 0.000000 8.340000
Ni 56.295000 2.085000 8.340000
Ni 56.295000 0.000000 10.425000
Ni 54.210000 2.085000 10.425000
Ni 54.210000 0.000000 12.510000
Ni 56.295000 2.085000 12.510000
Ni 56.295000 0.000000 14.595000
Ni 54.210000 2.085000 14.595000
Ni 54.210000 0.000000 16.680000
Ni 56.295000 2.085000 16.680000
Ni 56.295000 0.000000 18.765000
Ni 54.210000 2.085000 18.765000
Ni 54.210000 0.000000 20.850000
Ni 56.295000 2.085000 20.850000
Ni 56.295000 0.000000 22.935000
Ni 54.210000 2.085000 22.935000
Ni 54.210000 0.000000 25.020000
Ni 56.295000 2.085000 25.020000
Ni 56.295000 0.000000 27.105000
Ni 54.210000 2.085000 27.105000
Ni 54.210000 0.000000 29.190000
Ni 56.295000 2.085000 29.190000
Ni 56.295000 0.000000 31.275000
Ni 54.210000 2.085000 31.275000
Ni 54.210000 0.000000 33.360000
Ni 56.295000 2.085000 33.360000
Ni 56.295000 0.000000 35.445000
Ni 54.210000 2.085000 35.445000
Ni 54.210000 0.000000 37.530000
Ni 56.295000 2.085000 37.530000
Ni 56.295000 0.000000 39.615000
Ni 54.210000 2.085000 39.615000
Ni 54.210000 4.170000 0.000000
Ni 56.295000 6.255000 0.000000
Ni 56.295000 4.170000 2.085000
Ni 54.210000 6.255000 2.085000
Ni 54.210000 4.170000 4.170000
Ni 56.295000 6.255000 4.170000
Ni 56.295000 4.170000 6.255000
Ni 54.210000 6.255000 6.255000
Ni 54.210000 4.170000 8.340000
Ni 56.295000 6.255000 8.340000
Ni 56.295000 4.170000 10.425000
Ni 54.210000 6.255000 10.425000
Ni 54.210000 4.170000 12.510000
Ni 56.295000 6.255000 12.510000
Ni 56.295000 4.170000 14.595000
Ni 54.210000 6.255000 14.595000
Ni 54.210000 4.170000 16.680000
Ni 56.295000 6.255000 16.680000
Ni 56.295000 4.170000 18.765000
Ni 54.210000 6.255000 18.765000
Ni 54.210000 4.170000 20.850000
Ni 56.295000 6.255000 20.850000
Ni 56.295000 4.170000 22.935000
Ni 54.210000 6.255000 22.935000
Ni 54.210000 4.170000 25.020000
Ni 56.295000 6.255000 25.020000
Ni 56.295000 4.170000 27.105000
Ni 54.210000 6.255000 27.105000
Ni 54.210000 4.170000 29.190000
Ni 56.295000 6.255000 29.190000
Ni 56.295000 4.170000 31.275000
Ni 54.210000 6.255000 31.275000
Ni 54.210000 4.170000 33.360000
Ni 56.295000 6.255000 33.360000
Ni 56.295000 4.170000 35.445000
Ni 54.210000 6.255000 35.445000
Ni 54.210000 4.170000 37.530000
Ni 56.295000 6.255000 37.530000
Ni 56.295000 4.170000 39.615000
Ni 54.210000 6.255000 39.615000
Ni 54.210000 8.340000 0.000000
Ni 56.295000 10.425000 0.000000
Ni 56.295000 8.340000 2.085000
Ni 54.210000 10.425000 2.085000
Ni 54.210000 8.340000 4.170000
Ni 56.295000 10.425000 4.170000
Ni 56.295000 8.340000 6.255000
Ni 54.210000 10.425000 6.255000
Ni 54.210000 8.340000 8.340000
Ni 56.295000 10.425000 8.340000
Ni 56.295000 8.340000 10.425000
Ni 54.210000 10.425000 10.425000
Ni 54.210000 8.340000 12.510000
Ni 56.295000 10.425000 12.510000
Ni 56.295000 8.340000 14.595000
Ni 54.210000 10.425000 14.595000
Ni 54.210000 8.340000 16.680000
Ni 56.295000 10.425000 16.680000
Ni 56.295000 8.340000 18.765000
Ni 54.210000 10.425000 18.765000
Ni 54.210000 8.340000 20.850000
Ni 56.295000 10.425000 20.850000
Ni 56.295000 8.340000 22.935000
Ni 54.210000 10.425000 22.935000
Ni 54.210000 8.340000 25.020000
Ni 56.295000 10.425000 25.020000
Ni 56.295000 8.340000 27.105000
Ni 54.210000 10.425000 27.105000
Ni 54.210000 8.340000 29.190000
Ni 56.295000 10.425000 29.190000
Ni 56.295000 8.340000 31.275000
Ni 54.210000 10.425000 31.275000
Ni 54.210000 8.340000 33.360000
Ni 56.295000 10.425000 33.360000
Ni 56.295000 8.340000 35.445000
Ni 54.210000 10.425000 35.445000
Ni 54.210000 8.340000 37.530000
Ni 54.210000 12.510000 0.000000
Ni 56.295000 14.595000 0.000000
Ni 56.295000 12.510000 2.085000
Ni 54.210000 14.595000 2.085000
Ni 54.210000 12.510000 4.170000
Ni 56.295000 14.595000 4.170000
Ni 56.295000 12.510000 6.255000
Ni 54.210000 14.595000 6.255000
Ni 54.210000 12.510000 8.340000
Ni 56.295000 14.595000 8.340000
Ni 56.295000 12.510000 10.425000
Ni 54.210000 14.595000 10.425000
Ni 54.210000 12.510000 12.510000
Ni 56.295000 14.595000 12.510000
Ni 56.295000 12.510000 14.595000
Ni 54.210000 14.595000 14.595000
Ni 54.210000 12.510000 16.680000
Ni 56.295000 14.595000 16.680000
Ni 56.295000 12.510000 18.765000
Ni 54.210000 14.595000 18.765000
Ni 54.210000 12.510000 20.850000
Ni 56.295000 14.595000 20.850000
Ni 56.295000 12.510000 22.935000
Ni 54.210000 14.595000 22.935000
Ni 54.210000 12.510000 25.020000
Ni 56.295000 14.595000 25.020000
Ni 56.295000 12.510000 27.105000
Ni 54.210000 14.595000 27.105000
Ni 54.210000 12.510000 29.190000
Ni 56.295000 14.595000 29.190000
Ni 56.295000 12.510000 31.275000
Ni 54.210000 14.595000 31.275000
Ni 54.210000 12.510000 33.360000
Ni 54.210000 16.680000 0.000000
Ni 56.295000 18.765000 0.000000
Ni 56.295000 16.680000 2.085000
Ni 54.210000 18.765000 2.085000
Ni 54.210000 16.680000 4.170000
Ni 56.295000 18.765000 4.170000
Ni 56.295000 16.680000 6.255000
Ni 54.210000 18.765000 6.255000
Ni 54.210000 16.680000 8.340000
Ni 56.295000 18.765000 8.340000
Ni 56.295000 16.680000 10.425000
Ni 54.210000 18.765000 10.425000
Ni 54.210000 16.680000 12.510000
Ni 56.295000 18.765000 12.510000
Ni 56.295000 16.680000 14.595000
Ni 54.210000 18.765000 14.595000
Ni 54.210000 16.680000 16.680000
Ni 56.295000 18.765000 16.680000
Ni 56.295000 16.680000 18.765000
Ni 54.210000 18.765000 18.765000
Ni 54.210000 16.680000 20.850000
Ni 56.295000 18.765000 20.850000
Ni 56.295000 16.680000 22.935000
Ni 54.210000 18.765000 22.935000
Ni 54.210000 16.680000 25.020000
Ni 56.295000 18.765000 25.020000
Ni 56.295000 16.680000 27.105000
Ni 54.210000 18.765000 27.105000
Ni 54.210000 16.680000 29.190000
Ni 54.210000 20.850000 0.000000
Ni 56.295000 22.935000 0.000000
Ni 56.295000 20.850000 2.085000
Ni 54.210000 22.935000 2.085000
Ni 54.210000 20.850000 4.170000
Ni 56.295000 22.935000 4.170000
Ni 56.295000 20.850000 6.255000
Ni 54.210000 22.935000 6.255000
Ni 54.210000 20.850000 8.340000
Ni 56.295000 22.935000 8.340000
Ni 56.295000 20.850000 10.425000
Ni 54.210000 22.935000 10.425000
Ni 54.210000 20.850000 12.510000
Ni 56.295000 22.935000 12.510000
Ni 56.295000 20.850000 14.595000
Ni 54.210000 22.935000 14.595000
Ni 54.210000 20.850000 16.680000
Ni 56.295000 22.935000 16.680000
Ni 56.295000 20.850000 18.765000
Ni 54.210000 22.935000 18.765000
Ni 54.210000 20.850000 20.850000
Ni 56.295000 22.935000 20.850000
Ni 56.295000 20.850000 22.935000
Ni 54.210000 22.935000 22.935000
Ni 54.210000 20.850000 25.020000
Ni 56.295000 22.935000 25.020000
Ni 54.210000 22.935000 27.105000
Ni 54.210000 25.020000 0.000000
Ni 56.295000 27.105000 0.000000
Ni 56.295000 25.020000 2.085000
Ni 54.210000 27.105000 2.085000
Ni 54.210000 25.020000 4.170000
Ni 56.295000 27.105000 4.170000
Ni 56.295000 25.020000 6.255000
Ni 54.210000 27.105000 6.255000
Ni 54.210000 25.020000 8.340000
Ni 56.295000 27.105000 8.340000
Ni 56.295000 25.020000 10.425000
Ni 54.210000 27.105000 10.425000
Ni 54.210000 25.020000 12.510000
Ni 56.295000 27.105000 12.510000
Ni 56.295000 25.020000 14.595000
Ni 54.210000 27.105000 14.595000
Ni 54.210000 25.020000 16.680000
Ni 56.295000 27.105000 16.680000
Ni 56.295000 25.020000 18.765000
Ni 54.210000 27.105000 18.765000
Ni 54.210000 25.020000 20.850000
Ni 56.295000 27.105000 20.850000
Ni 56.295000 25.020000 22.935000
Ni 54.210000 27.105000 22.935000
Ni 54.210000 25.020000 25.020000
Ni 56.295000 27.105000 25.020000
Ni 56.295000 25.020000 27.105000
Ni 54.210000 27.105000 27.105000
Ni 54.210000 25.020000 29.190000
Ni 56.295000 27.105000 29.190000
Ni 54.210000 27.105000 31.275000
Ni 54.210000 29.190000 0.000000
Ni 56.295000 31.275000 0.000000
Ni 56.295000 29.190000 2.085000
Ni 54.210000 31.275000 2.085000
Ni 54.210000 29.190000 4.170000
Ni 56.295000 31.275000 4.170000
Ni 56.295000 29.190000 6.255000
Ni 54.210000 31.275000 6.255000
Ni 54.210000 29.190000 8.340000
Ni 56.295000 31.275000 8.340000
Ni 56.295000 29.190000 10.425000
Ni 54.210000 31.275000 10.425000
Ni 54.210000 29.190000 12.510000
Ni 56.295000 31.275000 12.510000
Ni 56.295000 29.190000 14.595000
Ni 54.210000 31.275000 14.595000
Ni 54.210000 29.190000 16.680000
Ni 56.295000 31.275000 16.680000
Ni 56.295000 29.190000 18.765000
Ni 54.210000 31.275000 18.765000
Ni 54.210000 29.190000 20.850000
Ni 56.295000 31.275000 20.850000
Ni 56.295000 29.190000 22.935000
Ni 54.210000 31.275000 22.935000
Ni 54.210000 29.190000 25.020000
Ni 56.295000 31.275000 25.020000
Ni 56.295000 29.190000 27.105000
Ni 54.210000 31.275000 27.105000
Ni 54.210000 29.190000 29.190000
Ni 56.295000 31.275000 29.190000
Ni 56.295000 29.190000 31.275000
Ni 54.210000 31.275000 31.275000
Ni 54.210000 29.190000 33.360000
Ni 56.295000 31.275000 33.360000
Ni 54.210000 31.275000 35.445000
Ni 54.210000 33.360000 0.000000
Ni 56.295000 35.445000 0.000000
Ni 56.295000 33.360000 2.085000
Ni 54.210000 35.445000 2.085000
Ni 54.210000 33.360000 4.170000
Ni 56.295000 35.445000 4.170000
Ni 56.295000 33.360000 6.255000
Ni 54.210000 35.445000 6.255000
Ni 54.210000 33.360000 8.340000
Ni 56.295000 35.445000 8.340000
Ni 56.295000 33.360000 10.425000
Ni 54.210000 35.445000 10.425000
Ni 54.210000 33.360000 12.510000
Ni 56.295000 35.445000 12.510000
Ni 56.295000 33.360000 14.595000
Ni 54.210000 35.445000 14.595000
Ni 54.210000 33.360000 16.680000
Ni 56.295000 35.445000 16.680000
Ni 56.295000 33.360000 18.765000
Ni 54.210000 35.445000 18.765000
Ni 54.210000 33.360000 20.850000
Ni 56.295000 35.445000 20.850000
Ni 56.295000 33.360000 22.935000
Ni 54.210000 35.445000 22.935000
Ni 54.210000 33.360000 25.020000
Ni 56.295000 35.445000 25.020000
Ni 56.295000 33.360000 27.105000
Ni 54.210000 35.445000 27.105000
Ni 54.210000 33.360000 29.190000
Ni 56.295000 35.445000 29.190000
Ni 56.295000 33.360000 31.275000
Ni 54.210000 35.445000 31.275000
Ni 54.210000 33.360000 33.360000
Ni 56.295000 35.445000 33.360000
Ni 56.295000 33.360000 35.445000
Ni 54.210000 35.445000 35.445000
Ni 54.210000 33.360000 37.530000
Ni 56.295000 35.445000 37.530000
Ni 54.210000 35.445000 39.615000
Ni 54.210000 37.530000 0.000000
Ni 56.295000 39.615000 0.000000
Ni 56.295000 37.530000 2.085000
Ni 54.210000 39.615000 2.085000
Ni 54.210000 37.530000 4.170000
Ni 56.295000 39.615000 4.170000
Ni 56.295000 37.530000 6.255000
Ni 54.210000 39.615000 6.255000
Ni 54.210000 37.530000 8.340000
Ni 56.295000 39.615000 8.340000
Ni 56.295000 37.530000 10.425000
Ni 54.210000 39.615000 10.425000
Ni 54.210000 37.530000 12.510000
Ni 56.295000 39.615000 12.510000
Ni 56.295000 37.530000 14.595000
Ni 54.210000 39.615000 14.595000
Ni 54.210000 37.530000 16.680000
Ni 56.295000 39.615000 16.680000
Ni 56.295000 37.530000 18.765000
Ni 54.210000 39.615000 18.765000
Ni 54.210000 37.530000 20.850000
Ni 56.295000 39.615000 20.850000
Ni 56.295000 37.530000 22.935000
Ni 54.210000 39.615000 22.935000
Ni 54.210000 37.530000 25.020000
Ni 56.295000 39.615000 25.020000
Ni 56.295000 37.530000 27.105000
Ni 54.210000 39.615000 27.105000
Ni 54.210000 37.530000 29.190000
Ni 56.295000 39.615000 29.190000
Ni 56.295000 37.530000 31.275000
Ni 54.210000 39.615000 31.275000
Ni 54.210000 37.530000 33.360000
Ni 56.295000 39.615000 33.360000
Ni 56.295000 37.530000 35.445000
Ni 54.210000 39.615000 35.445000
Ni 54.210000 37.530000 37.530000
Ni 56.295000 39.615000 37.530000
Ni 56.295000 37.530000 39.615000
Ni 54.210000 39.615000 39.615000
Ni 58.380000 0.000000 0.000000
Ni 60.465000 2.085000 0.000000
Ni 60.465000 0.000000 2.085000
Ni 58.380000 2.085000 2.085000
Ni 58.380000 0.000000 4.170000
Ni 60.465000 2.085000 4.170000
Ni 60.465000 0.000000 6.255000
Ni 58.380000 2.085000 6.255000
Ni 58.380000 0.000000 8.340000
Ni 60.465000 2.085000 8.340000
Ni 60.465000 0.000000 10.425000
Ni 58.380000 2.085000 10.425000
Ni 58.380000 0.000000 12.510000
Ni 60.465000 2.085000 12.510000
Ni 60.465000 0.000000 14.595000
Ni 58.380000 2.085000 14.595000
Ni 58.380000 0.000000 16.680000
Ni 60.465000 2.085000 16.680000
Ni 60.465000 0.000000 18.765000
Ni 58.380000 2.085000 18.765000
Ni 58.380000 0.000000 20.850000
Ni 60.465000 2.085000 20.850000
Ni 60.465000 0.000000 22.935000
Ni 58.380000 2.085000 22.935000
Ni 58.380000 0.000000 25.020000
Ni 60.465000 2.085000 25.020000
Ni 60.465000 0.000000 27.105000
Ni 58.380000 2.085000 27.105000
Ni 58.380000 0.000000 29.190000
Ni 60.465000 2.085000 29.190000
Ni 60.465000 0.000000 31.275000
Ni 58.380000 2.085000 31.275000
Ni 58.380000 0.000000 33.360000
Ni 60.465000 2.085000 33.360000
Ni 60.465000 0.000000 35.445000
Ni 58.380000 2.085000 35.445000
Ni 58.380000 0.000000 37.530000
Ni 60.465000 2.085000 37.530000
Ni 60.465000 0.000000 39.615000
Ni 58.380000 2.085000 39.615000
Ni 58.380000 4.170000 0.000000
Ni 60.465000 6.255000 0.000000
Ni 60.465000 4.170000 2.085000
Ni 58.380000 6.255000 2.085000
Ni 58.380000 4.170000 4.170000
Ni 60.465000 6.255000 4.170000
Ni 60.465000 4.170000 6.255000
Ni 58.380000 6.255000 6.255000
Ni 58.380000 4.170000 8.340000
Ni 60.465000 6.255000 8.340000
Ni 60.465000 4.170000 10.425000
Ni 58.380000 6.255000 10.425000
Ni 58.380000 4.170000 12.510000
Ni 60.465000 6.255000 12.510000
Ni 60.465000 4.170000 14.595000
Ni 58.380000 6.255000 14.595000
Ni 58.380000 4.170000 16.680000
Ni 60.465000 6.255000 16.680000
Ni 60.465000 4.170000 18.765000
Ni 58.380000 6.255000 18.765000
Ni 58.380000 4.170000 20.850000
Ni 60.465000 6.255000 20.850000
Ni 60.465000 4.170000 22.935000
Ni 58.380000 6.255000 22.935000
Ni 58.380000 4.170000 25.020000
Ni 60.465000 6.255000 25.020000
Ni 60.465000 4.170000 27.105000
Ni 58.380000 6.255000 27.105000
Ni 58.380000 4.170000 29.190000
Ni 60.465000 6.255000 29.190000
Ni 60.465000 4.170000 31.275000
Ni 58.380000 6.255000 31.275000
Ni 58.380000 4.170000 33.360000
Ni 60.465000 6.255000 33.360000
Ni 60.465000 4.170000 35.445000
Ni 58.380000 6.255000 35.445000
Ni 58.380000 4.170000 37.530000
Ni 60.465000 6.255000 37.530000
Ni 60.465000 4.170000 39.615000
Ni 58.380000 6.255000 39.615000
Ni 58.380000 8.340000 0.000000
Ni 60.465000 10.425000 0.000000
Ni 60.465000 8.340000 2.085000
Ni 58.380000 10.425000 2.085000
Ni 58.380000 8.340000 4.170000
Ni 60.465000 10.425000 4.170000
Ni 60.465000 8.340000 6.255000
Ni 58.380000 10.425000 6.255000
Ni 58.380000 8.340000 8.340000
Ni 60.465000 10.425000 8.340000
Ni 60.465000 8.340000 10.425000
Ni 58.380000 10.425000 10.425000
Ni 58.380000 8.340000 12.510000
Ni 60.465000 10.425000 12.510000
Ni 60.465000 8.340000 14.595000
Ni 58.380000 10.425000 14.595000
Ni 58.380000 8.340000 16.680000
Ni 60.465000 10.425000 16.680000
Ni 60.465000 8.340000 18.765000
Ni 58.380000 10.425000 18.765000
Ni 58.380000 8.340000 20.850000
Ni 60.465000 10.425000 20.850000
Ni 60.465000 8.340000 22.935000
Ni 58.380000 10.425000 22.935000
Ni 58.380000 8.340000 25.020000
Ni 60.465000 10.425000 25.020000
Ni 60.465000 8.340000 27.105000
Ni 58.380000 10.425000 27.105000
Ni 58.380000 8.340000 29.190000
Ni 60.465000 10.425000 29.190000
Ni 60.465000 8.340000 31.275000
Ni 58.380000 10.425000 31.275000
Ni 58.380000 8.340000 33.360000
Ni 60.465000 10.425000 33.360000
Ni 60.465000 8.340000 35.445000
Ni 58.380000 10.425000 35.445000
Ni 58.380000 8.340000 37.530000
Ni 58.380000 12.510000 0.000000
Ni 60.465000 14.595000 0.000000
Ni 60.465000 12.510000 2.085000
Ni 58.380000 14.595000 2.085000
Ni 58.380000 12.510000 4.170000
Ni 60.465000 14.595000 4.170000
Ni 60.465000 12.510000 6.255000
Ni 58.380000 14.595000 6.255000
Ni 58.380000 12.510000 8.340000
Ni 60.465000 14.595000 8.340000
Ni 60.465000 12.510000 10.425000
Ni 58.380000 14.595000 10.425000
Ni 58.380000 12.510000 12.510000
Ni 60.465000 14.595000 12.510000
Ni 60.465000 12.510000 14.595000
Ni 58.380000 14.595000 14.595000
Ni 58.380000 12.510000 16.680000
Ni 60.465000 14.595000 16.680000
Ni 60.465000 12.510000 18.765000
Ni 58.380000 14.595000 18.765000
Ni 58.380000 12.510000 20.850000
Ni 60.465000 14.595000 20.850000
Ni 60.465000 12.510000 22.935000
Ni 58.380000 14.595000 22.935000
Ni 58.380000 12.510000 25.020000
Ni 60.465000 14.595000 25.020000
Ni 60.465000 12.510000 27.105000
Ni 58.380000 14.595000 27.105000
Ni 58.380000 12.510000 29.190000
Ni 60.465000 14.595000 29.190000
Ni 60.465000 12.510000 31.275000
Ni 58.380000 14.595000 31.275000
Ni 58.380000 12.510000 33.360000
Ni 58.380000 16.680000 0.000000
Ni 60.465000 18.765000 0.000000
Ni 60.465000 16.680000 2.085000
Ni 58.380000 18.765000 2.085000
Ni 58.380000 16.680000 4.170000
Ni 60.465000 18.765000 4.170000
Ni 60.465000 16.680000 6.255000
Ni 58.380000 18.765000 6.255000
Ni 58.380000 16.680000 8.340000
Ni 60.465000 18.765000 8.340000
Ni 60.465000 16.680000 10.425000
Ni 58.380000 18.765000 10.425000
Ni 58.380000 16.680000 12.510000
Ni 60.465000 18.765000 12.510000
Ni 60.465000 16.680000 14.595000
Ni 58.380000 18.765000 14.595000
Ni 58.380000 16.680000 16.680000
Ni 60.465000 18.765000 16.680000
Ni 60.465000 16.680000 18.765000
Ni 58.380000 18.765000 18.765000
Ni 58.380000 16.680000 20.850000
Ni 60.465000 18.765000 20.850000
Ni 60.465000 16.680000 22.935000
Ni 58.380000 18.765000 22.935000
Ni 58.380000 16.680000 25.020000
Ni 60.465000 18.765000 25.020000
Ni 60.465000 16.680000 27.105000
Ni 58.380000 18.765000 27.105000
Ni 58.380000 16.680000 29.190000
Ni 58.380000 20.850000 0.000000
Ni 60.465000 22.935000 0.000000
Ni 60.465000 20.850000 2.085000
Ni 58.380000 22.935000 2.085000
Ni 58.380000 20.850000 4.170000
Ni 60.465000 22.935000 4.170000
Ni 60.465000 20.850000 6.255000
Ni 58.380000 22.935000 6.255000
Ni 58.380000 20.850000 8.340000
Ni 60.465000 22.935000 8.340000
Ni 60.465000 20.850000 10.425000
Ni 58.380000 22.935000 10.425000
Ni 58.380000 20.850000 12.510000
Ni 60.465000 22.935000 12.510000
Ni 60.465000 20.850000 14.595000
Ni 58.380000 22.935000 14.595000
Ni 58.380000 20.850000 16.680000
Ni 60.465000 22.935000 16.680000
Ni 60.465000 20.850000 18.765000
Ni 58.380000 22.935000 18.765000
Ni 58.380000 20.850000 20.850000
Ni 60.465000 22.935000 20.850000
Ni 60.465000 20.850000 22.935000
Ni 58.380000 22.935000 22.935000
Ni 58.380000 20.850000 25.020000
Ni 60.465000 22.935000 25.020000
Ni 58.380000 22.935000 27.105000
Ni 58.380000 25.020000 0.000000
Ni 60.465000 27.105000 0.000000
Ni 60.465000 25.020000 2.085000
Ni 58.380000 27.105000 2.085000
Ni 58.380000 25.020000 4.170000
Ni 60.465000 27.105000 4.170000
Ni 60.465000 25.020000 6.255000
Ni 58.380000 27.105000 6.255000
Ni 58.380000 25.020000 8.340000
Ni 60.465000 27.105000 8.340000
Ni 60.465000 25.020000 10.425000
Ni 58.380000 27.105000 10.425000
Ni 58.380000 25.020000 12.510000
Ni 60.465000 27.105000 12.510000
Ni 60.465000 25.020000 14.595000
Ni 58.380000 27.105000 14.595000
Ni 58.380000 25.020000 16.680000
Ni 60.465000 27.105000 16.680000
Ni 60.465000 25.020000 18.765000
Ni 58.380000 27.105000 18.765000
Ni 58.380000 25.020000 20.850000
Ni 60.465000 27.105000 20.850000
Ni 60.465000 25.020000 22.935000
Ni 58.380000 27.105000 22.935000
Ni 58.380000 25.020000 25.020000
Ni 60.465000 27.105000 25.020000
Ni 60.465000 25.020000 27.105000
Ni 58.380000 27.105000 27.105000
Ni 58.380000 25.020000 29.190000
Ni 60.465000 27.105000 29.190000
Ni 58.380000 27.105000 31.275000
Ni 58.380000 29.190000 0.000000
Ni 60.465000 31.275000 0.000000
Ni 60.465000 29.190000 2.085000
Ni 58.380000 31.275000 2.085000
Ni 58.380000 29.190000 4.170000
Ni 60.465000 31.275000 4.170000
Ni 60.465000 29.190000 6.255000
Ni 58.380000 31.275000 6.255000
Ni 58.380000 29.190000 8.340000
Ni 60.465000 31.275000 8.340000
Ni 60.465000 29.190000 10.425000
Ni 58.380000 31.275000 10.425000
Ni 58.380000 29.190000 12.510000
Ni 60.465000 31.275000 12.510000
Ni 60.465000 29.190000 14.595000
Ni 58.380000 31.275000 14.595000
Ni 58.380000 29.190000 16.680000
Ni 60.465000 31.275000 16.680000
Ni 60.465000 29.190000 18.765000
Ni 58.380000 31.275000 18.765000
Ni 58.380000 29.190000 20.850000
Ni 60.465000 31.275000 20.850000
Ni 60.465000 29.190000 22.935000
Ni 58.380000 31.275000 22.935000
Ni 58.380000 29.190000 25.020000
Ni 60.465000 31.275000 25.020000
Ni 60.465000 29.190000 27.105000
Ni 58.380000 31.275000 27.105000
Ni 58.380000 29.190000 29.190000
Ni 60.465000 31.275000 29.190000
Ni 60.465000 29.190000 31.275000
Ni 58.380000 31.275000 31.275000
Ni 58.380000 29.190000 33.360000
Ni 60.465000 31.275000 33.360000
Ni 58.380000 31.275000 35.445000
Ni 58.380000 33.360000 0.000000
Ni 60.465000 35.445000 0.000000
Ni 60.465000 33.360000 2.085000
Ni 58.380000 35.445000 2.085000
Ni 58.380000 33.360000 4.170000
Ni 60.465000 35.445000 4.170000
Ni 60.465000 33.360000 6.255000
Ni 58.380000 35.445000 6.255000
Ni 58.380000 33.360000 8.340000
Ni 60.465000 35.445000 8.340000
Ni 60.465000 33.360000 10.425000
Ni 58.380000 35.445000 10.425000
Ni 58.380000 33.360000 12.510000
Ni 60.465000 35.445000 12.510000
Ni 60.465000 33.360000 14.595000
Ni 58.380000 35.445000 14.595000
Ni 58.380000 33.360000 16.680000
Ni 60.465000 35.445000 16.680000
Ni 60.465000 33.360000 18.765000
Ni 58.380000 35.445000 18.765000
Ni 58.380000 33.360000 20.850000
Ni 60.465000 35.445000 20.850000
Ni 60.465000 33.360000 22.935000
Ni 58.380000 35.445000 22.935000
Ni 58.380000 33.360000 25.020000
Ni 60.465000 35.445000 25.020000
Ni 60.465000 33.360000 27.105000
Ni 58.380000 35.445000 27.105000
Ni 58.380000 33.360000 29.190000
Ni 60.465000 35.445000 29.190000
Ni 60.465000 33.360000 31.275000
Ni 58.380000 35.445000 31.275000
Ni 58.380000 33.360000 33.360000
Ni 60.465000 35.445000 33.360000
Ni 60.465000 33.360000 35.445000
Ni 58.380000 35.445000 35.445000
Ni 58.380000 33.360000 37.530000
Ni 60.465000 35.445000 37.530000
Ni 58.380000 35.445000 39.615000
Ni 58.380000 37.530000 0.000000
Ni 60.465000 39.615000 0.000000
Ni 60.465000 37.530000 2.085000
Ni 58.380000 39.615000 2.085000
Ni 58.380000 37.530000 4.170000
Ni 60.465000 39.615000 4.170000
Ni 60.465000 37.530000 6.255000
Ni 58.380000 39.615000 6.255000
Ni 58.380000 37.530000 8.340000
Ni 60.465000 39.615000 8.340000
Ni 60.465000 37.530000 10.425000
Ni 58.380000 39.615000 10.425000
Ni 58.380000 37.530000 12.510000
Ni 60.465000 39.615000 12.510000
Ni 60.465000 37.530000 14.595000
Ni 58.380000 39.615000 14.595000
Ni 58.380000 37.530000 16.680000
Ni 60.465000 39.615000 16.680000
Ni 60.465000 37.530000 18.765000
Ni 58.380000 39.615000 18.765000
Ni 58.380000 37.530000 20.850000
Ni 60.465000 39.615000 20.850000
Ni 60.465000 37.530000 22.935000
Ni 58.380000 39.615000 22.935000
Ni 58.380000 37.530000 25.020000
Ni 60.465000 39.615000 25.020000
Ni 60.465000 37.530000 27.105000
Ni 58.380000 39.615000 27.105000
Ni 58.380000 37.530000 29.190000
Ni 60.465000 39.615000 29.190000
Ni 60.465000 37.530000 31.275000
Ni 58.380000 39.615000 31.275000
Ni 58.380000 37.530000 33.360000
Ni 60.465000 39.615000 33.360000
Ni 60.465000 37.530000 35.445000
Ni 58.380000 39.615000 35.445000
Ni 58.380000 37.530000 37.530000
Ni 60.465000 39.615000 37.530000
Ni 60.465000 37.530000 39.615000
Ni 58.380000 39.615000 39.615000
Ni 62.550000 0.000000 0.000000
Ni 64.635000 2.085000 0.000000
Ni 64.635000 0.000000 2.085000
Ni 62.550000 2.085000 2.085000
Ni 62.550000 0.000000 4.170000
Ni 64.635000 2.085000 4.170000
Ni 64.635000 0.000000 6.255000
Ni 62.550000 2.085000 6.255000
Ni 62.550000 0.000000 8.340000
Ni 64.635000 2.085000 8.340000
Ni 64.635000 0.000000 10.425000
Ni 62.550000 2.085000 10.425000
Ni 62.550000 0.000000 12.510000
Ni 64.635000 2.085000 12.510000
Ni 64.635000 0.000000 14.595000
Ni 62.550000 2.085000 14.595000
Ni 62.550000 0.000000 16.680000
Ni 64.635000 2.085000 16.680000
Ni 64.635000 0.000000 18.765000
Ni 62.550000 2.085000 18.765000
Ni 62.550000 0.000000 20.850000
Ni 64.635000 2.085000 20.850000
Ni 64.635000 0.000000 22.935000
Ni 62.550000 2.085000 22.935000
Ni 62.550000 0.000000 25.020000
Ni 64.635000 2.085000 25.020000
Ni 64.635000 0.000000 27.105000
Ni 62.550000 2.085000 27.105000
Ni 62.550000 0.000000 29.190000
Ni 64.635000 2.085000 29.190000
Ni 64.635000 0.000000 31.275000
Ni 62.550000 2.085000 31.275000
Ni 62.550000 0.000000 33.360000
Ni 64.635000 2.085000 33.360000
Ni 64.635000 0.000000 35.445000
Ni 62.550000 2.085000 35.445000
Ni 62.550000 0.000000 37.530000
Ni 64.635000 2.085000 37.530000
Ni 64.635000 0.000000 39.615000
Ni 62.550000 2.085000 39.615000
Ni 62.550000 4.170000 0.000000
Ni 64.635000 6.255000 0.000000
Ni 64.635000 4.170000 2.085000
Ni 62.550000 6.255000 2.085000
Ni 62.550000 4.170000 4.170000
Ni 64.635000 6.255000 4.170000
Ni 64.635000 4.170000 6.255000
Ni 62.550000 6.255000 6.255000
Ni 62.550000 4.170000 8.340000
Ni 64.635000 6.255000 8.340000
Ni 64.635000 4.170000 10.425000
Ni 62.550000 6.255000 10.425000
Ni 62.550000 4.170000 12.510000
Ni 64.635000 6.255000 12.510000
Ni 64.635000 4.170000 14.595000
Ni 62.550000 6.255000 14.595000
Ni 62.550000 4.170000 16.680000
Ni 64.635000 6.255000 16.680000
Ni 64.635000 4.170000 18.765000
Ni 62.550000 6.255000 18.765000
Ni 62.550000 4.170000 20.850000
Ni 64.635000 6.255000 20.850000
Ni 64.635000 4.170000 22.935000
Ni 62.550000 6.255000 22.935000
Ni 62.550000 4.170000 25.020000
Ni 64.635000 6.255000 25.020000
Ni 64.635000 4.170000 27.105000
Ni 62.550000 6.255000 27.105000
Ni 62.550000 4.170000 29.190000
Ni 64.635000 6.255000 29.190000
Ni 64.635000 4.170000 31.275000
Ni 62.550000 6.255000 31.275000
Ni 62.550000 4.170000 33.360000
Ni 64.635000 6.255000 33.360000
Ni 64.635000 4.170000 35.445000
Ni 62.550000 6.255000 35.445000
Ni 62.550000 4.170000 37.530000
Ni 64.635000 6.255000 37.530000
Ni 64.635000 4.170000 39.615000
Ni 62.550000 6.255000 39.615000
Ni 62.550000 8.340000 0.000000
Ni 64.635000 10.425000 0.000000
Ni 64.635000 8.340000 2.085000
Ni 62.550000 10.425000 2.085000
Ni 62.550000 8.340000 4.170000
Ni 64.635000 10.425000 4.170000
Ni 64.635000 8.340000 6.255000
Ni 62.550000 10.425000 6.255000
Ni 62.550000 8.340000 8.340000
Ni 64.635000 10.425000 8.340000
Ni 64.635000 8.340000 10.425000
Ni 62.550000 10.425000 10.425000
Ni 62.550000 8.340000 12.510000
Ni 64.635000 10.425000 12.510000
Ni 64.635000 8.340000 14.595000
Ni 62.550000 10.425000 14.595000
Ni 62.550000 8.340000 16.680000
Ni 64.635000 10.425000 16.680000
Ni 64.635000 8.340000 18.765000
Ni 62.550000 10.425000 18.765000
Ni 62.550000 8.340000 20.850000
Ni 64.635000 10.425000 20.850000
Ni 64.635000 8.340000 22.935000
Ni 62.550000 10.425000 22.935000
Ni 62.550000 8.340000 25.020000
Ni 64.635000 10.425000 25.020000
Ni 64.635000 8.340000 27.105000
Ni 62.550000 10.425000 27.105000
Ni 62.550000 8.340000 29.190000
Ni 64.635000 10.425000 29.190000
Ni 64.635000 8.340000 31.275000
Ni 62.550000 10.425000 31.275000
Ni 62.550000 8.340000 33.360000
Ni 64.635000 10.425000 33.360000
Ni 64.635000 8.340000 35.445000
Ni 62.550000 10.425000 35.445000
Ni 62.550000 8.340000 37.530000
Ni 62.550000 12.510000 0.000000
Ni 64.635000 14.595000 0.000000
Ni 64.635000 12.510000 2.085000
Ni 62.550000 14.595000 2.085000
Ni 62.550000 12.510000 4.170000
Ni 64.635000 14.595000 4.170000
Ni 64.635000 12.510000 6.255000
Ni 62.550000 14.595000 6.255000
Ni 62.550000 12.510000 8.340000
Ni 64.635000 14.595000 8.340000
Ni 64.635000 12.510000 10.425000
Ni 62.550000 14.595000 10.425000
Ni 62.550000 12.510000 12.510000
Ni 64.635000 14.595000 12.510000
Ni 64.635000 12.510000 14.595000
Ni 62.550000 14.595000 14.595000
Ni 62.550000 12.510000 16.680000
Ni 64.635000 14.595000 16.680000
Ni 64.635000 12.510000 18.765000
Ni 62.550000 14.595000 18.765000
Ni 62.550000 12.510000 20.850000
Ni 64.635000 14.595000 20.850000
Ni 64.635000 12.510000 22.935000
Ni 62.550000 14.595000 22.935000
Ni 62.550000 12.510000 25.020000
Ni 64.635000 14.595000 25.020000
Ni 64.635000 12.510000 27.105000
Ni 62.550000 14.595000 27.105000
Ni 62.550000 12.510000 29.190000
Ni 64.635000 14.595000 29.190000
Ni 64.635000 12.510000 31.275000
Ni 62.550000 14.595000 31.275000
Ni 62.550000 12.510000 33.360000
Ni 62.550000 16.680000 0.000000
Ni 64.635000 18.765000 0.000000
Ni 64.635000 16.680000 2.085000
Ni 62.550000 18.765000 2.085000
Ni 62.550000 16.680000 4.170000
Ni 64.635000 18.765000 4.170000
Ni 64.635000 16.680000 6.255000
Ni 62.550000 18.765000 6.255000
Ni 62.550000 16.680000 8.340000
Ni 64.635000 18.765000 8.340000
Ni 64.635000 16.680000 10.425000
Ni 62.550000 18.765000 10.425000
Ni 62.550000 16.680000 12.510000
Ni 64.635000 18.765000 12.510000
Ni 64.635000 16.680000 14.595000
Ni 62.550000 18.765000 14.595000
Ni 62.550000 16.680000 16.680000
Ni 64.635000 18.765000 16.680000
Ni 64.635000 16.680000 18.765000
Ni 62.550000 18.765000 18.765000
Ni 62.550000 16.680000 20.850000
Ni 64.635000 18.765000 20.850000
Ni 64.635000 16.680000 22.935000
Ni 62.550000 18.765000 22.935000
Ni 62.550000 16.680000 25.020000
Ni 64.635000 18.765000 25.020000
Ni 64.635000 16.680000 27.105000
Ni 62.550000 18.765000 27.105000
Ni 62.550000 16.680000 29.190000
Ni 62.550000 20.850000 0.000000
Ni 64.635000 22.935000 0.000000
Ni 64.635000 20.850000 2.085000
Ni 62.550000 22.935000 2.085000
Ni 62.550000 20.850000 4.170000
Ni 64.635000 22.935000 4.170000
Ni 64.635000 20.850000 6.255000
Ni 62.550000 22.935000 6.255000
Ni 62.550000 20.850000 8.340000
Ni 64.635000 22.935000 8.340000
Ni 64.635000 20.850000 10.425000
Ni 62.550000 22.935000 10.425000
Ni 62.550000 20.850000 12.510000
Ni 64.635000 22.935000 12.510000
Ni 64.635000 20.850000 14.595000
Ni 62.550000 22.935000 14.595000
Ni 62.550000 20.850000 16.680000
Ni 64.635000 22.935000 16.680000
Ni 64.635000 20.850000 18.765000
Ni 62.550000 22.935000 18.765000
Ni 62.550000 20.850000 20.850000
Ni 64.635000 22.935000 20.850000
Ni 64.635000 20.850000 22.935000
Ni 62.550000 22.935000 22.935000
Ni 62.550000 20.850000 25.020000
Ni 64.635000 22.935000 25.020000
Ni 62.550000 22.935000 27.105000
Ni 62.550000 25.020000 0.000000
Ni 64.635000 27.105000 0.000000
Ni 64.635000 25.020000 2.085000
Ni 62.550000 27.105000 2.085000
Ni 62.550000 25.020000 4.170000
Ni 64.635000 27.105000 4.170000
Ni 64.635000 25.020000 6.255000
Ni 62.550000 27.105000 6.255000
Ni 62.550000 25.020000 8.340000
Ni 64.635000 27.105000 8.340000
Ni 64.635000 25.020000 10.425000
Ni 62.550000 27.105000 10.425000
Ni 62.550000 25.020000 12.510000
Ni 64.635000 27.105000 12.510000
Ni 64.635000 25.020000 14.595000
Ni 62.550000 27.105000 14.595000
Ni 62.550000 25.020000 16.680000
Ni 64.635000 27.105000 16.680000
Ni 64.635000 25.020000 18.765000
Ni 62.550000 27.105000 18.765000
Ni 62.550000 25.020000 20.850000
Ni 64.635000 27.105000 20.850000
Ni 64.635000 25.020000 22.935000
Ni 62.550000 27.105000 22.935000
Ni 62.550000 25.020000 25.020000
Ni 64.635000 27.105000 25.020000
Ni 64.635000 25.020000 27.105000
Ni 62.550000 27.105000 27.105000
Ni 62.550000 25.020000 29.190000
Ni 64.635000 27.105000 29.190000
Ni 62.550000 27.105000 31.275000
Ni 62.550000 29.190000 0.000000
Ni 64.635000 31.275000 0.000000
Ni 64.635000 29.190000 2.085000
Ni 62.550000 31.275000 2.085000
Ni 62.550000 29.190000 4.170000
Ni 64.635000 31.275000 4.170000
Ni 64.635000 29.190000 6.255000
Ni 62.550000 31.275000 6.255000
Ni 62.550000 29.190000 8.340000
Ni 64.635000 31.275000 8.340000
Ni 64.635000 29.190000 10.425000
Ni 62.550000 31.275000 10.425000
Ni 62.550000 29.190000 12.510000
Ni 64.635000 31.275000 12.510000
Ni 64.635000 29.190000 14.595000
Ni 62.550000 31.275000 14.595000
Ni 62.550000 29.190000 16.680000
Ni 64.635000 31.275000 16.680000
Ni 64.635000 29.190000 18.765000
Ni 62.550000 31.275000 18.765000
Ni 62.550000 29.190000 20.850000
Ni 64.635000 31.275000 20.850000
Ni 64.635000 29.190000 22.935000
Ni 62.550000 31.275000 22.935000
Ni 62.550000 29.190000 25.020000
Ni 64.635000 31.275000 25.020000
Ni 64.635000 29.190000 27.105000
Ni 62.550000 31.275000 27.105000
Ni 62.550000 29.190000 29.190000
Ni 64.635000 31.275000 29.190000
Ni 64.635000 29.190000 31.275000
Ni 62.550000 31.275000 31.275000
Ni 62.550000 29.190000 33.360000
Ni 64.635000 31.275000 33.360000
Ni 62.550000 31.275000 35.445000
Ni 62.550000 33.360000 0.000000
Ni 64.635000 35.445000 0.000000
Ni 64.635000 33.360000 2.085000
Ni 62.550000 35.445000 2.085000
Ni 62.550000 33.360000 4.170000
Ni 64.635000 35.445000 4.170000
Ni 64.635000 33.360000 6.255000
Ni 62.550000 35.445000 6.255000
Ni 62.550000 33.360000 8.340000
Ni 64.635000 35.445000 8.340000
Ni 64.635000 33.360000 10.425000
Ni 62.550000 35.445000 10.425000
Ni 62.550000 33.360000 12.510000
Ni 64.635000 35.445000 12.510000
Ni 64.635000 33.360000 14.595000
Ni 62.550000 35.445000 14.595000
Ni 62.550000 33.360000 16.680000
Ni 64.635000 35.445000 16.680000
Ni 64.635000 33.360000 18.765000
Ni 62.550000 35.445000 18.765000
Ni 62.550000 33.360000 20.850000
Ni 64.635000 35.445000 20.850000
Ni 64.635000 33.360000 22.935000
Ni 62.550000 35.445000 22.935000
Ni 62.550000 33.360000 25.020000
Ni 64.635000 35.445000 25.020000
Ni 64.635000 33.360000 27.105000
Ni 62.550000 35.445000 27.105000
Ni 62.550000 33.360000 29.190000
Ni 64.635000 35.445000 29.190000
Ni 64.635000 33.360000 31.275000
Ni 62.550000 35.445000 31.275000
Ni 62.550000 33.360000 33.360000
Ni 64.635000 35.445000 33.360000
Ni 64.635000 33.360000 35.445000
Ni 62.550000 35.445000 35.445000
Ni 62.550000 33.360000 37.530000
Ni 64.635000 35.445000 37.530000
Ni 62.550000 35.445000 39.615000
Ni 62.550000 37.530000 0.000000
Ni 64.635000 39.615000 0.000000
Ni 64.635000 37.530000 2.085000
Ni 62.550000 39.615000 2.085000
Ni 62.550000 37.530000 4.170000
Ni 64.635000 39.615000 4.170000
Ni 64.635000 37.530000 6.255000
Ni 62.550000 39.615000 6.255000
Ni 62.550000 37.530000 8.340000
Ni 64.635000 39.615000 8.340000
Ni 64.635000 37.530000 10.425000
Ni 62.550000 39.615000 10.425000
Ni 62.550000 37.530000 12.510000
Ni 64.635000 39.615000 12.510000
Ni 64.635000 37.530000 14.595000
Ni 62.550000 39.615000 14.595000
Ni 62.550000 37.530000 16.680000
Ni 64.635000 39.615000 16.680000
Ni 64.635000 37.530000 18.765000
Ni 62.550000 39.615000 18.765000
Ni 62.550000 37.530000 20.850000
Ni 64.635000 39.615000 20.850000
Ni 64.635000 37.530000 22.935000
Ni 62.550000 39.615000 22.935000
Ni 62.550000 37.530000 25.020000
Ni 64.635000 39.615000 25.020000
Ni 64.635000 37.530000 27.105000
Ni 62.550000 39.615000 27.105000
Ni 62.550000 37.530000 29.190000
Ni 64.635000 39.615000 29.190000
Ni 64.635000 37.530000 31.275000
Ni 62.550000 39.615000 31.275000
Ni 62.550000 37.530000 33.360000
Ni 64.635000 39.615000 33.360000
Ni 64.635000 37.530000 35.445000
Ni 62.550000 39.615000 35.445000
Ni 62.550000 37.530000 37.530000
Ni 64.635000 39.615000 37.530000
Ni 64.635000 37.530000 39.615000
Ni 62.550000 39.615000 39.615000
Ni 66.720000 0.000000 0.000000
Ni 68.805000 2.085000 0.000000
Ni 68.805000 0.000000 2.085000
Ni 66.720000 2.085000 2.085000
Ni 66.720000 0.000000 4.170000
Ni 68.805000 2.085000 4.170000
Ni 68.805000 0.000000 6.255000
Ni 66.720000 2.085000 6.255000
Ni 66.720000 0.000000 8.340000
Ni 68.805000 2.085000 8.340000
Ni 68.805000 0.000000 10.425000
Ni 66.720000 2.085000 10.425000
Ni 66.720000 0.000000 12.510000
Ni 68.805000 2.085000 12.510000
Ni 68.805000 0.000000 14.595000
Ni 66.720000 2.085000 14.595000
Ni 66.720000 0.000000 16.680000
Ni 68.805000 2.085000 16.680000
Ni 68.805000 0.000000 18.765000
Ni 66.720000 2.085000 18.765000
Ni 66.720000 0.000000 20.850000
Ni 68.805000 2.085000 20.850000
Ni 68.805000 0.000000 22.935000
Ni 66.720000 2.085000 22.935000
Ni 66.720000 0.000000 25.020000
Ni 68.805000 2.085000 25.020000
Ni 68.805000 0.000000 27.105000
Ni 66.720000 2.085000 27.105000
Ni 66.720000 0.000000 29.190000
Ni 68.805000 2.085000 29.190000
Ni 68.805000 0.000000 31.275000
Ni 66.720000 2.085000 31.275000
Ni 66.720000 0.000000 33.360000
Ni 68.805000 2.085000 33.360000
Ni 68.805000 0.000000 35.445000
Ni 66.720000 2.085000 35.445000
Ni 66.720000 0.000000 37.530000
Ni 68.805000 2.085000 37.530000
Ni 68.805000 0.000000 39.615000
Ni 66.720000 2.085000 39.615000
Ni 66.720000 4.170000 0.000000
Ni 68.805000 6.255000 0.000000
Ni 68.805000 4.170000 2.085000
Ni 66.720000 6.255000 2.085000
Ni 66.720000 4.170000 4.170000
Ni 68.805000 6.255000 4.170000
Ni 68.805000 4.170000 6.255000
Ni 66.720000 6.255000 6.255000
Ni 66.720000 4.170000 8.340000
Ni 68.805000 6.255000 8.340000
Ni 68.805000 4.170000 10.425000
Ni 66.720000 6.255000 10.425000
Ni 66.720000 4.170000 12.510000
Ni 68.805000 6.255000 12.510000
Ni 68.805000 4.170000 14.595000
Ni 66.720000 6.255000 14.595000
Ni 66.720000 4.170000 16.680000
Ni 68.805000 6.255000 16.680000
Ni 68.805000 4.170000 18.765000
Ni 66.720000 6.255000 18.765000
Ni 66.720000 4.170000 20.850000
Ni 68.805000 6.255000 20.850000
Ni 68.805000 4.170000 22.935000
Ni 66.720000 6.255000 22.935000
Ni 66.720000 4.170000 25.020000
Ni 68.805000 6.255000 25.020000
Ni 68.805000 4.170000 27.105000
Ni 66.720000 6.255000 27.105000
Ni 66.720000 4.170000 29.190000
Ni 68.805000 6.255000 29.190000
Ni 68.805000 4.170000 31.275000
Ni 66.720000 6.255000 31.275000
Ni 66.720000 4.170000 33.360000
Ni 68.805000 6.255000 33.360000
Ni 68.805000 4.170000 35.445000
Ni 66.720000 6.255000 35.445000
Ni 66.720000 4.170000 37.530000
Ni 68.805000 6.255000 37.530000
Ni 68.805000 4.170000 39.615000
Ni 66.720000 6.255000 39.615000
Ni 66.720000 8.340000 0.000000
Ni 68.805000 10.425000 0.000000
Ni 68.805000 8.340000 2.085000
Ni 66.720000 10.425000 2.085000
Ni 66.720000 8.340000 4.170000
Ni 68.805000 10.425000 4.170000
Ni 68.805000 8.340000 6.255000
Ni 66.720000 10.425000 6.255000
Ni 66.720000 8.340000 8.340000
Ni 68.805000 10.425000 8.340000
Ni 68.805000 8.340000 10.425000
Ni 66.720000 10.425000 10.425000
Ni 66.720000 8.340000 12.510000
Ni 68.805000 10.425000 12.510000
Ni 68.805000 8.340000 14.595000
Ni 66.720000 10.425000 14.595000
Ni 66.720000 8.340000 16.680000
Ni 68.805000 10.425000 16.680000
Ni 68.805000 8.340000 18.765000
Ni 66.720000 10.425000 18.765000
Ni 66.720000 8.340000 20.850000
Ni 68.805000 10.425000 20.850000
Ni 68.805000 8.340000 22.935000
Ni 66.720000 10.425000 22.935000
Ni 66.720000 8.340000 25.020000
Ni 68.805000 10.425000 25.020000
Ni 68.805000 8.340000 27.105000
Ni 66.720000 10.425000 27.105000
Ni 66.720000 8.340000 29.190000
Ni 68.805000 10.425000 29.190000
Ni 68.805000 8.340000 31.275000
Ni 66.720000 10.425000 31.275000
Ni 66.720000 8.340000 33.360000
Ni 68.805000 10.425000 33.360000
Ni 68.805000 8.340000 35.445000
Ni 66.720000 10.425000 35.445000
Ni 66.720000 8.340000 37.530000
Ni 66.720000 12.510000 0.000000
Ni 68.805000 14.595000 0.000000
Ni 68.805000 12.510000 2.085000
Ni 66.720000 14.595000 2.085000
Ni 66.720000 12.510000 4.170000
Ni 68.805000 14.595000 4.170000
Ni 68.805000 12.510000 6.255000
Ni 66.720000 14.595000 6.255000
Ni 66.720000 12.510000 8.340000
Ni 68.805000 14.595000 8.340000
Ni 68.805000 12.510000 10.425000
Ni 66.720000 14.595000 10.425000
Ni 66.720000 12.510000 12.510000
Ni 68.805000 14.595000 12.510000
Ni 68.805000 12.510000 14.595000
Ni 66.720000 14.595000 14.595000
Ni 66.720000 12.510000 16.680000
Ni 68.805000 14.595000 16.680000
Ni 68.805000 12.510000 18.765000
Ni 66.720000 14.595000 18.765000
Ni 66.720000 12.510000 20.850000
Ni 68.805000 14.595000 20.850000
Ni 68.805000 12.510000 22.935000
Ni 66.720000 14.595000 22.935000
Ni 66.720000 12.510000 25.020000
Ni 68.805000 14.595000 25.020000
Ni 68.805000 12.510000 27.105000
Ni 66.720000 14.595000 27.105000
Ni 66.720000 12.510000 29.190000
Ni 68.805000 14.595000 29.190000
Ni 68.805000 12.510000 31.275000
Ni 66.720000 14.595000 31.275000
Ni 66.720000 12.510000 33.360000
Ni 66.720000 16.680000 0.000000
Ni 68.805000 18.765000 0.000000
Ni 68.805000 16.680000 2.085000
Ni 66.720000 18.765000 2.085000
Ni 66.720000 16.680000 4.170000
Ni 68.805000 18.765000 4.170000
Ni 68.805000 16.680000 6.255000
Ni 66.720000 18.765000 6.255000
Ni 66.720000 16.680000 8.340000
Ni 68.805000 18.765000 8.340000
Ni 68.805000 16.680000 10.425000
Ni 66.720000 18.765000 10.425000
Ni 66.720000 16.680000 12.510000
Ni 68.805000 18.765000 12.510000
Ni 68.805000 16.680000 14.595000
Ni 66.720000 18.765000 14.595000
Ni 66.720000 16.680000 16.680000
Ni 68.805000 18.765000 16.680000
Ni 68.805000 16.680000 18.765000
Ni 66.720000 18.765000 18.765000
Ni 66.720000 16.680000 20.850000
Ni 68.805000 18.765000 20.850000
Ni 68.805000 16.680000 22.935000
Ni 66.720000 18.765000 22.935000
Ni 66.720000 16.680000 25.020000
Ni 68.805000 18.765000 25.020000
Ni 68.805000 16.680000 27.105000
Ni 66.720000 18.765000 27.105000
Ni 66.720000 16.680000 29.190000
Ni 66.720000 20.850000 0.000000
Ni 68.805000 22.935000 0.000000
Ni 68.805000 20.850000 2.085000
Ni 66.720000 22.935000 2.085000
Ni 66.720000 20.850000 4.170000
Ni 68.805000 22.935000 4.170000
Ni 68.805000 20.850000 6.255000
Ni 66.720000 22.935000 6.255000
Ni 66.720000 20.850000 8.340000
Ni 68.805000 22.935000 8.340000
Ni 68.805000 20.850000 10.425000
Ni 66.720000 22.935000 10.425000
Ni 66.720000 20.850000 12.510000
Ni 68.805000 22.935000 12.510000
Ni 68.805000 20.850000 14.595000
Ni 66.720000 22.935000 14.595000
Ni 66.720000 20.850000 16.680000
Ni 68.805000 22.935000 16.680000
Ni 68.805000 20.850000 18.765000
Ni 66.720000 22.935000 18.765000
Ni 66.720000 20.850000 20.850000
Ni 68.805000 22.935000 20.850000
Ni 68.805000 20.850000 22.935000
Ni 66.720000 22.935000 22.935000
Ni 66.720000 20.850000 25.020000
Ni 68.805000 22.935000 25.020000
Ni 66.720000 22.935000 27.105000
Ni 66.720000 25.020000 0.000000
Ni 68.805000 27.105000 0.000000
Ni 68.805000 25.020000 2.085000
Ni 66.720000 27.105000 2.085000
Ni 66.720000 25.020000 4.170000
Ni 68.805000 27.105000 4.170000
Ni 68.805000 25.020000 6.255000
Ni 66.720000 27.105000 6.255000
Ni 66.720000 25.020000 8.340000
Ni 68.805000 27.105000 8.340000
Ni 68.805000 25.020000 10.425000
Ni 66.720000 27.105000 10.425000
Ni 66.720000 25.020000 12.510000
Ni 68.805000 27.105000 12.510000
Ni 68.805000 25.020000 14.595000
Ni 66.720000 27.105000 14.595000
Ni 66.720000 25.020000 16.680000
Ni 68.805000 27.105000 16.680000
Ni 68.805000 25.020000 18.765000
Ni 66.720000 27.105000 18.765000
Ni 66.720000 25.020000 20.850000
Ni 68.805000 27.105000 20.850000
Ni 68.805000 25.020000 22.935000
Ni 66.720000 27.105000 22.935000
Ni 66.720000 25.020000 25.020000
Ni 68.805000 27.105000 25.020000
Ni 68.805000 25.020000 27.105000
Ni 66.720000 27.105000 27.105000
Ni 66.720000 25.020000 29.190000
Ni 68.805000 27.105000 29.190000
Ni 66.720000 27.105000 31.275000
Ni 66.720000 29.190000 0.000000
Ni 68.805000 31.275000 0.000000
Ni 68.805000 29.190000 2.085000
Ni 66.720000 31.275000 2.085000
Ni 66.720000 29.190000 4.170000
Ni 68.805000 31.275000 4.170000
Ni 68.805000 29.190000 6.255000
Ni 66.720000 31.275000 6.255000
Ni 66.720000 29.190000 8.340000
Ni 68.805000 31.275000 8.340000
Ni 68.805000 29.190000 10.425000
Ni 66.720000 31.275000 10.425000
Ni 66.720000 29.190000 12.510000
Ni 68.805000 31.275000 12.510000
Ni 68.805000 29.190000 14.595000
Ni 66.720000 31.275000 14.595000
Ni 66.720000 29.190000 16.680000
Ni 68.805000 31.275000 16.680000
Ni 68.805000 29.190000 18.765000
Ni 66.720000 31.275000 18.765000
Ni 66.720000 29.190000 20.850000
Ni 68.805000 31.275000 20.850000
Ni 68.805000 29.190000 22.935000
Ni 66.720000 31.275000 22.935000
Ni 66.720000 29.190000 25.020000
Ni 68.805000 31.275000 25.020000
Ni 68.805000 29.190000 27.105000
Ni 66.720000 31.275000 27.105000
Ni 66.720000 29.190000 29.190000
Ni 68.805000 31.275000 29.190000
Ni 68.805000 29.190000 31.275000
Ni 66.720000 31.275000 31.275000
Ni 66.720000 29.190000 33.360000
Ni 68.805000 31.275000 33.360000
Ni 66.720000 31.275000 35.445000
Ni 66.720000 33.360000 0.000000
Ni 68.805000 35.445000 0.000000
Ni 68.805000 33.360000 2.085000
Ni 66.720000 35.445000 2.085000
Ni 66.720000 33.360000 4.170000
Ni 68.805000 35.445000 4.170000
Ni 68.805000 33.360000 6.255000
Ni 66.720000 35.445000 6.255000
Ni 66.720000 33.360000 8.340000
Ni 68.805000 35.445000 8.340000
Ni 68.805000 33.360000 10.425000
Ni 66.720000 35.445000 10.425000
Ni 66.720000 33.360000 12.510000
Ni 68.805000 35.445000 12.510000
Ni 68.805000 33.360000 14.595000
Ni 66.720000 35.445000 14.595000
Ni 66.720000 33.360000 16.680000
Ni 68.805000 35.445000 16.680000
Ni 68.805000 33.360000 18.765000
Ni 66.720000 35.445000 18.765000
Ni 66.720000 33.360000 20.850000
Ni 68.805000 35.445000 20.850000
Ni 68.805000 33.360000 22.935000
Ni 66.720000 35.445000 22.935000
Ni 66.720000 33.360000 25.020000
Ni 68.805000 35.445000 25.020000
Ni 68.805000 33.360000 27.105000
Ni 66.720000 35.445000 27.105000
Ni 66.720000 33.360000 29.190000
Ni 68.805000 35.445000 29.190000
Ni 68.805000 33.360000 31.275000
Ni 66.720000 35.445000 31.275000
Ni 66.720000 33.360000 33.360000
Ni 68.805000 35.445000 33.360000
Ni 68.805000 33.360000 35.445000
Ni 66.720000 35.445000 35.445000
Ni 66.720000 33.360000 37.530000
Ni 68.805000 35.445000 37.530000
Ni 66.720000 35.445000 39.615000
Ni 66.720000 37.530000 0.000000
Ni 68.805000 39.615000 0.000000
Ni 68.805000 37.530000 2.085000
Ni 66.720000 39.615000 2.085000
Ni 66.720000 37.530000 4.170000
Ni 68.805000 39.615000 4.170000
Ni 68.805000 37.530000 6.255000
Ni 66.720000 39.615000 6.255000
Ni 66.720000 37.530000 8.340000
Ni 68.805000 39.615000 8.340000
Ni 68.805000 37.530000 10.425000
Ni 66.720000 39.615000 10.425000
Ni 66.720000 37.530000 12.510000
Ni 68.805000 39.615000 12.510000
Ni 68.805000 37.530000 14.595000
Ni 66.720000 39.615000 14.595000
Ni 66.720000 37.530000 16.680000
Ni 68.805000 39.615000 16.680000
Ni 68.805000 37.530000 18.765000
Ni 66.720000 39.615000 18.765000
Ni 66.720000 37.530000 20.850000
Ni 68.805000 39.615000 20.850000
Ni 68.805000 37.530000 22.935000
Ni 66.720000 39.615000 22.935000
Ni 66.720000 37.530000 25.020000
Ni 68.805000 39.615000 25.020000
Ni 68.805000 37.530000 27.105000
Ni 66.720000 39.615000 27.105000
Ni 66.720000 37.530000 29.190000
Ni 68.805000 39.615000 29.190000
Ni 68.805000 37.530000 31.275000
Ni 66.720000 39.615000 31.275000
Ni 66.720000 37.530000 33.360000
Ni 68.805000 39.615000 33.360000
Ni 68.805000 37.530000 35.445000
Ni 66.720000 39.615000 35.445000
Ni 66.720000 37.530000 37.530000
Ni 68.805000 39.615000 37.530000
Ni 68.805000 37.530000 39.615000
Ni 66.720000 39.615000 39.615000
Ni 70.890000 0.000000 0.000000
Ni 72.975000 2.085000 0.000000
Ni 72.975000 0.000000 2.085000
Ni 70.890000 2.085000 2.085000
Ni 70.890000 0.000000 4.170000
Ni 72.975000 2.085000 4.170000
Ni 72.975000 0.000000 6.255000
Ni 70.890000 2.085000 6.255000
Ni 70.890000 0.000000 8.340000
Ni 72.975000 2.085000 8.340000
Ni 72.975000 0.000000 10.425000
Ni 70.890000 2.085000 10.425000
Ni 70.890000 0.000000 12.510000
Ni 72.975000 2.085000 12.510000
Ni 72.975000 0.000000 14.595000
Ni 70.890000 2.085000 14.595000
Ni 70.890000 0.000000 16.680000
Ni 72.975000 2.085000 16.680000
Ni 72.975000 0.000000 18.765000
Ni 70.890000 2.085000 18.765000
Ni 70.890000 0.000000 20.850000
Ni 72.975000 2.085000 20.850000
Ni 72.975000 0.000000 22.935000
Ni 70.890000 2.085000 22.935000
Ni 70.890000 0.000000 25.020000
Ni 72.975000 2.085000 25.020000
Ni 72.975000 0.000000 27.105000
Ni 70.890000 2.085000 27.105000
Ni 70.890000 0.000000 29.190000
Ni 72.975000 2.085000 29.190000
Ni 72.975000 0.000000 31.275000
Ni 70.890000 2.085000 31.275000
Ni 70.890000 0.000000 33.360000
Ni 72.975000 2.085000 33.360000
Ni 72.975000 0.000000 35.445000
Ni 70.890000 2.085000 35.445000
Ni 70.890000 0.000000 37.530000
Ni 72.975000 2.085000 37.530000
Ni 72.975000 0.000000 39.615000
Ni 70.890000 2.085000 39.615000
Ni 70.890000 4.170000 0.000000
Ni 72.975000 6.255000 0.000000
Ni 72.975000 4.170000 2.085000
Ni 70.890000 6.255000 2.085000
Ni 70.890000 4.170000 4.170000
Ni 72.975000 6.255000 4.170000
Ni 72.975000 4.170000 6.255000
Ni 70.890000 6.255000 6.255000
Ni 70.890000 4.170000 8.340000
Ni 72.975000 6.255000 8.340000
Ni 72.975000 4.170000 10.425000
Ni 70.890000 6.255000 10.425000
Ni 70.890000 4.170000 12.510000
Ni 72.975000 6.255000 12.510000
Ni 72.975000 4.170000 14.595000
Ni 70.890000 6.255000 14.595000
Ni 70.890000 4.170000 16.680000
Ni 72.975000 6.255000 16.680000
Ni 72.975000 4.170000 18.765000
Ni 70.890000 6.255000 18.765000
Ni 70.890000 4.170000 20.850000
Ni 72.975000 6.255000 20.850000
Ni 72.975000 4.170000 22.935000
Ni 70.890000 6.255000 22.935000
Ni 70.890000 4.170000 25.020000
Ni 72.975000 6.255000 25.020000
Ni 72.975000 4.170000 27.105000
Ni 70.890000 6.255000 27.105000
Ni 70.890000 4.170000 29.190000
Ni 72.975000 6.255000 29.190000
Ni 72.975000 4.170000 31.275000
Ni 70.890000 6.255000 31.275000
Ni 70.890000 4.170000 33.360000
Ni 72.975000 6.255000 33.360000
Ni 72.975000 4.170000 35.445000
Ni 70.890000 6.255000 35.445000
Ni 70.890000 4.170000 37.530000
Ni 72.975000 6.255000 37.530000
Ni 72.975000 4.170000 39.615000
Ni 70.890000 6.255000 39.615000
Ni 70.890000 8.340000 0.000000
Ni 72.975000 10.425000 0.000000
Ni 72.975000 8.340000 2.085000
Ni 70.890000 10.425000 2.085000
Ni 70.890000 8.340000 4.170000
Ni 72.975000 10.425000 4.170000
Ni 72.975000 8.340000 6.255000
Ni 70.890000 10.425000 6.255000
Ni 70.890000 8.340000 8.340000
Ni 72.975000 10.425000 8.340000
Ni 72.975000 8.340000 10.425000
Ni 70.890000 10.425000 10.425000
Ni 70.890000 8.340000 12.510000
Ni 72.975000 10.425000 12.510000
Ni 72.975000 8.340000 14.595000
Ni 70.890000 10.425000 14.595000
Ni 70.890000 8.340000 16.680000
Ni 72.975000 10.425000 16.680000
Ni 72.975000 8.340000 18.765000
Ni 70.890000 10.425000 18.765000
Ni 70.890000 8.340000 20.850000
Ni 72.975000 10.425000 20.850000
Ni 72.975000 8.340000 22.935000
Ni 70.890000 10.425000 22.935000
Ni 70.890000 8.340000 25.020000
Ni 72.975000 10.425000 25.020000
Ni 72.975000 8.340000 27.105000
Ni 70.890000 10.425000 27.105000
Ni 70.890000 8.340000 29.190000
Ni 72.975000 10.425000 29.190000
Ni 72.975000 8.340000 31.275000
Ni 70.890000 10.425000 31.275000
Ni 70.890000 8.340000 33.360000
Ni 72.975000 10.425000 33.360000
Ni 72.975000 8.340000 35.445000
Ni 70.890000 10.425000 35.445000
Ni 70.890000 8.340000 37.530000
Ni 70.890000 12.510000 0.000000
Ni 72.975000 14.595000 0.000000
Ni 72.975000 12.510000 2.085000
Ni 70.890000 14.595000 2.085000
Ni 70.890000 12.510000 4.170000
Ni 72.975000 14.595000 4.170000
Ni 72.975000 12.510000 6.255000
Ni 70.890000 14.595000 6.255000
Ni 70.890000 12.510000 8.340000
Ni 72.975000 14.595000 8.340000
Ni 72.975000 12.510000 10.425000
Ni 70.890000 14.595000 10.425000
Ni 70.890000 12.510000 12.510000
Ni 72.975000 14.595000 12.510000
Ni 72.975000 12.510000 14.595000
Ni 70.890000 14.595000 14.595000
Ni 70.890000 12.510000 16.680000
Ni 72.975000 14.595000 16.680000
Ni 72.975000 12.510000 18.765000
Ni 70.890000 14.595000 18.765000
Ni 70.890000 12.510000 20.850000
Ni 72.975000 14.595000 20.850000
Ni 72.975000 12.510000 22.935000
Ni 70.890000 14.595000 22.935000
Ni 70.890000 12.510000 25.020000
Ni 72.975000 14.595000 25.020000
Ni 72.975000 12.510000 27.105000
Ni 70.890000 14.595000 27.105000
Ni 70.890000 12.510000 29.190000
Ni 72.975000 14.595000 29.190000
Ni 72.975000 12.510000 31.275000
Ni 70.890000 14.595000 31.275000
Ni 70.890000 12.510000 33.360000
Ni 70.890000 16.680000 0.000000
Ni 72.975000 18.765000 0.000000
Ni 72.975000 16.680000 2.085000
Ni 70.890000 18.765000 2.085000
Ni 70.890000 16.680000 4.170000
Ni 72.975000 18.765000 4.170000
Ni 72.975000 16.680000 6.255000
Ni 70.890000 18.765000 6.255000
Ni 70.890000 16.680000 8.340000
Ni 72.975000 18.765000 8.340000
Ni 72.975000 16.680000 10.425000
Ni 70.890000 18.765000 10.425000
Ni 70.890000 16.680000 12.510000
Ni 72.975000 18.765000 12.510000
Ni 72.975000 16.680000 14.595000
Ni 70.890000 18.765000 14.595000
Ni 70.890000 16.680000 16.680000
Ni 72.975000 18.765000 16.680000
Ni 72.975000 16.680000 18.765000
Ni 70.890000 18.765000 18.765000
Ni 70.890000 16.680000 20.850000
Ni 72.975000 18.765000 20.850000
Ni 72.975000 16.680000 22.935000
Ni 70.890000 18.765000 22.935000
Ni 70.890000 16.680000 25.020000
Ni 72.975000 18.765000 25.020000
Ni 72.975000 16.680000 27.105000
Ni 70.890000 18.765000 27.105000
Ni 70.890000 16.680000 29.190000
Ni 70.890000 20.850000 0.000000
Ni 72.975000 22.935000 0.000000
Ni 72.975000 20.850000 2.085000
Ni 70.890000 22.935000 2.085000
Ni 70.890000 20.850000 4.170000
Ni 72.975000 22.935000 4.170000
Ni 72.975000 20.850000 6.255000
Ni 70.890000 22.935000 6.255000
Ni 70.890000 20.850000 8.340000
Ni 72.975000 22.935000 8.340000
Ni 72.975000 20.850000 10.425000
Ni 70.890000 22.935000 10.425000
Ni 70.890000 20.850000 12.510000
Ni 72.975000 22.935000 12.510000
Ni 72.975000 20.850000 14.595000
Ni 70.890000 22.935000 14.595000
Ni 70.890000 20.850000 16.680000
Ni 72.975000 22.935000 16.680000
Ni 72.975000 20.850000 18.765000
Ni 70.890000 22.935000 18.765000
Ni 70.890000 20.850000 20.850000
Ni 72.975000 22.935000 20.850000
Ni 72.975000 20.850000 22.935000
Ni 70.890000 22.935000 22.935000
Ni 70.890000 20.850000 25.020000
Ni 72.975000 22.935000 25.020000
Ni 70.890000 22.935000 27.105000
Ni 70.890000 25.020000 0.000000
Ni 72.975000 27.105000 0.000000
Ni 72.975000 25.020000 2.085000
Ni 70.890000 27.105000 2.085000
Ni 70.890000 25.020000 4.170000
Ni 72.975000 27.105000 4.170000
Ni 72.975000 25.020000 6.255000
Ni 70.890000 27.105000 6.255000
Ni 70.890000 25.020000 8.340000
Ni 72.975000 27.105000 8.340000
Ni 72.975000 25.020000 10.425000
Ni 70.890000 27.105000 10.425000
Ni 70.890000 25.020000 12.510000
Ni 72.975000 27.105000 12.510000
Ni 72.975000 25.020000 14.595000
Ni 70.890000 27.105000 14.595000
Ni 70.890000 25.020000 16.680000
Ni 72.975000 27.105000 16.680000
Ni 72.975000 25.020000 18.765000
Ni 70.890000 27.105000 18.765000
Ni 70.890000 25.020000 20.850000
Ni 72.975000 27.105000 20.850000
Ni 72.975000 25.020000 22.935000
Ni 70.890000 27.105000 22.935000
Ni 70.890000 25.020000 25.020000
Ni 72.975000 27.105000 25.020000
Ni 72.975000 25.020000 27.105000
Ni 70.890000 27.105000 27.105000
Ni 70.890000 25.020000 29.190000
Ni 72.975000 27.105000 29.190000
Ni 70.890000 27.105000 31.275000
Ni 70.890000 29.190000 0.000000
Ni 72.975000 31.275000 0.000000
Ni 72.975000 29.190000 2.085000
Ni 70.890000 31.275000 2.085000
Ni 70.890000 29.190000 4.170000
Ni 72.975000 31.275000 4.170000
Ni 72.975000 29.190000 6.255000
Ni 70.890000 31.275000 6.255000
Ni 70.890000 29.190000 8.340000
Ni 72.975000 31.275000 8.340000
Ni 72.975000 29.190000 10.425000
Ni 70.890000 31.275000 10.425000
Ni 70.890000 29.190000 12.510000
Ni 72.975000 31.275000 12.510000
Ni 72.975000 29.190000 14.595000
Ni 70.890000 31.275000 14.595000
Ni 70.890000 29.190000 16.680000
Ni 72.975000 31.275000 16.680000
Ni 72.975000 29.190000 18.765000
Ni 70.890000 31.275000 18.765000
Ni 70.890000 29.190000 20.850000
Ni 72.975000 31.275000 20.850000
Ni 72.975000 29.190000 22.935000
Ni 70.890000 31.275000 22.935000
Ni 70.890000 29.190000 25.020000
Ni 72.975000 31.275000 25.020000
Ni 72.975000 29.190000 27.105000
Ni 70.890000 31.275000 27.105000
Ni 70.890000 29.190000 29.190000
Ni 72.975000 31.275000 29.190000
Ni 72.975000 29.190000 31.275000
Ni 70.890000 31.275000 31.275000
Ni 70.890000 29.190000 33.360000
Ni 72.975000 31.275000 33.360000
Ni 70.890000 31.275000 35.445000
Ni 70.890000 33.360000 0.000000
Ni 72.975000 35.445000 0.000000
Ni 72.975000 33.360000 2.085000
Ni 70.890000 35.445000 2.085000
Ni 70.890000 33.360000 4.170000
Ni 72.975000 35.445000 4.170000
Ni 72.975000 33.360000 6.255000
Ni 70.890000 35.445000 6.255000
Ni 70.890000 33.360000 8.340000
Ni 72.975000 35.445000 8.340000
Ni 72.975000 33.360000 10.425000
Ni 70.890000 35.445000 10.425000
Ni 70.890000 33.360000 12.510000
Ni 72.975000 35.445000 12.510000
Ni 72.975000 33.360000 14.595000
Ni 70.890000 35.445000 14.595000
Ni 70.890000 33.360000 16.680000
Ni 72.975000 35.445000 16.680000
Ni 72.975000 33.360000 18.765000
Ni 70.890000 35.445000 18.765000
Ni 70.890000 33.360000 20.850000
Ni 72.975000 35.445000 20.850000
Ni 72.975000 33.360000 22.935000
Ni 70.890000 35.445000 22.935000
Ni 70.890000 33.360000 25.020000
Ni 72.975000 35.445000 25.020000
Ni 72.975000 33.360000 27.105000
Ni 70.890000 35.445000 27.105000
Ni 70.890000 33.360000 29.190000
Ni 72.975000 35.445000 29.190000
Ni 72.975000 33.360000 31.275000
Ni 70.890000 35.445000 31.275000
Ni 70.890000 33.360000 33.360000
Ni 72.975000 35.445000 33.360000
Ni 72.975000 33.360000 35.445000
Ni 70.890000 35.445000 35.445000
Ni 70.890000 33.360000 37.530000
Ni 72.975000 35.445000 37.530000
Ni 70.890000 35.445000 39.615000
Ni 70.890000 37.530000 0.000000
Ni 72.975000 39.615000 0.000000
Ni 72.975000 37.530000 2.085000
Ni 70.890000 39.615000 2.085000
Ni 70.890000 37.530000 4.170000
Ni 72.975000 39.615000 4.170000
Ni 72.975000 37.530000 6.255000
Ni 70.890000 39.615000 6.255000
Ni 70.890000 37.530000 8.340000
Ni 72.975000 39.615000 8.340000
Ni 72.975000 37.530000 10.425000
Ni 70.890000 39.615000 10.425000
Ni 70.890000 37.530000 12.510000
Ni 72.975000 39.615000 12.510000
Ni 72.975000 37.530000 14.595000
Ni 70.890000 39.615000 14.595000
Ni 70.890000 37.530000 16.680000
Ni 72.975000 39.615000 16.680000
Ni 72.975000 37.530000 18.765000
Ni 70.890000 39.615000 18.765000
Ni 70.890000 37.530000 20.850000
Ni 72.975000 39.615000 20.850000
Ni 72.975000 37.530000 22.935000
Ni 70.890000 39.615000 22.935000
Ni 70.890000 37.530000 25.020000
Ni 72.975000 39.615000 25.020000
Ni 72.975000 37.530000 27.105000
Ni 70.890000 39.615000 27.105000
Ni 70.890000 37.530000 29.190000
Ni 72.975000 39.615000 29.190000
Ni 72.975000 37.530000 31.275000
Ni 70.890000 39.615000 31.275000
Ni 70.890000 37.530000 33.360000
Ni 72.975000 39.615000 33.360000
Ni 72.975000 37.530000 35.445000
Ni 70.890000 39.615000 35.445000
Ni 70.890000 37.530000 37.530000
Ni 72.975000 39.615000 37.530000
Ni 72.975000 37.530000 39.615000
Ni 70.890000 39.615000 39.615000
Ni 75.060000 0.000000 0.000000
Ni 77.145000 2.085000 0.000000
Ni 77.145000 0.000000 2.085000
Ni 75.060000 2.085000 2.085000
Ni 75.060000 0.000000 4.170000
Ni 77.145000 2.085000 4.170000
Ni 77.145000 0.000000 6.255000
Ni 75.060000 2.085000 6.255000
Ni 75.060000 0.000000 8.340000
Ni 77.145000 2.085000 8.340000
Ni 77.145000 0.000000 10.425000
Ni 75.060000 2.085000 10.425000
Ni 75.060000 0.000000 12.510000
Ni 77.145000 2.085000 12.510000
Ni 77.145000 0.000000 14.595000
Ni 75.060000 2.085000 14.595000
Ni 75.060000 0.000000 16.680000
Ni 77.145000 2.085000 16.680000
Ni 77.145000 0.000000 18.765000
Ni 75.060000 2.085000 18.765000
Ni 75.060000 0.000000 20.850000
Ni 77.145000 2.085000 20.850000
Ni 77.145000 0.000000 22.935000
Ni 75.060000 2.085000 22.935000
Ni 75.060000 0.000000 25.020000
Ni 77.145000 2.085000 25.020000
Ni 77.145000 0.000000 27.105000
Ni 75.060000 2.085000 27.105000
Ni 75.060000 0.000000 29.190000
Ni 77.145000 2.085000 29.190000
Ni 77.145000 0.000000 31.275000
Ni 75.060000 2.085000 31.275000
Ni 75.060000 0.000000 33.360000
Ni 77.145000 2.085000 33.360000
Ni 77.145000 0.000000 35.445000
Ni 75.060000 2.085000 35.445000
Ni 75.060000 0.000000 37.530000
Ni 77.145000 2.085000 37.530000
Ni 77.145000 0.000000 39.615000
Ni 75.060000 2.085000 39.615000
Ni 75.060000 4.170000 0.000000
Ni 77.145000 6.255000 0.000000
Ni 77.145000 4.170000 2.085000
Ni 75.060000 6.255000 2.085000
Ni 75.060000 4.170000 4.170000
Ni 77.145000 6.255000 4.170000
Ni 77.145000 4.170000 6.255000
Ni 75.060000 6.255000 6.255000
Ni 75.060000 4.170000 8.340000
Ni 77.145000 6.255000 8.340000
Ni 77.145000 4.170000 10.425000
Ni 75.060000 6.255000 10.425000
Ni 75.060000 4.170000 12.510000
Ni 77.145000 6.255000 12.510000
Ni 77.145000 4.170000 14.595000
Ni 75.060000 6.255000 14.595000
Ni 75.060000 4.170000 16.680000
Ni 77.145000 6.255000 16.680000
Ni 77.145000 4.170000 18.765000
Ni 75.060000 6.255000 18.765000
Ni 75.060000 4.170000 20.850000
Ni 77.145000 6.255000 20.850000
Ni 77.145000 4.170000 22.935000
Ni 75.060000 6.255000 22.935000
Ni 75.060000 4.170000 25.020000
Ni 77.145000 6.255000 25.020000
Ni 77.145000 4.170000 27.105000
Ni 75.060000 6.255000 27.105000
Ni 75.060000 4.170000 29.190000
Ni 77.145000 6.255000 29.190000
Ni 77.145000 4.170000 31.275000
Ni 75.060000 6.255000 31.275000
Ni 75.060000 4.170000 33.360000
Ni 77.145000 6.255000 33.360000
Ni 77.145000 4.170000 35.445000
Ni 75.060000 6.255000 35.445000
Ni 75.060000 4.170000 37.530000
Ni 77.145000 6.255000 37.530000
Ni 77.145000 4.170000 39.615000
Ni 75.060000 6.255000 39.615000
Ni 75.060000 8.340000 0.000000
Ni 77.145000 10.425000 0.000000
Ni 77.145000 8.340000 2.085000
Ni 75.060000 10.425000 2.085000
Ni 75.060000 8.340000 4.170000
Ni 77.145000 10.425000 4.170000
Ni 77.145000 8.340000 6.255000
Ni 75.060000 10.425000 6.255000
Ni 75.060000 8.340000 8.340000
Ni 77.145000 10.425000 8.340000
Ni 77.145000 8.340000 10.425000
Ni 75.060000 10.425000 10.425000
Ni 75.060000 8.340000 12.510000
Ni 77.145000 10.425000 12.510000
Ni 77.145000 8.340000 14.595000
Ni 75.060000 10.425000 14.595000
Ni 75.060000 8.340000 16.680000
Ni 77.145000 10.425000 16.680000
Ni 77.145000 8.340000 18.765000
Ni 75.060000 10.425000 18.765000
Ni 75.060000 8.340000 20.850000
Ni 77.145000 10.425000 20.850000
Ni 77.145000 8.340000 22.935000
Ni 75.060000 10.425000 22.935000
Ni 75.060000 8.340000 25.020000
Ni 77.145000 10.425000 25.020000
Ni 77.145000 8.340000 27.105000
Ni 75.060000 10.425000 27.105000
Ni 75.060000 8.340000 29.190000
Ni 77.145000 10.425000 29.190000
Ni 77.145000 8.340000 31.275000
Ni 75.060000 10.425000 31.275000
Ni 75.060000 8.340000 33.360000
Ni 77.145000 10.425000 33.360000
Ni 77.145000 8.340000 35.445000
Ni 75.060000 10.425000 35.445000
Ni 75.060000 8.340000 37.530000
Ni 75.060000 12.510000 0.000000
Ni 77.145000 14.595000 0.000000
Ni 77.145000 12.510000 2.085000
Ni 75.060000 14.595000 2.085000
Ni 75.060000 12.510000 4.170000
Ni 77.145000 14.595000 4.170000
Ni 77.145000 12.510000 6.255000
Ni 75.060000 14.595000 6.255000
Ni 75.060000 12.510000 8.340000
Ni 77.145000 14.595000 8.340000
Ni 77.145000 12.510000 10.425000
Ni 75.060000 14.595000 10.425000
Ni 75.060000 12.510000 12.510000
Ni 77.145000 14.595000 12.510000
Ni 77.145000 12.510000 14.595000
Ni 75.060000 14.595000 14.595000
Ni 75.060000 12.510000 16.680000
Ni 77.145000 14.595000 16.680000
Ni 77.145000 12.510000 18.765000
Ni 75.060000 14.595000 18.765000
Ni 75.060000 12.510000 20.850000
Ni 77.145000 14.595000 20.850000
Ni 77.145000 12.510000 22.935000
Ni 75.060000 14.595000 22.935000
Ni 75.060000 12.510000 25.020000
Ni 77.145000 14.595000 25.020000
Ni 77.145000 12.510000 27.105000
Ni 75.060000 14.595000 27.105000
Ni 75.060000 12.510000 29.190000
Ni 77.145000 14.595000 29.190000
Ni 77.145000 12.510000 31.275000
Ni 75.060000 14.595000 31.275000
Ni 75.060000 12.510000 33.360000
Ni 75.060000 16.680000 0.000000
Ni 77.145000 18.765000 0.000000
Ni 77.145000 16.680000 2.085000
Ni 75.060000 18.765000 2.085000
Ni 75.060000 16.680000 4.170000
Ni 77.145000 18.765000 4.170000
Ni 77.145000 16.680000 6.255000
Ni 75.060000 18.765000 6.255000
Ni 75.060000 16.680000 8.340000
Ni 77.145000 18.765000 8.340000
Ni 77.145000 16.680000 10.425000
Ni 75.060000 18.765000 10.425000
Ni 75.060000 16.680000 12.510000
Ni 77.145000 18.765000 12.510000
Ni 77.145000 16.680000 14.595000
Ni 75.060000 18.765000 14.595000
Ni 75.060000 16.680000 16.680000
Ni 77.145000 18.765000 16.680000
Ni 77.145000 16.680000 18.765000
Ni 75.060000 18.765000 18.765000
Ni 75.060000 16.680000 20.850000
Ni 77.145000 18.765000 20.850000
Ni 77.145000 16.680000 22.935000
Ni 75.060000 18.765000 22.935000
Ni 75.060000 16.680000 25.020000
Ni 77.145000 18.765000 25.020000
Ni 77.145000 16.680000 27.105000
Ni 75.060000 18.765000 27.105000
Ni 75.060000 16.680000 29.190000
Ni 75.060000 20.850000 0.000000
Ni 77.145000 22.935000 0.000000
Ni 77.145000 20.850000 2.085000
Ni 75.060000 22.935000 2.085000
Ni 75.060000 20.850000 4.170000
Ni 77.145000 22.935000 4.170000
Ni 77.145000 20.850000 6.255000
Ni 75.060000 22.935000 6.255000
Ni 75.060000 20.850000 8.340000
Ni 77.145000 22.935000 8.340000
Ni 77.145000 20.850000 10.425000
Ni 75.060000 22.935000 10.425000
Ni 75.060000 20.850000 12.510000
Ni 77.145000 22.935000 12.510000
Ni 77.145000 20.850000 14.595000
Ni 75.060000 22.935000 14.595000
Ni 75.060000 20.850000 16.680000
Ni 77.145000 22.935000 16.680000
Ni 77.145000 20.850000 18.765000
Ni 75.060000 22.935000 18.765000
Ni 75.060000 20.850000 20.850000
Ni 77.145000 22.935000 20.850000
Ni 77.145000 20.850000 22.935000
Ni 75.060000 22.935000 22.935000
Ni 75.060000 20.850000 25.020000
Ni 77.145000 22.935000 25.020000
Ni 75.060000 22.935000 27.105000
Ni 75.060000 25.020000 0.000000
Ni 77.145000 27.105000 0.000000
Ni 77.145000 25.020000 2.085000
Ni 75.060000 27.105000 2.085000
Ni 75.060000 25.020000 4.170000
Ni 77.145000 27.105000 4.170000
Ni 77.145000 25.020000 6.255000
Ni 75.060000 27.105000 6.255000
Ni 75.060000 25.020000 8.340000
Ni 77.145000 27.105000 8.340000
Ni 77.145000 25.020000 10.425000
Ni 75.060000 27.105000 10.425000
Ni 75.060000 25.020000 12.510000
Ni 77.145000 27.105000 12.510000
Ni 77.145000 25.020000 14.595000
Ni 75.060000 27.105000 14.595000
Ni 75.060000 25.020000 16.680000
Ni 77.145000 27.105000 16.680000
Ni 77.145000 25.020000 18.765000
Ni 75.060000 27.105000 18.765000
Ni 75.060000 25.020000 20.850000
Ni 77.145000 27.105000 20.850000
Ni 77.145000 25.020000 22.935000
Ni 75.060000 27.105000 22.935000
Ni 75.060000 25.020000 25.020000
Ni 77.145000 27.105000 25.020000
Ni 77.145000 25.020000 27.105000
Ni 75.060000 27.105000 27.105000
Ni 75.060000 25.020000 29.190000
Ni 77.145000 27.105000 29.190000
Ni 75.060000 27.105000 31.275000
Ni 75.060000 29.190000 0.000000
Ni 77.145000 31.275000 0.000000
Ni 77.145000 29.190000 2.085000
Ni 75.060000 31.275000 2.085000
Ni 75.060000 29.190000 4.170000
Ni 77.145000 31.275000 4.170000
Ni 77.145000 29.190000 6.255000
Ni 75.060000 31.275000 6.255000
Ni 75.060000 29.190000 8.340000
Ni 77.145000 31.275000 8.340000
Ni 77.145000 29.190000 10.425000
Ni 75.060000 31.275000 10.425000
Ni 75.060000 29.190000 12.510000
Ni 77.145000 31.275000 12.510000
Ni 77.145000 29.190000 14.595000
Ni 75.060000 31.275000 14.595000
Ni 75.060000 29.190000 16.680000
Ni 77.145000 31.275000 16.680000
Ni 77.145000 29.190000 18.765000
Ni 75.060000 31.275000 18.765000
Ni 75.060000 29.190000 20.850000
Ni 77.145000 31.275000 20.850000
Ni 77.145000 29.190000 22.935000
Ni 75.060000 31.275000 22.935000
Ni 75.060000 29.190000 25.020000
Ni 77.145000 31.275000 25.020000
Ni 77.145000 29.190000 27.105000
Ni 75.060000 31.275000 27.105000
Ni 75.060000 29.190000 29.190000
Ni 77.145000 31.275000 29.190000
Ni 77.145000 29.190000 31.275000
Ni 75.060000 31.275000 31.275000
Ni 75.060000 29.190000 33.360000
Ni 77.145000 31.275000 33.360000
Ni 75.060000 31.275000 35.445000
Ni 75.060000 33.360000 0.000000
Ni 77.145000 35.445000 0.000000
Ni 77.145000 33.360000 2.085000
Ni 75.060000 35.445000 2.085000
Ni 75.060000 33.360000 4.170000
Ni 77.145000 35.445000 4.170000
Ni 77.145000 33.360000 6.255000
Ni 75.060000 35.445000 6.255000
Ni 75.060000 33.360000 8.340000
Ni 77.145000 35.445000 8.340000
Ni 77.145000 33.360000 10.425000
Ni 75.060000 35.445000 10.425000
Ni 75.060000 33.360000 12.510000
Ni 77.145000 35.445000 12.510000
Ni 77.145000 33.360000 14.595000
Ni 75.060000 35.445000 14.595000
Ni 75.060000 33.360000 16.680000
Ni 77.145000 35.445000 16.680000
Ni 77.145000 33.360000 18.765000
Ni 75.060000 35.445000 18.765000
Ni 75.060000 33.360000 20.850000
Ni 77.145000 35.445000 20.850000
Ni 77.145000 33.360000 22.935000
Ni 75.060000 35.445000 22.935000
Ni 75.060000 33.360000 25.020000
Ni 77.145000 35.445000 25.020000
Ni 77.145000 33.360000 27.105000
Ni 75.060000 35.445000 27.105000
Ni 75.060000 33.360000 29.190000
Ni 77.145000 35.445000 29.190000
Ni 77.145000 33.360000 31.275000
Ni 75.060000 35.445000 31.275000
Ni 75.060000 33.360000 33.360000
Ni 77.145000 35.445000 33.360000
Ni 77.145000 33.360000 35.445000
Ni 75.060000 35.445000 35.445000
Ni 75.060000 33.360000 37.530000
Ni 77.145000 35.445000 37.530000
Ni 75.060000 35.445000 39.615000
Ni 75.060000 37.530000 0.000000
Ni 77.145000 39.615000 0.000000
Ni 77.145000 37.530000 2.085000
Ni 75.060000 39.615000 2.085000
Ni 75.060000 37.530000 4.170000
Ni 77.145000 39.615000 4.170000
Ni 77.145000 37.530000 6.255000
Ni 75.060000 39.615000 6.255000
Ni 75.060000 37.530000 8.340000
Ni 77.145000 39.615000 8.340000
Ni 77.145000 37.530000 10.425000
Ni 75.060000 39.615000 10.425000
Ni 75.060000 37.530000 12.510000
Ni 77.145000 39.615000 12.510000
Ni 77.145000 37.530000 14.595000
Ni 75.060000 39.615000 14.595000
Ni 75.060000 37.530000 16.680000
Ni 77.145000 39.615000 16.680000
Ni 77.145000 37.530000 18.765000
Ni 75.060000 39.615000 18.765000
Ni 75.060000 37.530000 20.850000
Ni 77.145000 39.615000 20.850000
Ni 77.145000 37.530000 22.935000
Ni 75.060000 39.615000 22.935000
Ni 75.060000 37.530000 25.020000
Ni 77.145000 39.615000 25.020000
Ni 77.145000 37.530000 27.105000
Ni 75.060000 39.615000 27.105000
Ni 75.060000 37.530000 29.190000
Ni 77.145000 39.615000 29.190000
Ni 77.145000 37.530000 31.275000
Ni 75.060000 39.615000 31.275000
Ni 75.060000 37.530000 33.360000
Ni 77.145000 39.615000 33.360000
Ni 77.145000 37.530000 35.445000
Ni 75.060000 39.615000 35.445000
Ni 75.060000 37.530000 37.530000
Ni 77.145000 39.615000 37.530000
Ni 77.145000 37.530000 39.615000
Ni 75.060000 39.615000 39.615000
Ni 79.230000 0.000000 0.000000
Ni 81.315000 2.085000 0.000000
Ni 81.315000 0.000000 2.085000
Ni 79.230000 2.085000 2.085000
Ni 79.230000 0.000000 4.170000
Ni 81.315000 2.085000 4.170000
Ni 81.315000 0.000000 6.255000
Ni 79.230000 2.085000 6.255000
Ni 79.230000 0.000000 8.340000
Ni 81.315000 2.085000 8.340000
Ni 81.315000 0.000000 10.425000
Ni 79.230000 2.085000 10.425000
Ni 79.230000 0.000000 12.510000
Ni 81.315000 2.085000 12.510000
Ni 81.315000 0.000000 14.595000
Ni 79.230000 2.085000 14.595000
Ni 79.230000 0.000000 16.680000
Ni 81.315000 2.085000 16.680000
Ni 81.315000 0.000000 18.765000
Ni 79.230000 2.085000 18.765000
Ni 79.230000 0.000000 20.850000
Ni 81.315000 2.085000 20.850000
Ni 81.315000 0.000000 22.935000
Ni 79.230000 2.085000 22.935000
Ni 79.230000 0.000000 25.020000
Ni 81.315000 2.085000 25.020000
Ni 81.315000 0.000000 27.105000
Ni 79.230000 2.085000 27.105000
Ni 79.230000 0.000000 29.190000
Ni 81.315000 2.085000 29.190000
Ni 81.315000 0.000000 31.275000
Ni 79.230000 2.085000 31.275000
Ni 79.230000 0.000000 33.360000
Ni 81.315000 2.085000 33.360000
Ni 81.315000 0.000000 35.445000
Ni 79.230000 2.085000 35.445000
Ni 79.230000 0.000000 37.530000
Ni 81.315000 2.085000 37.530000
Ni 81.315000 0.000000 39.615000
Ni 79.230000 2.085000 39.615000
Ni 79.230000 4.170000 0.000000
Ni 81.315000 6.255000 0.000000
Ni 81.315000 4.170000 2.085000
Ni 79.230000 6.255000 2.085000
Ni 79.230000 4.170000 4.170000
Ni 81.315000 6.255000 4.170000
Ni 81.315000 4.170000 6.255000
Ni 79.230000 6.255000 6.255000
Ni 79.230000 4.170000 8.340000
Ni 81.315000 6.255000 8.340000
Ni 81.315000 4.170000 10.425000
Ni 79.230000 6.255000 10.425000
Ni 79.230000 4.170000 12.510000
Ni 81.315000 6.255000 12.510000
Ni 81.315000 4.170000 14.595000
Ni 79.230000 6.255000 14.595000
Ni 79.230000 4.170000 16.680000
Ni 81.315000 6.255000 16.680000
Ni 81.315000 4.170000 18.765000
Ni 79.230000 6.255000 18.765000
Ni 79.230000 4.170000 20.850000
Ni 81.315000 6.255000 20.850000
Ni 81.315000 4.170000 22.935000
Ni 79.230000 6.255000 22.935000
Ni 79.230000 4.170000 25.020000
Ni 81.315000 6.255000 25.020000
Ni 81.315000 4.170000 27.105000
Ni 79.230000 6.255000 27.105000
Ni 79.230000 4.170000 29.190000
Ni 81.315000 6.255000 29.190000
Ni 81.315000 4.170000 31.275000
Ni 79.230000 6.255000 31.275000
Ni 79.230000 4.170000 33.360000
Ni 81.315000 6.255000 33.360000
Ni 81.315000 4.170000 35.445000
Ni 79.230000 6.255000 35.445000
Ni 79.230000 4.170000 37.530000
Ni 81.315000 6.255000 37.530000
Ni 81.315000 4.170000 39.615000
Ni 79.230000 6.255000 39.615000
Ni 79.230000 8.340000 0.000000
Ni 81.315000 10.425000 0.000000
Ni 81.315000 8.340000 2.085000
Ni 79.230000 10.425000 2.085000
Ni 79.230000 8.340000 4.170000
Ni 81.315000 10.425000 4.170000
Ni 81.315000 8.340000 6.255000
Ni 79.230000 10.425000 6.255000
Ni 79.230000 8.340000 8.340000
Ni 81.315000 10.425000 8.340000
Ni 81.315000 8.340000 10.425000
Ni 79.230000 10.425000 10.425000
Ni 79.230000 8.340000 12.510000
Ni 81.315000 10.425000 12.510000
Ni 81.315000 8.340000 14.595000
Ni 79.230000 10.425000 14.595000
Ni 79.230000 8.340000 16.680000
Ni 81.315000 10.425000 16.680000
Ni 81.315000 8.340000 18.765000
Ni 79.230000 10.425000 18.765000
Ni 79.230000 8.340000 20.850000
Ni 81.315000 10.425000 20.850000
Ni 81.315000 8.340000 22.935000
Ni 79.230000 10.425000 22.935000
Ni 79.230000 8.340000 25.020000
Ni 81.315000 10.425000 25.020000
Ni 81.315000 8.340000 27.105000
Ni 79.230000 10.425000 27.105000
Ni 79.230000 8.340000 29.190000
Ni 81.315000 10.425000 29.190000
Ni 81.315000 8.340000 31.275000
Ni 79.230000 10.425000 31.275000
Ni 79.230000 8.340000 33.360000
Ni 81.315000 10.425000 33.360000
Ni 81.315000 8.340000 35.445000
Ni 79.230000 10.425000 35.445000
Ni 79.230000 8.340000 37.530000
Ni 79.230000 12.510000 0.000000
Ni 81.315000 14.595000 0.000000
Ni 81.315000 12.510000 2.085000
Ni 79.230000 14.595000 2.085000
Ni 79.230000 12.510000 4.170000
Ni 81.315000 14.595000 4.170000
Ni 81.315000 12.510000 6.255000
Ni 79.230000 14.595000 6.255000
Ni 79.230000 12.510000 8.340000
Ni 81.315000 14.595000 8.340000
Ni 81.315000 12.510000 10.425000
Ni 79.230000 14.595000 10.425000
Ni 79.230000 12.510000 12.510000
Ni 81.315000 14.595000 12.510000
Ni 81.315000 12.510000 14.595000
Ni 79.230000 14.595000 14.595000
Ni 79.230000 12.510000 16.680000
Ni 81.315000 14.595000 16.680000
Ni 81.315000 12.510000 18.765000
Ni 79.230000 14.595000 18.765000
Ni 79.230000 12.510000 20.850000
Ni 81.315000 14.595000 20.850000
Ni 81.315000 12.510000 22.935000
Ni 79.230000 14.595000 22.935000
Ni 79.230000 12.510000 25.020000
Ni 81.315000 14.595000 25.020000
Ni 81.315000 12.510000 27.105000
Ni 79.230000 14.595000 27.105000
Ni 79.230000 12.510000 29.190000
Ni 81.315000 14.595000 29.190000
Ni 81.315000 12.510000 31.275000
Ni 79.230000 14.595000 31.275000
Ni 79.230000 12.510000 33.360000
Ni 79.230000 16.680000 0.000000
Ni 81.315000 18.765000 0.000000
Ni 81.315000 16.680000 2.085000
Ni 79.230000 18.765000 2.085000
Ni 79.230000 16.680000 4.170000
Ni 81.315000 18.765000 4.170000
Ni 81.315000 16.680000 6.255000
Ni 79.230000 18.765000 6.255000
Ni 79.230000 16.680000 8.340000
Ni 81.315000 18.765000 8.340000
Ni 81.315000 16.680000 10.425000
Ni 79.230000 18.765000 10.425000
Ni 79.230000 16.680000 12.510000
Ni 81.315000 18.765000 12.510000
Ni 81.315000 16.680000 14.595000
Ni 79.230000 18.765000 14.595000
Ni 79.230000 16.680000 16.680000
Ni 81.315000 18.765000 16.680000
Ni 81.315000 16.680000 18.765000
Ni 79.230000 18.765000 18.765000
Ni 79.230000 16.680000 20.850000
Ni 81.315000 18.765000 20.850000
Ni 81.315000 16.680000 22.935000
Ni 79.230000 18.765000 22.935000
Ni 79.230000 16.680000 25.020000
Ni 81.315000 18.765000 25.020000
Ni 81.315000 16.680000 27.105000
Ni 79.230000 18.765000 27.105000
Ni 79.230000 16.680000 29.190000
Ni 79.230000 20.850000 0.000000
Ni 81.315000 22.935000 0.000000
Ni 81.315000 20.850000 2.085000
Ni 79.230000 22.935000 2.085000
Ni 79.230000 20.850000 4.170000
Ni 81.315000 22.935000 4.170000
Ni 81.315000 20.850000 6.255000
Ni 79.230000 22.935000 6.255000
Ni 79.230000 20.850000 8.340000
Ni 81.315000 22.935000 8.340000
Ni 81.315000 20.850000 10.425000
Ni 79.230000 22.935000 10.425000
Ni 79.230000 20.850000 12.510000
Ni 81.315000 22.935000 12.510000
Ni 81.315000 20.850000 14.595000
Ni 79.230000 22.935000 14.595000
Ni 79.230000 20.850000 16.680000
Ni 81.315000 22.935000 16.680000
Ni 81.315000 20.850000 18.765000
Ni 79.230000 22.935000 18.765000
Ni 79.230000 20.850000 20.850000
Ni 81.315000 22.935000 20.850000
Ni 81.315000 20.850000 22.935000
Ni 79.230000 22.935000 22.935000
Ni 79.230000 20.850000 25.020000
Ni 81.315000 22.935000 25.020000
Ni 79.230000 22.935000 27.105000
Ni 79.230000 25.020000 0.000000
Ni 81.315000 27.105000 0.000000
Ni 81.315000 25.020000 2.085000
Ni 79.230000 27.105000 2.085000
Ni 79.230000 25.020000 4.170000
Ni 81.315000 27.105000 4.170000
Ni 81.315000 25.020000 6.255000
Ni 79.230000 27.105000 6.255000
Ni 79.230000 25.020000 8.340000
Ni 81.315000 27.105000 8.340000
Ni 81.315000 25.020000 10.425000
Ni 79.230000 27.105000 10.425000
Ni 79.230000 25.020000 12.510000
Ni 81.315000 27.105000 12.510000
Ni 81.315000 25.020000 14.595000
Ni 79.230000 27.105000 14.595000
Ni 79.230000 25.020000 16.680000
Ni 81.315000 27.105000 16.680000
Ni 81.315000 25.020000 18.765000
Ni 79.230000 27.105000 18.765000
Ni 79.230000 25.020000 20.850000
Ni 81.315000 27.105000 20.850000
Ni 81.315000 25.020000 22.935000
Ni 79.230000 27.105000 22.935000
Ni 79.230000 25.020000 25.020000
Ni 81.315000 27.105000 25.020000
Ni 81.315000 25.020000 27.105000
Ni 79.230000 27.105000 27.105000
Ni 79.230000 25.020000 29.190000
Ni 81.315000 27.105000 29.190000
Ni 79.230000 27.105000 31.275000
Ni 79.230000 29.190000 0.000000
Ni 81.315000 31.275000 0.000000
Ni 81.315000 29.190000 2.085000
Ni 79.230000 31.275000 2.085000
Ni 79.230000 29.190000 4.170000
Ni 81.315000 31.275000 4.170000
Ni 81.315000 29.190000 6.255000
Ni 79.230000 31.275000 6.255000
Ni 79.230000 29.190000 8.340000
Ni 81.315000 31.275000 8.340000
Ni 81.315000 29.190000 10.425000
Ni 79.230000 31.275000 10.425000
Ni 79.230000 29.190000 12.510000
Ni 81.315000 31.275000 12.510000
Ni 81.315000 29.190000 14.595000
Ni 79.230000 31.275000 14.595000
Ni 79.230000 29.190000 16.680000
Ni 81.315000 31.275000 16.680000
Ni 81.315000 29.190000 18.765000
Ni 79.230000 31.275000 18.765000
Ni 79.230000 29.190000 20.850000
Ni 81.315000 31.275000 20.850000
Ni 81.315000 29.190000 22.935000
Ni 79.230000 31.275000 22.935000
Ni 79.230000 29.190000 25.020000
Ni 81.315000 31.275000 25.020000
Ni 81.315000 29.190000 27.105000
Ni 79.230000 31.275000 27.105000
Ni 79.230000 29.190000 29.190000
Ni 81.315000 31.275000 29.190000
Ni 81.315000 29.190000 31.275000
Ni 79.230000 31.275000 31.275000
Ni 79.230000 29.190000 33.360000
Ni 81.315000 31.275000 33.360000
Ni 79.230000 31.275000 35.445000
Ni 79.230000 33.360000 0.000000
Ni 81.315000 35.445000 0.000000
Ni 81.315000 33.360000 2.085000
Ni 79.230000 35.445000 2.085000
Ni 79.230000 33.360000 4.170000
Ni 81.315000 35.445000 4.170000
Ni 81.315000 33.360000 6.255000
Ni 79.230000 35.445000 6.255000
Ni 79.230000 33.360000 8.340000
Ni 81.315000 35.445000 8.340000
Ni 81.315000 33.360000 10.425000
Ni 79.230000 35.445000 10.425000
Ni 79.230000 33.360000 12.510000
Ni 81.315000 35.445000 12.510000
Ni 81.315000 33.360000 14.595000
Ni 79.230000 35.445000 14.595000
Ni 79.230000 33.360000 16.680000
Ni 81.315000 35.445000 16.680000
Ni 81.315000 33.360000 18.765000
Ni 79.230000 35.445000 18.765000
Ni 79.230000 33.360000 20.850000
Ni 81.315000 35.445000 20.850000
Ni 81.315000 33.360000 22.935000
Ni 79.230000 35.445000 22.935000
Ni 79.230000 33.360000 25.020000
Ni 81.315000 35.445000 25.020000
Ni 81.315000 33.360000 27.105000
Ni 79.230000 35.445000 27.105000
Ni 79.230000 33.360000 29.190000
Ni 81.315000 35.445000 29.190000
Ni 81.315000 33.360000 31.275000
Ni 79.230000 35.445000 31.275000
Ni 79.230000 33.360000 33.360000
Ni 81.315000 35.445000 33.360000
Ni 81.315000 33.360000 35.445000
Ni 79.230000 35.445000 35.445000
Ni 79.230000 33.360000 37.530000
Ni 81.315000 35.445000 37.530000
Ni 79.230000 35.445000 39.615000
Ni 79.230000 37.530000 0.000000
Ni 81.315000 39.615000 0.000000
Ni 81.315000 37.530000 2.085000
Ni 79.230000 39.615000 2.085000
Ni 79.230000 37.530000 4.170000
Ni 81.315000 39.615000 4.170000
Ni 81.315000 37.530000 6.255000
Ni 79.230000 39.615000 6.255000
Ni 79.230000 37.530000 8.340000
Ni 81.315000 39.615000 8.340000
Ni 81.315000 37.530000 10.425000
Ni 79.230000 39.615000 10.425000
Ni 79.230000 37.530000 12.510000
Ni 81.315000 39.615000 12.510000
Ni 81.315000 37.530000 14.595000
Ni 79.230000 39.615000 14.595000
Ni 79.230000 37.530000 16.680000
Ni 81.315000 39.615000 16.680000
Ni 81.315000 37.530000 18.765000
Ni 79.230000 39.615000 18.765000
Ni 79.230000 37.530000 20.850000
Ni 81.315000 39.615000 20.850000
Ni 81.315000 37.530000 22.935000
Ni 79.230000 39.615000 22.935000
Ni 79.230000 37.530000 25.020000
Ni 81.315000 39.615000 25.020000
Ni 81.315000 37.530000 27.105000
Ni 79.230000 39.615000 27.105000
Ni 79.230000 37.530000 29.190000
Ni 81.315000 39.615000 29.190000
Ni 81.315000 37.530000 31.275000
Ni 79.230000 39.615000 31.275000
Ni 79.230000 37.530000 33.360000
Ni 81.315000 39.615000 33.360000
Ni 81.315000 37.530000 35.445000
Ni 79.230000 39.615000 35.445000
Ni 79.230000 37.530000 37.530000
Ni 81.315000 39.615000 37.530000
Ni 81.315000 37.530000 39.615000
Ni 79.230000 39.615000 39.615000
Ni 83.400000 0.000000 0.000000
Ni 85.485000 2.085000 0.000000
Ni 85.485000 0.000000 2.085000
Ni 83.400000 2.085000 2.085000
Ni 83.400000 0.000000 4.170000
Ni 85.485000 2.085000 4.170000
Ni 85.485000 0.000000 6.255000
Ni 83.400000 2.085000 6.255000
Ni 83.400000 0.000000 8.340000
Ni 85.485000 2.085000 8.340000
Ni 85.485000 0.000000 10.425000
Ni 83.400000 2.085000 10.425000
Ni 83.400000 0.000000 12.510000
Ni 85.485000 2.085000 12.510000
Ni 85.485000 0.000000 14.595000
Ni 83.400000 2.085000 14.595000
Ni 83.400000 0.000000 16.680000
Ni 85.485000 2.085000 16.680000
Ni 85.485000 0.000000 18.765000
Ni 83.400000 2.085000 18.765000
Ni 83.400000 0.000000 20.850000
Ni 85.485000 2.085000 20.850000
Ni 85.485000 0.000000 22.935000
Ni 83.400000 2.085000 22.935000
Ni 83.400000 0.000000 25.020000
Ni 85.485000 2.085000 25.020000
Ni 85.485000 0.000000 27.105000
Ni 83.400000 2.085000 27.105000
Ni 83.400000 0.000000 29.190000
Ni 85.485000 2.085000 29.190000
Ni 85.485000 0.000000 31.275000
Ni 83.400000 2.085000 31.275000
Ni 83.400000 0.000000 33.360000
Ni 85.485000 2.085000 33.360000
Ni 85.485000 0.000000 35.445000
Ni 83.400000 2.085000 35.445000
Ni 83.400000 0.000000 37.530000
Ni 85.485000 2.085000 37.530000
Ni 85.485000 0.000000 39.615000
Ni 83.400000 2.085000 39.615000
Ni 83.400000 4.170000 0.000000
Ni 85.485000 6.255000 0.000000
Ni 85.485000 4.170000 2.085000
Ni 83.400000 6.255000 2.085000
Ni 83.400000 4.170000 4.170000
Ni 85.485000 6.255000 4.170000
Ni 85.485000 4.170000 6.255000
Ni 83.400000 6.255000 6.255000
Ni 83.400000 4.170000 8.340000
Ni 85.485000 6.255000 8.340000
Ni 85.485000 4.170000 10.425000
Ni 83.400000 6.255000 10.425000
Ni 83.400000 4.170000 12.510000
Ni 85.485000 6.255000 12.510000
Ni 85.485000 4.170000 14.595000
Ni 83.400000 6.255000 14.595000
Ni 83.400000 4.170000 16.680000
Ni 85.485000 6.255000 16.680000
Ni 85.485000 4.170000 18.765000
Ni 83.400000 6.255000 18.765000
Ni 83.400000 4.170000 20.850000
Ni 85.485000 6.255000 20.850000
Ni 85.485000 4.170000 22.935000
Ni 83.400000 6.255000 22.935000
Ni 83.400000 4.170000 25.020000
Ni 85.485000 6.255000 25.020000
Ni 85.485000 4.170000 27.105000
Ni 83.400000 6.255000 27.105000
Ni 83.400000 4.170000 29.190000
Ni 85.485000 6.255000 29.190000
Ni 85.485000 4.170000 31.275000
Ni 83.400000 6.255000 31.275000
Ni 83.400000 4.170000 33.360000
Ni 85.485000 6.255000 33.360000
Ni 85.485000 4.170000 35.445000
Ni 83.400000 6.255000 35.445000
Ni 83.400000 4.170000 37.530000
Ni 85.485000 6.255000 37.530000
Ni 85.485000 4.170000 39.615000
Ni 83.400000 6.255000 39.615000
Ni 83.400000 8.340000 0.000000
Ni 85.485000 10.425000 0.000000
Ni 85.485000 8.340000 2.085000
Ni 83.400000 10.425000 2.085000
Ni 83.400000 8.340000 4.170000
Ni 85.485000 10.425000 4.170000
Ni 85.485000 8.340000 6.255000
Ni 83.400000 10.425000 6.255000
Ni 83.400000 8.340000 8.340000
Ni 85.485000 10.425000 8.340000
Ni 85.485000 8.340000 10.425000
Ni 83.400000 10.425000 10.425000
Ni 83.400000 8.340000 12.510000
Ni 85.485000 10.425000 12.510000
Ni 85.485000 8.340000 14.595000
Ni 83.400000 10.425000 14.595000
Ni 83.400000 8.340000 16.680000
Ni 85.485000 10.425000 16.680000
Ni 85.485000 8.340000 18.765000
Ni 83.400000 10.425000 18.765000
Ni 83.400000 8.340000 20.850000
Ni 85.485000 10.425000 20.850000
Ni 85.485000 8.340000 22.935000
Ni 83.400000 10.425000 22.935000
Ni 83.400000 8.340000 25.020000
Ni 85.485000 10.425000 25.020000
Ni 85.485000 8.340000 27.105000
Ni 83.400000 10.425000 27.105000
Ni 83.400000 8.340000 29.190000
Ni 85.485000 10.425000 29.190000
Ni 85.485000 8.340000 31.275000
Ni 83.400000 10.425000 31.275000
Ni 83.400000 8.340000 33.360000
Ni 85.485000 10.425000 33.360000
Ni 85.485000 8.340000 35.445000
Ni 83.400000 10.425000 35.445000
Ni 83.400000 8.340000 37.530000
Ni 83.400000 12.510000 0.000000
Ni 85.485000 14.595000 0.000000
Ni 85.485000 12.510000 2.085000
Ni 83.400000 14.595000 2.085000
Ni 83.400000 12.510000 4.170000
Ni 85.485000 14.595000 4.170000
Ni 85.485000 12.510000 6.255000
Ni 83.400000 14.595000 6.255000
Ni 83.400000 12.510000 8.340000
Ni 85.485000 14.595000 8.340000
Ni 85.485000 12.510000 10.425000
Ni 83.400000 14.595000 10.425000
Ni 83.400000 12.510000 12.510000
Ni 85.485000 14.595000 12.510000
Ni 85.485000 12.510000 14.595000
Ni 83.400000 14.595000 14.595000
Ni 83.400000 12.510000 16.680000
Ni 85.485000 14.595000 16.680000
Ni 85.485000 12.510000 18.765000
Ni 83.400000 14.595000 18.765000
Ni 83.400000 12.510000 20.850000
Ni 85.485000 14.595000 20.850000
Ni 85.485000 12.510000 22.935000
Ni 83.400000 14.595000 22.935000
Ni 83.400000 12.510000 25.020000
Ni 85.485000 14.595000 25.020000
Ni 85.485000 12.510000 27.105000
Ni 83.400000 14.595000 27.105000
Ni 83.400000 12.510000 29.190000
Ni 85.485000 14.595000 29.190000
Ni 85.485000 12.510000 31.275000
Ni 83.400000 14.595000 31.275000
Ni 83.400000 12.510000 33.360000
Ni 83.400000 16.680000 0.000000
Ni 85.485000 18.765000 0.000000
Ni 85.485000 16.680000 2.085000
Ni 83.400000 18.765000 2.085000
Ni 83.400000 16.680000 4.170000
Ni 85.485000 18.765000 4.170000
Ni 85.485000 16.680000 6.255000
Ni 83.400000 18.765000 6.255000
Ni 83.400000 16.680000 8.340000
Ni 85.485000 18.765000 8.340000
Ni 85.485000 16.680000 10.425000
Ni 83.400000 18.765000 10.425000
Ni 83.400000 16.680000 12.510000
Ni 85.485000 18.765000 12.510000
Ni 85.485000 16.680000 14.595000
Ni 83.400000 18.765000 14.595000
Ni 83.400000 16.680000 16.680000
Ni 85.485000 18.765000 16.680000
Ni 85.485000 16.680000 18.765000
Ni 83.400000 18.765000 18.765000
Ni 83.400000 16.680000 20.850000
Ni 85.485000 18.765000 20.850000
Ni 85.485000 16.680000 22.935000
Ni 83.400000 18.765000 22.935000
Ni 83.400000 16.680000 25.020000
Ni 85.485000 18.765000 25.020000
Ni 85.485000 16.680000 27.105000
Ni 83.400000 18.765000 27.105000
Ni 83.400000 16.680000 29.190000
Ni 83.400000 20.850000 0.000000
Ni 85.485000 22.935000 0.000000
Ni 85.485000 20.850000 2.085000
Ni 83.400000 22.935000 2.085000
Ni 83.400000 20.850000 4.170000
Ni 85.485000 22.935000 4.170000
Ni 85.485000 20.850000 6.255000
Ni 83.400000 22.935000 6.255000
Ni 83.400000 20.850000 8.340000
Ni 85.485000 22.935000 8.340000
Ni 85.485000 20.850000 10.425000
Ni 83.400000 22.935000 10.425000
Ni 83.400000 20.850000 12.510000
Ni 85.485000 22.935000 12.510000
Ni 85.485000 20.850000 14.595000
Ni 83.400000 22.935000 14.595000
Ni 83.400000 20.850000 16.680000
Ni 85.485000 22.935000 16.680000
Ni 85.485000 20.850000 18.765000
Ni 83.400000 22.935000 18.765000
Ni 83.400000 20.850000 20.850000
Ni 85.485000 22.935000 20.850000
Ni 85.485000 20.850000 22.935000
Ni 83.400000 22.935000 22.935000
Ni 83.400000 20.850000 25.020000
Ni 85.485000 22.935000 25.020000
Ni 83.400000 22.935000 27.105000
Ni 83.400000 25.020000 0.000000
Ni 85.485000 27.105000 0.000000
Ni 85.485000 25.020000 2.085000
Ni 83.400000 27.105000 2.085000
Ni 83.400000 25.020000 4.170000
Ni 85.485000 27.105000 4.170000
Ni 85.485000 25.020000 6.255000
Ni 83.400000 27.105000 6.255000
Ni 83.400000 25.020000 8.340000
Ni 85.485000 27.105000 8.340000
Ni 85.485000 25.020000 10.425000
Ni 83.400000 27.105000 10.425000
Ni 83.400000 25.020000 12.510000
Ni 85.485000 27.105000 12.510000
Ni 85.485000 25.020000 14.595000
Ni 83.400000 27.105000 14.595000
Ni 83.400000 25.020000 16.680000
Ni 85.485000 27.105000 16.680000
Ni 85.485000 25.020000 18.765000
Ni 83.400000 27.105000 18.765000
Ni 83.400000 25.020000 20.850000
Ni 85.485000 27.105000 20.850000
Ni 85.485000 25.020000 22.935000
Ni 83.400000 27.105000 22.935000
Ni 83.400000 25.020000 25.020000
Ni 85.485000 27.105000 25.020000
Ni 85.485000 25.020000 27.105000
Ni 83.400000 27.105000 27.105000
Ni 83.400000 25.020000 29.190000
Ni 85.485000 27.105000 29.190000
Ni 83.400000 27.105000 31.275000
Ni 83.400000 29.190000 0.000000
Ni 85.485000 31.275000 0.000000
Ni 85.485000 29.190000 2.085000
Ni 83.400000 31.275000 2.085000
Ni 83.400000 29.190000 4.170000
Ni 85.485000 31.275000 4.170000
Ni 85.485000 29.190000 6.255000
Ni 83.400000 31.275000 6.255000
Ni 83.400000 29.190000 8.340000
Ni 85.485000 31.275000 8.340000
Ni 85.485000 29.190000 10.425000
Ni 83.400000 31.275000 10.425000
Ni 83.400000 29.190000 12.510000
Ni 85.485000 31.275000 12.510000
Ni 85.485000 29.190000 14.595000
Ni 83.400000 31.275000 14.595000
Ni 83.400000 29.190000 16.680000
Ni 85.485000 31.275000 16.680000
Ni 85.485000 29.190000 18.765000
Ni 83.400000 31.275000 18.765000
Ni 83.400000 29.190000 20.850000
Ni 85.485000 31.275000 20.850000
Ni 85.485000 29.190000 22.935000
Ni 83.400000 31.275000 22.935000
Ni 83.400000 29.190000 25.020000
Ni 85.485000 31.275000 25.020000
Ni 85.485000 29.190000 27.105000
Ni 83.400000 31.275000 27.105000
Ni 83.400000 29.190000 29.190000
Ni 85.485000 31.275000 29.190000
Ni 85.485000 29.190000 31.275000
Ni 83.400000 31.275000 31.275000
Ni 83.400000 29.190000 33.360000
Ni 85.485000 31.275000 33.360000
Ni 83.400000 31.275000 35.445000
Ni 83.400000 33.360000 0.000000
Ni 85.485000 35.445000 0.000000
Ni 85.485000 33.360000 2.085000
Ni 83.400000 35.445000 2.085000
Ni 83.400000 33.360000 4.170000
Ni 85.485000 35.445000 4.170000
Ni 85.485000 33.360000 6.255000
Ni 83.400000 35.445000 6.255000
Ni 83.400000 33.360000 8.340000
Ni 85.485000 35.445000 8.340000
Ni 85.485000 33.360000 10.425000
Ni 83.400000 35.445000 10.425000
Ni 83.400000 33.360000 12.510000
Ni 85.485000 35.445000 12.510000
Ni 85.485000 33.360000 14.595000
Ni 83.400000 35.445000 14.595000
Ni 83.400000 33.360000 16.680000
Ni 85.485000 35.445000 16.680000
Ni 85.485000 33.360000 18.765000
Ni 83.400000 35.445000 18.765000
Ni 83.400000 33.360000 20.850000
Ni 85.485000 35.445000 20.850000
Ni 85.485000 33.360000 22.935000
Ni 83.400000 35.445000 22.935000
Ni 83.400000 33.360000 25.020000
Ni 85.485000 35.445000 25.020000
Ni 85.485000 33.360000 27.105000
Ni 83.400000 35.445000 27.105000
Ni 83.400000 33.360000 29.190000
Ni 85.485000 35.445000 29.190000
Ni 85.485000 33.360000 31.275000
Ni 83.400000 35.445000 31.275000
Ni 83.400000 33.360000 33.360000
Ni 85.485000 35.445000 33.360000
Ni 85.485000 33.360000 35.445000
Ni 83.400000 35.445000 35.445000
Ni 83.400000 33.360000 37.530000
Ni 85.485000 35.445000 37.530000
Ni 83.400000 35.445000 39.615000
Ni 83.400000 37.530000 0.000000
Ni 85.485000 39.615000 0.000000
Ni 85.485000 37.530000 2.085000
Ni 83.400000 39.615000 2.085000
Ni 83.400000 37.530000 4.170000
Ni 85.485000 39.615000 4.170000
Ni 85.485000 37.530000 6.255000
Ni 83.400000 39.615000 6.255000
Ni 83.400000 37.530000 8.340000
Ni 85.485000 39.615000 8.340000
Ni 85.485000 37.530000 10.425000
Ni 83.400000 39.615000 10.425000
Ni 83.400000 37.530000 12.510000
Ni 85.485000 39.615000 12.510000
Ni 85.485000 37.530000 14.595000
Ni 83.400000 39.615000 14.595000
Ni 83.400000 37.530000 16.680000
Ni 85.485000 39.615000 16.680000
Ni 85.485000 37.530000 18.765000
Ni 83.400000 39.615000 18.765000
Ni 83.400000 37.530000 20.850000
Ni 85.485000 39.615000 20.850000
Ni 85.485000 37.530000 22.935000
Ni 83.400000 39.615000 22.935000
Ni 83.400000 37.530000 25.020000
Ni 85.485000 39.615000 25.020000
Ni 85.485000 37.530000 27.105000
Ni 83.400000 39.615000 27.105000
Ni 83.400000 37.530000 29.190000
Ni 85.485000 39.615000 29.190000
Ni 85.485000 37.530000 31.275000
Ni 83.400000 39.615000 31.275000
Ni 83.400000 37.530000 33.360000
Ni 85.485000 39.615000 33.360000
Ni 85.485000 37.530000 35.445000
Ni 83.400000 39.615000 35.445000
Ni 83.400000 37.530000 37.530000
Ni 85.485000 39.615000 37.530000
Ni 85.485000 37.530000 39.615000
Ni 83.400000 39.615000 39.615000
Ni 87.570000 0.000000 0.000000
Ni 89.655000 2.085000 0.000000
Ni 89.655000 0.000000 2.085000
Ni 87.570000 2.085000 2.085000
Ni 87.570000 0.000000 4.170000
Ni 89.655000 2.085000 4.170000
Ni 89.655000 0.000000 6.255000
Ni 87.570000 2.085000 6.255000
Ni 87.570000 0.000000 8.340000
Ni 89.655000 2.085000 8.340000
Ni 89.655000 0.000000 10.425000
Ni 87.570000 2.085000 10.425000
Ni 87.570000 0.000000 12.510000
Ni 89.655000 2.085000 12.510000
Ni 89.655000 0.000000 14.595000
Ni 87.570000 2.085000 14.595000
Ni 87.570000 0.000000 16.680000
Ni 89.655000 2.085000 16.680000
Ni 89.655000 0.000000 18.765000
Ni 87.570000 2.085000 18.765000
Ni 87.570000 0.000000 20.850000
Ni 89.655000 2.085000 20.850000
Ni 89.655000 0.000000 22.935000
Ni 87.570000 2.085000 22.935000
Ni 87.570000 0.000000 25.020000
Ni 89.655000 2.085000 25.020000
Ni 89.655000 0.000000 27.105000
Ni 87.570000 2.085000 27.105000
Ni 87.570000 0.000000 29.190000
Ni 89.655000 2.085000 29.190000
Ni 89.655000 0.000000 31.275000
Ni 87.570000 2.085000 31.275000
Ni 87.570000 0.000000 33.360000
Ni 89.655000 2.085000 33.360000
Ni 89.655000 0.000000 35.445000
Ni 87.570000 2.085000 35.445000
Ni 87.570000 0.000000 37.530000
Ni 89.655000 2.085000 37.530000
Ni 89.655000 0.000000 39.615000
Ni 87.570000 2.085000 39.615000
Ni 87.570000 4.170000 0.000000
Ni 89.655000 6.255000 0.000000
Ni 89.655000 4.170000 2.085000
Ni 87.570000 6.255000 2.085000
Ni 87.570000 4.170000 4.170000
Ni 89.655000 6.255000 4.170000
Ni 89.655000 4.170000 6.255000
Ni 87.570000 6.255000 6.255000
Ni 87.570000 4.170000 8.340000
Ni 89.655000 6.255000 8.340000
Ni 89.655000 4.170000 10.425000
Ni 87.570000 6.255000 10.425000
Ni 87.570000 4.170000 12.510000
Ni 89.655000 6.255000 12.510000
Ni 89.655000 4.170000 14.595000
Ni 87.570000 6.255000 14.595000
Ni 87.570000 4.170000 16.680000
Ni 89.655000 6.255000 16.680000
Ni 89.655000 4.170000 18.765000
Ni 87.570000 6.255000 18.765000
Ni 87.570000 4.170000 20.850000
Ni 89.655000 6.255000 20.850000
Ni 89.655000 4.170000 22.935000
Ni 87.570000 6.255000 22.935000
Ni 87.570000 4.170000 25.020000
Ni 89.655000 6.255000 25.020000
Ni 89.655000 4.170000 27.105000
Ni 87.570000 6.255000 27.105000
Ni 87.570000 4.170000 29.190000
Ni 89.655000 6.255000 29.190000
Ni 89.655000 4.170000 31.275000
Ni 87.570000 6.255000 31.275000
Ni 87.570000 4.170000 33.360000
Ni 89.655000 6.255000 33.360000
Ni 89.655000 4.170000 35.445000
Ni 87.570000 6.255000 35.445000
Ni 87.570000 4.170000 37.530000
Ni 89.655000 6.255000 37.530000
Ni 89.655000 4.170000 39.615000
Ni 87.570000 6.255000 39.615000
Ni 87.570000 8.340000 0.000000
Ni 89.655000 10.425000 0.000000
Ni 89.655000 8.340000 2.085000
Ni 87.570000 10.425000 2.085000
Ni 87.570000 8.340000 4.170000
Ni 89.655000 10.425000 4.170000
Ni 89.655000 8.340000 6.255000
Ni 87.570000 10.425000 6.255000
Ni 87.570000 8.340000 8.340000
Ni 89.655000 10.425000 8.340000
Ni 89.655000 8.340000 10.425000
Ni 87.570000 10.425000 10.425000
Ni 87.570000 8.340000 12.510000
Ni 89.655000 10.425000 12.510000
Ni 89.655000 8.340000 14.595000
Ni 87.570000 10.425000 14.595000
Ni 87.570000 8.340000 16.680000
Ni 89.655000 10.425000 16.680000
Ni 89.655000 8.340000 18.765000
Ni 87.570000 10.425000 18.765000
Ni 87.570000 8.340000 20.850000
Ni 89.655000 10.425000 20.850000
Ni 89.655000 8.340000 22.935000
Ni 87.570000 10.425000 22.935000
Ni 87.570000 8.340000 25.020000
Ni 89.655000 10.425000 25.020000
Ni 89.655000 8.340000 27.105000
Ni 87.570000 10.425000 27.105000
Ni 87.570000 8.340000 29.190000
Ni 89.655000 10.425000 29.190000
Ni 89.655000 8.340000 31.275000
Ni 87.570000 10.425000 31.275000
Ni 87.570000 8.340000 33.360000
Ni 89.655000 10.425000 33.360000
Ni 89.655000 8.340000 35.445000
Ni 87.570000 10.425000 35.445000
Ni 87.570000 8.340000 37.530000
Ni 87.570000 12.510000 0.000000
Ni 89.655000 14.595000 0.000000
Ni 89.655000 12.510000 2.085000
Ni 87.570000 14.595000 2.085000
Ni 87.570000 12.510000 4.170000
Ni 89.655000 14.595000 4.170000
Ni 89.655000 12.510000 6.255000
Ni 87.570000 14.595000 6.255000
Ni 87.570000 12.510000 8.340000
Ni 89.655000 14.595000 8.340000
Ni 89.655000 12.510000 10.425000
Ni 87.570000 14.595000 10.425000
Ni 87.570000 12.510000 12.510000
Ni 89.655000 14.595000 12.510000
Ni 89.655000 12.510000 14.595000
Ni 87.570000 14.595000 14.595000
Ni 87.570000 12.510000 16.680000
Ni 89.655000 14.595000 16.680000
Ni 89.655000 12.510000 18.765000
Ni 87.570000 14.595000 18.765000
Ni 87.570000 12.510000 20.850000
Ni 89.655000 14.595000 20.850000
Ni 89.655000 12.510000 22.935000
Ni 87.570000 14.595000 22.935000
Ni 87.570000 12.510000 25.020000
Ni 89.655000 14.595000 25.020000
Ni 89.655000 12.510000 27.105000
Ni 87.570000 14.595000 27.105000
Ni 87.570000 12.510000 29.190000
Ni 89.655000 14.595000 29.190000
Ni 89.655000 12.510000 31.275000
Ni 87.570000 14.595000 31.275000
Ni 87.570000 12.510000 33.360000
Ni 87.570000 16.680000 0.000000
Ni 89.655000 18.765000 0.000000
Ni 89.655000 16.680000 2.085000
Ni 87.570000 18.765000 2.085000
Ni 87.570000 16.680000 4.170000
Ni 89.655000 18.765000 4.170000
Ni 89.655000 16.680000 6.255000
Ni 87.570000 18.765000 6.255000
Ni 87.570000 16.680000 8.340000
Ni 89.655000 18.765000 8.340000
Ni 89.655000 16.680000 10.425000
Ni 87.570000 18.765000 10.425000
Ni 87.570000 16.680000 12.510000
Ni 89.655000 18.765000 12.510000
Ni 89.655000 16.680000 14.595000
Ni 87.570000 18.765000 14.595000
Ni 87.570000 16.680000 16.680000
Ni 89.655000 18.765000 16.680000
Ni 89.655000 16.680000 18.765000
Ni 87.570000 18.765000 18.765000
Ni 87.570000 16.680000 20.850000
Ni 89.655000 18.765000 20.850000
Ni 89.655000 16.680000 22.935000
Ni 87.570000 18.765000 22.935000
Ni 87.570000 16.680000 25.020000
Ni 89.655000 18.765000 25.020000
Ni 89.655000 16.680000 27.105000
Ni 87.570000 18.765000 27.105000
Ni 87.570000 16.680000 29.190000
Ni 87.570000 20.850000 0.000000
Ni 89.655000 22.935000 0.000000
Ni 89.655000 20.850000 2.085000
Ni 87.570000 22.935000 2.085000
Ni 87.570000 20.850000 4.170000
Ni 89.655000 22.935000 4.170000
Ni 89.655000 20.850000 6.255000
Ni 87.570000 22.935000 6.255000
Ni 87.570000 20.850000 8.340000
Ni 89.655000 22.935000 8.340000
Ni 89.655000 20.850000 10.425000
Ni 87.570000 22.935000 10.425000
Ni 87.570000 20.850000 12.510000
Ni 89.655000 22.935000 12.510000
Ni 89.655000 20.850000 14.595000
Ni 87.570000 22.935000 14.595000
Ni 87.570000 20.850000 16.680000
Ni 89.655000 22.935000 16.680000
Ni 89.655000 20.850000 18.765000
Ni 87.570000 22.935000 18.765000
Ni 87.570000 20.850000 20.850000
Ni 89.655000 22.935000 20.850000
Ni 89.655000 20.850000 22.935000
Ni 87.570000 22.935000 22.935000
Ni 87.570000 20.850000 25.020000
Ni 89.655000 22.935000 25.020000
Ni 87.570000 22.935000 27.105000
Ni 87.570000 25.020000 0.000000
Ni 89.655000 27.105000 0.000000
Ni 89.655000 25.020000 2.085000
Ni 87.570000 27.105000 2.085000
Ni 87.570000 25.020000 4.170000
Ni 89.655000 27.105000 4.170000
Ni 89.655000 25.020000 6.255000
Ni 87.570000 27.105000 6.255000
Ni 87.570000 25.020000 8.340000
Ni 89.655000 27.105000 8.340000
Ni 89.655000 25.020000 10.425000
Ni 87.570000 27.105000 10.425000
Ni 87.570000 25.020000 12.510000
Ni 89.655000 27.105000 12.510000
Ni 89.655000 25.020000 14.595000
Ni 87.570000 27.105000 14.595000
Ni 87.570000 25.020000 16.680000
Ni 89.655000 27.105000 16.680000
Ni 89.655000 25.020000 18.765000
Ni 87.570000 27.105000 18.765000
Ni 87.570000 25.020000 20.850000
Ni 89.655000 27.105000 20.850000
Ni 89.655000 25.020000 22.935000
Ni 87.570000 27.105000 22.935000
Ni 87.570000 25.020000 25.020000
Ni 89.655000 27.105000 25.020000
Ni 89.655000 25.020000 27.105000
Ni 87.570000 27.105000 27.105000
Ni 87.570000 25.020000 29.190000
Ni 89.655000 27.105000 29.190000
Ni 87.570000 27.105000 31.275000
Ni 87.570000 29.190000 0.000000
Ni 89.655000 31.275000 0.000000
Ni 89.655000 29.190000 2.085000
Ni 87.570000 31.275000 2.085000
Ni 87.570000 29.190000 4.170000
Ni 89.655000 31.275000 4.170000
Ni 89.655000 29.190000 6.255000
Ni 87.570000 31.275000 6.255000
Ni 87.570000 29.190000 8.340000
Ni 89.655000 31.275000 8.340000
Ni 89.655000 29.190000 10.425000
Ni 87.570000 31.275000 10.425000
Ni 87.570000 29.190000 12.510000
Ni 89.655000 31.275000 12.510000
Ni 89.655000 29.190000 14.595000
Ni 87.570000 31.275000 14.595000
Ni 87.570000 29.190000 16.680000
Ni 89.655000 31.275000 16.680000
Ni 89.655000 29.190000 18.765000
Ni 87.570000 31.275000 18.765000
Ni 87.570000 29.190000 20.850000
Ni 89.655000 31.275000 20.850000
Ni 89.655000 29.190000 22.935000
Ni 87.570000 31.275000 22.935000
Ni 87.570000 29.190000 25.020000
Ni 89.655000 31.275000 25.020000
Ni 89.655000 29.190000 27.105000
Ni 87.570000 31.275000 27.105000
Ni 87.570000 29.190000 29.190000
Ni 89.655000 31.275000 29.190000
Ni 89.655000 29.190000 31.275000
Ni 87.570000 31.275000 31.275000
Ni 87.570000 29.190000 33.360000
Ni 89.655000 31.275000 33.360000
Ni 87.570000 31.275000 35.445000
Ni 87.570000 33.360000 0.000000
Ni 89.655000 35.445000 0.000000
Ni 89.655000 33.360000 2.085000
Ni 87.570000 35.445000 2.085000
Ni 87.570000 33.360000 4.170000
Ni 89.655000 35.445000 4.170000
Ni 89.655000 33.360000 6.255000
Ni 87.570000 35.445000 6.255000
Ni 87.570000 33.360000 8.340000
Ni 89.655000 35.445000 8.340000
Ni 89.655000 33.360000 10.425000
Ni 87.570000 35.445000 10.425000
Ni 87.570000 33.360000 12.510000
Ni 89.655000 35.445000 12.510000
Ni 89.655000 33.360000 14.595000
Ni 87.570000 35.445000 14.595000
Ni 87.570000 33.360000 16.680000
Ni 89.655000 35.445000 16.680000
Ni 89.655000 33.360000 18.765000
Ni 87.570000 35.445000 18.765000
Ni 87.570000 33.360000 20.850000
Ni 89.655000 35.445000 20.850000
Ni 89.655000 33.360000 22.935000
Ni 87.570000 35.445000 22.935000
Ni 87.570000 33.360000 25.020000
Ni 89.655000 35.445000 25.020000
Ni 89.655000 33.360000 27.105000
Ni 87.570000 35.445000 27.105000
Ni 87.570000 33.360000 29.190000
Ni 89.655000 35.445000 29.190000
Ni 89.655000 33.360000 31.275000
Ni 87.570000 35.445000 31.275000
Ni 87.570000 33.360000 33.360000
Ni 89.655000 35.445000 33.360000
Ni 89.655000 33.360000 35.445000
Ni 87.570000 35.445000 35.445000
Ni 87.570000 33.360000 37.530000
Ni 89.655000 35.445000 37.530000
Ni 87.570000 35.445000 39.615000
Ni 87.570000 37.530000 0.000000
Ni 89.655000 39.615000 0.000000
Ni 89.655000 37.530000 2.085000
Ni 87.570000 39.615000 2.085000
Ni 87.570000 37.530000 4.170000
Ni 89.655000 39.615000 4.170000
Ni 89.655000 37.530000 6.255000
Ni 87.570000 39.615000 6.255000
Ni 87.570000 37.530000 8.340000
Ni 89.655000 39.615000 8.340000
Ni 89.655000 37.530000 10.425000
Ni 87.570000 39.615000 10.425000
Ni 87.570000 37.530000 12.510000
Ni 89.655000 39.615000 12.510000
Ni 89.655000 37.530000 14.595000
Ni 87.570000 39.615000 14.595000
Ni 87.570000 37.530000 16.680000
Ni 89.655000 39.615000 16.680000
Ni 89.655000 37.530000 18.765000
Ni 87.570000 39.615000 18.765000
Ni 87.570000 37.530000 20.850000
Ni 89.655000 39.615000 20.850000
Ni 89.655000 37.530000 22.935000
Ni 87.570000 39.615000 22.935000
Ni 87.570000 37.530000 25.020000
Ni 89.655000 39.615000 25.020000
Ni 89.655000 37.530000 27.105000
Ni 87.570000 39.615000 27.105000
Ni 87.570000 37.530000 29.190000
Ni 89.655000 39.615000 29.190000
Ni 89.655000 37.530000 31.275000
Ni 87.570000 39.615000 31.275000
Ni 87.570000 37.530000 33.360000
Ni 89.655000 39.615000 33.360000
Ni 89.655000 37.530000 35.445000
Ni 87.570000 39.615000 35.445000
Ni 87.570000 37.530000 37.530000
Ni 89.655000 39.615000 37.530000
Ni 89.655000 37.530000 39.615000
Ni 87.570000 39.615000 39.615000
Ni 91.740000 0.000000 0.000000
Ni 93.825000 2.085000 0.000000
Ni 93.825000 0.000000 2.085000
Ni 91.740000 2.085000 2.085000
Ni 91.740000 0.000000 4.170000
Ni 93.825000 2.085000 4.170000
Ni 93.825000 0.000000 6.255000
Ni 91.740000 2.085000 6.255000
Ni 91.740000 0.000000 8.340000
Ni 93.825000 2.085000 8.340000
Ni 93.825000 0.000000 10.425000
Ni 91.740000 2.085000 10.425000
Ni 91.740000 0.000000 12.510000
Ni 93.825000 2.085000 12.510000
Ni 93.825000 0.000000 14.595000
Ni 91.740000 2.085000 14.595000
Ni 91.740000 0.000000 16.680000
Ni 93.825000 2.085000 16.680000
Ni 93.825000 0.000000 18.765000
Ni 91.740000 2.085000 18.765000
Ni 91.740000 0.000000 20.850000
Ni 93.825000 2.085000 20.850000
Ni 93.825000 0.000000 22.935000
Ni 91.740000 2.085000 22.935000
Ni 91.740000 0.000000 25.020000
Ni 93.825000 2.085000 25.020000
Ni 93.825000 0.000000 27.105000
Ni 91.740000 2.085000 27.105000
Ni 91.740000 0.000000 29.190000
Ni 93.825000 2.085000 29.190000
Ni 93.825000 0.000000 31.275000
Ni 91.740000 2.085000 31.275000
Ni 91.740000 0.000000 33.360000
Ni 93.825000 2.085000 33.360000
Ni 93.825000 0.000000 35.445000
Ni 91.740000 2.085000 35.445000
Ni 91.740000 0.000000 37.530000
Ni 93.825000 2.085000 37.530000
Ni 93.825000 0.000000 39.615000
Ni 91.740000 2.085000 39.615000
Ni 91.740000 4.170000 0.000000
Ni 93.825000 6.255000 0.000000
Ni 93.825000 4.170000 2.085000
Ni 91.740000 6.255000 2.085000
Ni 91.740000 4.170000 4.170000
Ni 93.825000 6.255000 4.170000
Ni 93.825000 4.170000 6.255000
Ni 91.740000 6.255000 6.255000
Ni 91.740000 4.170000 8.340000
Ni 93.825000 6.255000 8.340000
Ni 93.825000 4.170000 10.425000
Ni 91.740000 6.255000 10.425000
Ni 91.740000 4.170000 12.510000
Ni 93.825000 6.255000 12.510000
Ni 93.825000 4.170000 14.595000
Ni 91.740000 6.255000 14.595000
Ni 91.740000 4.170000 16.680000
Ni 93.825000 6.255000 16.680000
Ni 93.825000 4.170000 18.765000
Ni 91.740000 6.255000 18.765000
Ni 91.740000 4.170000 20.850000
Ni 93.825000 6.255000 20.850000
Ni 93.825000 4.170000 22.935000
Ni 91.740000 6.255000 22.935000
Ni 91.740000 4.170000 25.020000
Ni 93.825000 6.255000 25.020000
Ni 93.825000 4.170000 27.105000
Ni 91.740000 6.255000 27.105000
Ni 91.740000 4.170000 29.190000
Ni 93.825000 6.255000 29.190000
Ni 93.825000 4.170000 31.275000
Ni 91.740000 6.255000 31.275000
Ni 91.740000 4.170000 33.360000
Ni 93.825000 6.255000 33.360000
Ni 93.825000 4.170000 35.445000
Ni 91.740000 6.255000 35.445000
Ni 91.740000 4.170000 37.530000
Ni 93.825000 6.255000 37.530000
Ni 93.825000 4.170000 39.615000
Ni 91.740000 6.255000 39.615000
Ni 91.740000 8.340000 0.000000
Ni 93.825000 10.425000 0.000000
Ni 93.825000 8.340000 2.085000
Ni 91.740000 10.425000 2.085000
Ni 91.740000 8.340000 4.170000
Ni 93.825000 10.425000 4.170000
Ni 93.825000 8.340000 6.255000
Ni 91.740000 10.425000 6.255000
Ni 91.740000 8.340000 8.340000
Ni 93.825000 10.425000 8.340000
Ni 93.825000 8.340000 10.425000
Ni 91.740000 10.425000 10.425000
Ni 91.740000 8.340000 12.510000
Ni 93.825000 10.425000 12.510000
Ni 93.825000 8.340000 14.595000
Ni 91.740000 10.425000 14.595000
Ni 91.740000 8.340000 16.680000
Ni 93.825000 10.425000 16.680000
Ni 93.825000 8.340000 18.765000
Ni 91.740000 10.425000 18.765000
Ni 91.740000 8.340000 20.850000
Ni 93.825000 10.425000 20.850000
Ni 93.825000 8.340000 22.935000
Ni 91.740000 10.425000 22.935000
Ni 91.740000 8.340000 25.020000
Ni 93.825000 10.425000 25.020000
Ni 93.825000 8.340000 27.105000
Ni 91.740000 10.425000 27.105000
Ni 91.740000 8.340000 29.190000
Ni 93.825000 10.425000 29.190000
Ni 93.825000 8.340000 31.275000
Ni 91.740000 10.425000 31.275000
Ni 91.740000 8.340000 33.360000
Ni 93.825000 10.425000 33.360000
Ni 93.825000 8.340000 35.445000
Ni 91.740000 10.425000 35.445000
Ni 91.740000 8.340000 37.530000
Ni 91.740000 12.510000 0.000000
Ni 93.825000 14.595000 0.000000
Ni 93.825000 12.510000 2.085000
Ni 91.740000 14.595000 2.085000
Ni 91.740000 12.510000 4.170000
Ni 93.825000 14.595000 4.170000
Ni 93.825000 12.510000 6.255000
Ni 91.740000 14.595000 6.255000
Ni 91.740000 12.510000 8.340000
Ni 93.825000 14.595000 8.340000
Ni 93.825000 12.510000 10.425000
Ni 91.740000 14.595000 10.425000
Ni 91.740000 12.510000 12.510000
Ni 93.825000 14.595000 12.510000
Ni 93.825000 12.510000 14.595000
Ni 91.740000 14.595000 14.595000
Ni 91.740000 12.510000 16.680000
Ni 93.825000 14.595000 16.680000
Ni 93.825000 12.510000 18.765000
Ni 91.740000 14.595000 18.765000
Ni 91.740000 12.510000 20.850000
Ni 93.825000 14.595000 20.850000
Ni 93.825000 12.510000 22.935000
Ni 91.740000 14.595000 22.935000
Ni 91.740000 12.510000 25.020000
Ni 93.825000 14.595000 25.020000
Ni 93.825000 12.510000 27.105000
Ni 91.740000 14.595000 27.105000
Ni 91.740000 12.510000 29.190000
Ni 93.825000 14.595000 29.190000
Ni 93.825000 12.510000 31.275000
Ni 91.740000 14.595000 31.275000
Ni 91.740000 12.510000 33.360000
Ni 91.740000 16.680000 0.000000
Ni 93.825000 18.765000 0.000000
Ni 93.825000 16.680000 2.085000
Ni 91.740000 18.765000 2.085000
Ni 91.740000 16.680000 4.170000
Ni 93.825000 18.765000 4.170000
Ni 93.825000 16.680000 6.255000
Ni 91.740000 18.765000 6.255000
Ni 91.740000 16.680000 8.340000
Ni 93.825000 18.765000 8.340000
Ni 93.825000 16.680000 10.425000
Ni 91.740000 18.765000 10.425000
Ni 91.740000 16.680000 12.510000
Ni 93.825000 18.765000 12.510000
Ni 93.825000 16.680000 14.595000
Ni 91.740000 18.765000 14.595000
Ni 91.740000 16.680000 16.680000
Ni 93.825000 18.765000 16.680000
Ni 93.825000 16.680000 18.765000
Ni 91.740000 18.765000 18.765000
Ni 91.740000 16.680000 20.850000
Ni 93.825000 18.765000 20.850000
Ni 93.825000 16.680000 22.935000
Ni 91.740000 18.765000 22.935000
Ni 91.740000 16.680000 25.020000
Ni 93.825000 18.765000 25.020000
Ni 93.825000 16.680000 27.105000
Ni 91.740000 18.765000 27.105000
Ni 91.740000 16.680000 29.190000
Ni 91.740000 20.850000 0.000000
Ni 93.825000 22.935000 0.000000
Ni 93.825000 20.850000 2.085000
Ni 91.740000 22.935000 2.085000
Ni 91.740000 20.850000 4.170000
Ni 93.825000 22.935000 4.170000
Ni 93.825000 20.850000 6.255000
Ni 91.740000 22.935000 6.255000
Ni 91.740000 20.850000 8.340000
Ni 93.825000 22.935000 8.340000
Ni 93.825000 20.850000 10.425000
Ni 91.740000 22.935000 10.425000
Ni 91.740000 20.850000 12.510000
Ni 93.825000 22.935000 12.510000
Ni 93.825000 20.850000 14.595000
Ni 91.740000 22.935000 14.595000
Ni 91.740000 20.850000 16.680000
Ni 93.825000 22.935000 16.680000
Ni 93.825000 20.850000 18.765000
Ni 91.740000 22.935000 18.765000
Ni 91.740000 20.850000 20.850000
Ni 93.825000 22.935000 20.850000
Ni 93.825000 20.850000 22.935000
Ni 91.740000 22.935000 22.935000
Ni 91.740000 20.850000 25.020000
Ni 93.825000 22.935000 25.020000
Ni 91.740000 22.935000 27.105000
Ni 91.740000 25.020000 0.000000
Ni 93.825000 27.105000 0.000000
Ni 93.825000 25.020000 2.085000
Ni 91.740000 27.105000 2.085000
Ni 91.740000 25.020000 4.170000
Ni 93.825000 27.105000 4.170000
Ni 93.825000 25.020000 6.255000
Ni 91.740000 27.105000 6.255000
Ni 91.740000 25.020000 8.340000
Ni 93.825000 27.105000 8.340000
Ni 93.825000 25.020000 10.425000
Ni 91.740000 27.105000 10.425000
Ni 91.740000 25.020000 12.510000
Ni 93.825000 27.105000 12.510000
Ni 93.825000 25.020000 14.595000
Ni 91.740000 27.105000 14.595000
Ni 91.740000 25.020000 16.680000
Ni 93.825000 27.105000 16.680000
Ni 93.825000 25.020000 18.765000
Ni 91.740000 27.105000 18.765000
Ni 91.740000 25.020000 20.850000
Ni 93.825000 27.105000 20.850000
Ni 93.825000 25.020000 22.935000
Ni 91.740000 27.105000 22.935000
Ni 91.740000 25.020000 25.020000
Ni 93.825000 27.105000 25.020000
Ni 93.825000 25.020000 27.105000
Ni 91.740000 27.105000 27.105000
Ni 91.740000 25.020000 29.190000
Ni 93.825000 27.105000 29.190000
Ni 91.740000 27.105000 31.275000
Ni 91.740000 29.190000 0.000000
Ni 93.825000 31.275000 0.000000
Ni 93.825000 29.190000 2.085000
Ni 91.740000 31.275000 2.085000
Ni 91.740000 29.190000 4.170000
Ni 93.825000 31.275000 4.170000
Ni 93.825000 29.190000 6.255000
Ni 91.740000 31.275000 6.255000
Ni 91.740000 29.190000 8.340000
Ni 93.825000 31.275000 8.340000
Ni 93.825000 29.190000 10.425000
Ni 91.740000 31.275000 10.425000
Ni 91.740000 29.190000 12.510000
Ni 93.825000 31.275000 12.510000
Ni 93.825000 29.190000 14.595000
Ni 91.740000 31.275000 14.595000
Ni 91.740000 29.190000 16.680000
Ni 93.825000 31.275000 16.680000
Ni 93.825000 29.190000 18.765000
Ni 91.740000 31.275000 18.765000
Ni 91.740000 29.190000 20.850000
Ni 93.825000 31.275000 20.850000
Ni 93.825000 29.190000 22.935000
Ni 91.740000 31.275000 22.935000
Ni 91.740000 29.190000 25.020000
Ni 93.825000 31.275000 25.020000
Ni 93.825000 29.190000 27.105000
Ni 91.740000 31.275000 27.105000
Ni 91.740000 29.190000 29.190000
Ni 93.825000 31.275000 29.190000
Ni 93.825000 29.190000 31.275000
Ni 91.740000 31.275000 31.275000
Ni 91.740000 29.190000 33.360000
Ni 93.825000 31.275000 33.360000
Ni 91.740000 31.275000 35.445000
Ni 91.740000 33.360000 0.000000
Ni 93.825000 35.445000 0.000000
Ni 93.825000 33.360000 2.085000
Ni 91.740000 35.445000 2.085000
Ni 91.740000 33.360000 4.170000
Ni 93.825000 35.445000 4.170000
Ni 93.825000 33.360000 6.255000
Ni 91.740000 35.445000 6.255000
Ni 91.740000 33.360000 8.340000
Ni 93.825000 35.445000 8.340000
Ni 93.825000 33.360000 10.425000
Ni 91.740000 35.445000 10.425000
Ni 91.740000 33.360000 12.510000
Ni 93.825000 35.445000 12.510000
Ni 93.825000 33.360000 14.595000
Ni 91.740000 35.445000 14.595000
Ni 91.740000 33.360000 16.680000
Ni 93.825000 35.445000 16.680000
Ni 93.825000 33.360000 18.765000
Ni 91.740000 35.445000 18.765000
Ni 91.740000 33.360000 20.850000
Ni 93.825000 35.445000 20.850000
Ni 93.825000 33.360000 22.935000
Ni 91.740000 35.445000 22.935000
Ni 91.740000 33.360000 25.020000
Ni 93.825000 35.445000 25.020000
Ni 93.825000 33.360000 27.105000
Ni 91.740000 35.445000 27.105000
Ni 91.740000 33.360000 29.190000
Ni 93.825000 35.445000 29.190000
Ni 93.825000 33.360000 31.275000
Ni 91.740000 35.445000 31.275000
Ni 91.740000 33.360000 33.360000
Ni 93.825000 35.445000 33.360000
Ni 93.825000 33.360000 35.445000
Ni 91.740000 35.445000 35.445000
Ni 91.740000 33.360000 37.530000
Ni 93.825000 35.445000 37.530000
Ni 91.740000 35.445000 39.615000
Ni 91.740000 37.530000 0.000000
Ni 93.825000 39.615000 0.000000
Ni 93.825000 37.530000 2.085000
Ni 91.740000 39.615000 2.085000
Ni 91.740000 37.530000 4.170000
Ni 93.825000 39.615000 4.170000
Ni 93.825000 37.530000 6.255000
Ni 91.740000 39.615000 6.255000
Ni 91.740000 37.530000 8.340000
Ni 93.825000 39.615000 8.340000
Ni 93.825000 37.530000 10.425000
Ni 91.740000 39.615000 10.425000
Ni 91.740000 37.530000 12.510000
Ni 93.825000 39.615000 12.510000
Ni 93.825000 37.530000 14.595000
Ni 91.740000 39.615000 14.595000
Ni 91.740000 37.530000 16.680000
Ni 93.825000 39.615000 16.680000
Ni 93.825000 37.530000 18.765000
Ni 91.740000 39.615000 18.765000
Ni 91.740000 37.530000 20.850000
Ni 93.825000 39.615000 20.850000
Ni 93.825000 37.530000 22.935000
Ni 91.740000 39.615000 22.935000
Ni 91.740000 37.530000 25.020000
Ni 93.825000 39.615000 25.020000
Ni 93.825000 37.530000 27.105000
Ni 91.740000 39.615000 27.105000
Ni 91.740000 37.530000 29.190000
Ni 93.825000 39.615000 29.190000
Ni 93.825000 37.530000 31.275000
Ni 91.740000 39.615000 31.275000
Ni 91.740000 37.530000 33.360000
Ni 93.825000 39.615000 33.360000
Ni 93.825000 37.530000 35.445000
Ni 91.740000 39.615000 35.445000
Ni 91.740000 37.530000 37.530000
Ni 93.825000 39.615000 37.530000
Ni 93.825000 37.530000 39.615000
Ni 91.740000 39.615000 39.615000
Ni 95.910000 0.000000 0.000000
Ni 97.995000 2.085000 0.000000
Ni 97.995000 0.000000 2.085000
Ni 95.910000 2.085000 2.085000
Ni 95.910000 0.000000 4.170000
Ni 97.995000 2.085000 4.170000
Ni 97.995000 0.000000 6.255000
Ni 95.910000 2.085000 6.255000
Ni 95.910000 0.000000 8.340000
Ni 97.995000 2.085000 8.340000
Ni 97.995000 0.000000 10.425000
Ni 95.910000 2.085000 10.425000
Ni 95.910000 0.000000 12.510000
Ni 97.995000 2.085000 12.510000
Ni 97.995000 0.000000 14.595000
Ni 95.910000 2.085000 14.595000
Ni 95.910000 0.000000 16.680000
Ni 97.995000 2.085000 16.680000
Ni 97.995000 0.000000 18.765000
Ni 95.910000 2.085000 18.765000
Ni 95.910000 0.000000 20.850000
Ni 97.995000 2.085000 20.850000
Ni 97.995000 0.000000 22.935000
Ni 95.910000 2.085000 22.935000
Ni 95.910000 0.000000 25.020000
Ni 97.995000 2.085000 25.020000
Ni 97.995000 0.000000 27.105000
Ni 95.910000 2.085000 27.105000
Ni 95.910000 0.000000 29.190000
Ni 97.995000 2.085000 29.190000
Ni 97.995000 0.000000 31.275000
Ni 95.910000 2.085000 31.275000
Ni 95.910000 0.000000 33.360000
Ni 97.995000 2.085000 33.360000
Ni 97.995000 0.000000 35.445000
Ni 95.910000 2.085000 35.445000
Ni 95.910000 0.000000 37.530000
Ni 97.995000 2.085000 37.530000
Ni 97.995000 0.000000 39.615000
Ni 95.910000 2.085000 39.615000
Ni 95.910000 4.170000 0.000000
Ni 97.995000 6.255000 0.000000
Ni 97.995000 4.170000 2.085000
Ni 95.910000 6.255000 2.085000
Ni 95.910000 4.170000 4.170000
Ni 97.995000 6.255000 4.170000
Ni 97.995000 4.170000 6.255000
Ni 95.910000 6.255000 6.255000
Ni 95.910000 4.170000 8.340000
Ni 97.995000 6.255000 8.340000
Ni 97.995000 4.170000 10.425000
Ni 95.910000 6.255000 10.425000
Ni 95.910000 4.170000 12.510000
Ni 97.995000 6.255000 12.510000
Ni 97.995000 4.170000 14.595000
Ni 95.910000 6.255000 14.595000
Ni 95.910000 4.170000 16.680000
Ni 97.995000 6.255000 16.680000
Ni 97.995000 4.170000 18.765000
Ni 95.910000 6.255000 18.765000
Ni 95.910000 4.170000 20.850000
Ni 97.995000 6.255000 20.850000
Ni 97.995000 4.170000 22.935000
Ni 95.910000 6.255000 22.935000
Ni 95.910000 4.170000 25.020000
Ni 97.995000 6.255000 25.020000
Ni 97.995000 4.170000 27.105000
Ni 95.910000 6.255000 27.105000
Ni 95.910000 4.170000 29.190000
Ni 97.995000 6.255000 29.190000
Ni 97.995000 4.170000 31.275000
Ni 95.910000 6.255000 31.275000
Ni 95.910000 4.170000 33.360000
Ni 97.995000 6.255000 33.360000
Ni 97.995000 4.170000 35.445000
Ni 95.910000 6.255000 35.445000
Ni 95.910000 4.170000 37.530000
Ni 97.995000 6.255000 37.530000
Ni 97.995000 4.170000 39.615000
Ni 95.910000 6.255000 39.615000
Ni 95.910000 8.340000 0.000000
Ni 97.995000 10.425000 0.000000
Ni 97.995000 8.340000 2.085000
Ni 95.910000 10.425000 2.085000
Ni 95.910000 8.340000 4.170000
Ni 97.995000 10.425000 4.170000
Ni 97.995000 8.340000 6.255000
Ni 95.910000 10.425000 6.255000
Ni 95.910000 8.340000 8.340000
Ni 97.995000 10.425000 8.340000
Ni 97.995000 8.340000 10.425000
Ni 95.910000 10.425000 10.425000
Ni 95.910000 8.340000 12.510000
Ni 97.995000 10.425000 12.510000
Ni 97.995000 8.340000 14.595000
Ni 95.910000 10.425000 14.595000
Ni 95.910000 8.340000 16.680000
Ni 97.995000 10.425000 16.680000
Ni 97.995000 8.340000 18.765000
Ni 95.910000 10.425000 18.765000
Ni 95.910000 8.340000 20.850000
Ni 97.995000 10.425000 20.850000
Ni 97.995000 8.340000 22.935000
Ni 95.910000 10.425000 22.935000
Ni 95.910000 8.340000 25.020000
Ni 97.995000 10.425000 25.020000
Ni 97.995000 8.340000 27.105000
Ni 95.910000 10.425000 27.105000
Ni 95.910000 8.340000 29.190000
Ni 97.995000 10.425000 29.190000
Ni 97.995000 8.340000 31.275000
Ni 95.910000 10.425000 31.275000
Ni 95.910000 8.340000 33.360000
Ni 97.995000 10.425000 33.360000
Ni 97.995000 8.340000 35.445000
Ni 95.910000 10.425000 35.445000
Ni 95.910000 8.340000 37.530000
Ni 95.910000 12.510000 0.000000
Ni 97.995000 14.595000 0.000000
Ni 97.995000 12.510000 2.085000
Ni 95.910000 14.595000 2.085000
Ni 95.910000 12.510000 4.170000
Ni 97.995000 14.595000 4.170000
Ni 97.995000 12.510000 6.255000
Ni 95.910000 14.595000 6.255000
Ni 95.910000 12.510000 8.340000
Ni 97.995000 14.595000 8.340000
Ni 97.995000 12.510000 10.425000
Ni 95.910000 14.595000 10.425000
Ni 95.910000 12.510000 12.510000
Ni 97.995000 14.595000 12.510000
Ni 97.995000 12.510000 14.595000
Ni 95.910000 14.595000 14.595000
Ni 95.910000 12.510000 16.680000
Ni 97.995000 14.595000 16.680000
Ni 97.995000 12.510000 18.765000
Ni 95.910000 14.595000 18.765000
Ni 95.910000 12.510000 20.850000
Ni 97.995000 14.595000 20.850000
Ni 97.995000 12.510000 22.935000
Ni 95.910000 14.595000 22.935000
Ni 95.910000 12.510000 25.020000
Ni 97.995000 14.595000 25.020000
Ni 97.995000 12.510000 27.105000
Ni 95.910000 14.595000 27.105000
Ni 95.910000 12.510000 29.190000
Ni 97.995000 14.595000 29.190000
Ni 97.995000 12.510000 31.275000
Ni 95.910000 14.595000 31.275000
Ni 95.910000 12.510000 33.360000
Ni 95.910000 16.680000 0.000000
Ni 97.995000 18.765000 0.000000
Ni 97.995000 16.680000 2.085000
Ni 95.910000 18.765000 2.085000
Ni 95.910000 16.680000 4.170000
Ni 97.995000 18.765000 4.170000
Ni 97.995000 16.680000 6.255000
Ni 95.910000 18.765000 6.255000
Ni 95.910000 16.680000 8.340000
Ni 97.995000 18.765000 8.340000
Ni 97.995000 16.680000 10.425000
Ni 95.910000 18.765000 10.425000
Ni 95.910000 16.680000 12.510000
Ni 97.995000 18.765000 12.510000
Ni 97.995000 16.680000 14.595000
Ni 95.910000 18.765000 14.595000
Ni 95.910000 16.680000 16.680000
Ni 97.995000 18.765000 16.680000
Ni 97.995000 16.680000 18.765000
Ni 95.910000 18.765000 18.765000
Ni 95.910000 16.680000 20.850000
Ni 97.995000 18.765000 20.850000
Ni 97.995000 16.680000 22.935000
Ni 95.910000 18.765000 22.935000
Ni 95.910000 16.680000 25.020000
Ni 97.995000 18.765000 25.020000
Ni 97.995000 16.680000 27.105000
Ni 95.910000 18.765000 27.105000
Ni 95.910000 16.680000 29.190000
Ni 95.910000 20.850000 0.000000
Ni 97.995000 22.935000 0.000000
Ni 97.995000 20.850000 2.085000
Ni 95.910000 22.935000 2.085000
Ni 95.910000 20.850000 4.170000
Ni 97.995000 22.935000 4.170000
Ni 97.995000 20.850000 6.255000
Ni 95.910000 22.935000 6.255000
Ni 95.910000 20.850000 8.340000
Ni 97.995000 22.935000 8.340000
Ni 97.995000 20.850000 10.425000
Ni 95.910000 22.935000 10.425000
Ni 95.910000 20.850000 12.510000
Ni 97.995000 22.935000 12.510000
Ni 97.995000 20.850000 14.595000
Ni 95.910000 22.935000 14.595000
Ni 95.910000 20.850000 16.680000
Ni 97.995000 22.935000 16.680000
Ni 97.995000 20.850000 18.765000
Ni 95.910000 22.935000 18.765000
Ni 95.910000 20.850000 20.850000
Ni 97.995000 22.935000 20.850000
Ni 97.995000 20.850000 22.935000
Ni 95.910000 22.935000 22.935000
Ni 95.910000 20.850000 25.020000
Ni 97.995000 22.935000 25.020000
Ni 95.910000 22.935000 27.105000
Ni 95.910000 25.020000 0.000000
Ni 97.995000 27.105000 0.000000
Ni 97.995000 25.020000 2.085000
Ni 95.910000 27.105000 2.085000
Ni 95.910000 25.020000 4.170000
Ni 97.995000 27.105000 4.170000
Ni 97.995000 25.020000 6.255000
Ni 95.910000 27.105000 6.255000
Ni 95.910000 25.020000 8.340000
Ni 97.995000 27.105000 8.340000
Ni 97.995000 25.020000 10.425000
Ni 95.910000 27.105000 10.425000
Ni 95.910000 25.020000 12.510000
Ni 97.995000 27.105000 12.510000
Ni 97.995000 25.020000 14.595000
Ni 95.910000 27.105000 14.595000
Ni 95.910000 25.020000 16.680000
Ni 97.995000 27.105000 16.680000
Ni 97.995000 25.020000 18.765000
Ni 95.910000 27.105000 18.765000
Ni 95.910000 25.020000 20.850000
Ni 97.995000 27.105000 20.850000
Ni 97.995000 25.020000 22.935000
Ni 95.910000 27.105000 22.935000
Ni 95.910000 25.020000 25.020000
Ni 97.995000 27.105000 25.020000
Ni 97.995000 25.020000 27.105000
Ni 95.910000 27.105000 27.105000
Ni 95.910000 25.020000 29.190000
Ni 97.995000 27.105000 29.190000
Ni 95.910000 27.105000 31.275000
Ni 95.910000 29.190000 0.000000
Ni 97.995000 31.275000 0.000000
Ni 97.995000 29.190000 2.085000
Ni 95.910000 31.275000 2.085000
Ni 95.910000 29.190000 4.170000
Ni 97.995000 31.275000 4.170000
Ni 97.995000 29.190000 6.255000
Ni 95.910000 31.275000 6.255000
Ni 95.910000 29.190000 8.340000
Ni 97.995000 31.275000 8.340000
Ni 97.995000 29.190000 10.425000
Ni 95.910000 31.275000 10.425000
Ni 95.910000 29.190000 12.510000
Ni 97.995000 31.275000 12.510000
Ni 97.995000 29.190000 14.595000
Ni 95.910000 31.275000 14.595000
Ni 95.910000 29.190000 16.680000
Ni 97.995000 31.275000 16.680000
Ni 97.995000 29.190000 18.765000
Ni 95.910000 31.275000 18.765000
Ni 95.910000 29.190000 20.850000
Ni 97.995000 31.275000 20.850000
Ni 97.995000 29.190000 22.935000
Ni 95.910000 31.275000 22.935000
Ni 95.910000 29.190000 25.020000
Ni 97.995000 31.275000 25.020000
Ni 97.995000 29.190000 27.105000
Ni 95.910000 31.275000 27.105000
Ni 95.910000 29.190000 29.190000
Ni 97.995000 31.275000 29.190000
Ni 97.995000 29.190000 31.275000
Ni 95.910000 31.275000 31.275000
Ni 95.910000 29.190000 33.360000
Ni 97.995000 31.275000 33.360000
Ni 95.910000 31.275000 35.445000
Ni 95.910000 33.360000 0.000000
Ni 97.995000 35.445000 0.000000
Ni 97.995000 33.360000 2.085000
Ni 95.910000 35.445000 2.085000
Ni 95.910000 33.360000 4.170000
Ni 97.995000 35.445000 4.170000
Ni 97.995000 33.360000 6.255000
Ni 95.910000 35.445000 6.255000
Ni 95.910000 33.360000 8.340000
Ni 97.995000 35.445000 8.340000
Ni 97.995000 33.360000 10.425000
Ni 95.910000 35.445000 10.425000
Ni 95.910000 33.360000 12.510000
Ni 97.995000 35.445000 12.510000
Ni 97.995000 33.360000 14.595000
Ni 95.910000 35.445000 14.595000
Ni 95.910000 33.360000 16.680000
Ni 97.995000 35.445000 16.680000
Ni 97.995000 33.360000 18.765000
Ni 95.910000 35.445000 18.765000
Ni 95.910000 33.360000 20.850000
Ni 97.995000 35.445000 20.850000
Ni 97.995000 33.360000 22.935000
Ni 95.910000 35.445000 22.935000
Ni 95.910000 33.360000 25.020000
Ni 97.995000 35.445000 25.020000
Ni 97.995000 33.360000 27.105000
Ni 95.910000 35.445000 27.105000
Ni 95.910000 33.360000 29.190000
Ni 97.995000 35.445000 29.190000
Ni 97.995000 33.360000 31.275000
Ni 95.910000 35.445000 31.275000
Ni 95.910000 33.360000 33.360000
Ni 97.995000 35.445000 33.360000
Ni 97.995000 33.360000 35.445000
Ni 95.910000 35.445000 35.445000
Ni 95.910000 33.360000 37.530000
Ni 97.995000 35.445000 37.530000
Ni 95.910000 35.445000 39.615000
Ni 95.910000 37.530000 0.000000
Ni 97.995000 39.615000 0.000000
Ni 97.995000 37.530000 2.085000
Ni 95.910000 39.615000 2.085000
Ni 95.910000 37.530000 4.170000
Ni 97.995000 39.615000 4.170000
Ni 97.995000 37.530000 6.255000
Ni 95.910000 39.615000 6.255000
Ni 95.910000 37.530000 8.340000
Ni 97.995000 39.615000 8.340000
Ni 97.995000 37.530000 10.425000
Ni 95.910000 39.615000 10.425000
Ni 95.910000 37.530000 12.510000
Ni 97.995000 39.615000 12.510000
Ni 97.995000 37.530000 14.595000
Ni 95.910000 39.615000 14.595000
Ni 95.910000 37.530000 16.680000
Ni 97.995000 39.615000 16.680000
Ni 97.995000 37.530000 18.765000
Ni 95.910000 39.615000 18.765000
Ni 95.910000 37.530000 20.850000
Ni 97.995000 39.615000 20.850000
Ni 97.995000 37.530000 22.935000
Ni 95.910000 39.615000 22.935000
Ni 95.910000 37.530000 25.020000
Ni 97.995000 39.615000 25.020000
Ni 97.995000 37.530000 27.105000
Ni 95.910000 39.615000 27.105000
Ni 95.910000 37.530000 29.190000
Ni 97.995000 39.615000 29.190000
Ni 97.995000 37.530000 31.275000
Ni 95.910000 39.615000 31.275000
Ni 95.910000 37.530000 33.360000
Ni 97.995000 39.615000 33.360000
Ni 97.995000 37.530000 35.445000
Ni 95.910000 39.615000 35.445000
Ni 95.910000 37.530000 37.530000
Ni 97.995000 39.615000 37.530000
Ni 97.995000 37.530000 39.615000
Ni 95.910000 39.615000 39.615000
Ni 100.080000 0.000000 0.000000
Ni 102.165000 2.085000 0.000000
Ni 102.165000 0.000000 2.085000
Ni 100.080000 2.085000 2.085000
Ni 100.080000 0.000000 4.170000
Ni 102.165000 2.085000 4.170000
Ni 102.165000 0.000000 6.255000
Ni 100.080000 2.085000 6.255000
Ni 100.080000 0.000000 8.340000
Ni 102.165000 2.085000 8.340000
Ni 102.165000 0.000000 10.425000
Ni 100.080000 2.085000 10.425000
Ni 100.080000 0.000000 12.510000
Ni 102.165000 2.085000 12.510000
Ni 102.165000 0.000000 14.595000
Ni 100.080000 2.085000 14.595000
Ni 100.080000 0.000000 16.680000
Ni 102.165000 2.085000 16.680000
Ni 102.165000 0.000000 18.765000
Ni 100.080000 2.085000 18.765000
Ni 100.080000 0.000000 20.850000
Ni 102.165000 2.085000 20.850000
Ni 102.165000 0.000000 22.935000
Ni 100.080000 2.085000 22.935000
Ni 100.080000 0.000000 25.020000
Ni 102.165000 2.085000 25.020000
Ni 102.165000 0.000000 27.105000
Ni 100.080000 2.085000 27.105000
Ni 100.080000 0.000000 29.190000
Ni 102.165000 2.085000 29.190000
Ni 102.165000 0.000000 31.275000
Ni 100.080000 2.085000 31.275000
Ni 100.080000 0.000000 33.360000
Ni 102.165000 2.085000 33.360000
Ni 102.165000 0.000000 35.445000
Ni 100.080000 2.085000 35.445000
Ni 100.080000 0.000000 37.530000
Ni 102.165000 2.085000 37.530000
Ni 102.165000 0.000000 39.615000
Ni 100.080000 2.085000 39.615000
Ni 100.080000 4.170000 0.000000
Ni 102.165000 6.255000 0.000000
Ni 102.165000 4.170000 2.085000
Ni 100.080000 6.255000 2.085000
Ni 100.080000 4.170000 4.170000
Ni 102.165000 6.255000 4.170000
Ni 102.165000 4.170000 6.255000
Ni 100.080000 6.255000 6.255000
Ni 100.080000 4.170000 8.340000
Ni 102.165000 6.255000 8.340000
Ni 102.165000 4.170000 10.425000
Ni 100.080000 6.255000 10.425000
Ni 100.080000 4.170000 12.510000
Ni 102.165000 6.255000 12.510000
Ni 102.165000 4.170000 14.595000
Ni 100.080000 6.255000 14.595000
Ni 100.080000 4.170000 16.680000
Ni 102.165000 6.255000 16.680000
Ni 102.165000 4.170000 18.765000
Ni 100.080000 6.255000 18.765000
Ni 100.080000 4.170000 20.850000
Ni 102.165000 6.255000 20.850000
Ni 102.165000 4.170000 22.935000
Ni 100.080000 6.255000 22.935000
Ni 100.080000 4.170000 25.020000
Ni 102.165000 6.255000 25.020000
Ni 102.165000 4.170000 27.105000
Ni 100.080000 6.255000 27.105000
Ni 100.080000 4.170000 29.190000
Ni 102.165000 6.255000 29.190000
Ni 102.165000 4.170000 31.275000
Ni 100.080000 6.255000 31.275000
Ni 100.080000 4.170000 33.360000
Ni 102.165000 6.255000 33.360000
Ni 102.165000 4.170000 35.445000
Ni 100.080000 6.255000 35.445000
Ni 100.080000 4.170000 37.530000
Ni 102.165000 6.255000 37.530000
Ni 102.165000 4.170000 39.615000
Ni 100.080000 6.255000 39.615000
Ni 100.080000 8.340000 0.000000
Ni 102.165000 10.425000 0.000000
Ni 102.165000 8.340000 2.085000
Ni 100.080000 10.425000 2.085000
Ni 100.080000 8.340000 4.170000
Ni 102.165000 10.425000 4.170000
Ni 102.165000 8.340000 6.255000
Ni 100.080000 10.425000 6.255000
Ni 100.080000 8.340000 8.340000
Ni 102.165000 10.425000 8.340000
Ni 102.165000 8.340000 10.425000
Ni 100.080000 10.425000 10.425000
Ni 100.080000 8.340000 12.510000
Ni 102.165000 10.425000 12.510000
Ni 102.165000 8.340000 14.595000
Ni 100.080000 10.425000 14.595000
Ni 100.080000 8.340000 16.680000
Ni 102.165000 10.425000 16.680000
Ni 102.165000 8.340000 18.765000
Ni 100.080000 10.425000 18.765000
Ni 100.080000 8.340000 20.850000
Ni 102.165000 10.425000 20.850000
Ni 102.165000 8.340000 22.935000
Ni 100.080000 10.425000 22.935000
Ni 100.080000 8.340000 25.020000
Ni 102.165000 10.425000 25.020000
Ni 102.165000 8.340000 27.105000
Ni 100.080000 10.425000 27.105000
Ni 100.080000 8.340000 29.190000
Ni 102.165000 10.425000 29.190000
Ni 102.165000 8.340000 31.275000
Ni 100.080000 10.425000 31.275000
Ni 100.080000 8.340000 33.360000
Ni 102.165000 10.425000 33.360000
Ni 102.165000 8.340000 35.445000
Ni 100.080000 10.425000 35.445000
Ni 100.080000 8.340000 37.530000
Ni 100.080000 12.510000 0.000000
Ni 102.165000 14.595000 0.000000
Ni 102.165000 12.510000 2.085000
Ni 100.080000 14.595000 2.085000
Ni 100.080000 12.510000 4.170000
Ni 102.165000 14.595000 4.170000
Ni 102.165000 12.510000 6.255000
Ni 100.080000 14.595000 6.255000
Ni 100.080000 12.510000 8.340000
Ni 102.165000 14.595000 8.340000
Ni 102.165000 12.510000 10.425000
Ni 100.080000 14.595000 10.425000
Ni 100.080000 12.510000 12.510000
Ni 102.165000 14.595000 12.510000
Ni 102.165000 12.510000 14.595000
Ni 100.080000 14.595000 14.595000
Ni 100.080000 12.510000 16.680000
Ni 102.165000 14.595000 16.680000
Ni 102.165000 12.510000 18.765000
Ni 100.080000 14.595000 18.765000
Ni 100.080000 12.510000 20.850000
Ni 102.165000 14.595000 20.850000
Ni 102.165000 12.510000 22.935000
Ni 100.080000 14.595000 22.935000
Ni 100.080000 12.510000 25.020000
Ni 102.165000 14.595000 25.020000
Ni 102.165000 12.510000 27.105000
Ni 100.080000 14.595000 27.105000
Ni 100.080000 12.510000 29.190000
Ni 102.165000 14.595000 29.190000
Ni 102.165000 12.510000 31.275000
Ni 100.080000 14.595000 31.275000
Ni 100.080000 12.510000 33.360000
Ni 100.080000 16.680000 0.000000
Ni 102.165000 18.765000 0.000000
Ni 102.165000 16.680000 2.085000
Ni 100.080000 18.765000 2.085000
Ni 100.080000 16.680000 4.170000
Ni 102.165000 18.765000 4.170000
Ni 102.165000 16.680000 6.255000
Ni 100.080000 18.765000 6.255000
Ni 100.080000 16.680000 8.340000
Ni 102.165000 18.765000 8.340000
Ni 102.165000 16.680000 10.425000
Ni 100.080000 18.765000 10.425000
Ni 100.080000 16.680000 12.510000
Ni 102.165000 18.765000 12.510000
Ni 102.165000 16.680000 14.595000
Ni 100.080000 18.765000 14.595000
Ni 100.080000 16.680000 16.680000
Ni 102.165000 18.765000 16.680000
Ni 102.165000 16.680000 18.765000
Ni 100.080000 18.765000 18.765000
Ni 100.080000 16.680000 20.850000
Ni 102.165000 18.765000 20.850000
Ni 102.165000 16.680000 22.935000
Ni 100.080000 18.765000 22.935000
Ni 100.080000 16.680000 25.020000
Ni 102.165000 18.765000 25.020000
Ni 102.165000 16.680000 27.105000
Ni 100.080000 18.765000 27.105000
Ni 100.080000 16.680000 29.190000
Ni 100.080000 20.850000 0.000000
Ni 102.165000 22.935000 0.000000
Ni 102.165000 20.850000 2.085000
Ni 100.080000 22.935000 2.085000
Ni 100.080000 20.850000 4.170000
Ni 102.165000 22.935000 4.170000
Ni 102.165000 20.850000 6.255000
Ni 100.080000 22.935000 6.255000
Ni 100.080000 20.850000 8.340000
Ni 102.165000 22.935000 8.340000
Ni 102.165000 20.850000 10.425000
Ni 100.080000 22.935000 10.425000
Ni 100.080000 20.850000 12.510000
Ni 102.165000 22.935000 12.510000
Ni 102.165000 20.850000 14.595000
Ni 100.080000 22.935000 14.595000
Ni 100.080000 20.850000 16.680000
Ni 102.165000 22.935000 16.680000
Ni 102.165000 20.850000 18.765000
Ni 100.080000 22.935000 18.765000
Ni 100.080000 20.850000 20.850000
Ni 102.165000 22.935000 20.850000
Ni 102.165000 20.850000 22.935000
Ni 100.080000 22.935000 22.935000
Ni 100.080000 20.850000 25.020000
Ni 102.165000 22.935000 25.020000
Ni 100.080000 22.935000 27.105000
Ni 100.080000 25.020000 0.000000
Ni 102.165000 27.105000 0.000000
Ni 102.165000 25.020000 2.085000
Ni 100.080000 27.105000 2.085000
Ni 100.080000 25.020000 4.170000
Ni 102.165000 27.105000 4.170000
Ni 102.165000 25.020000 6.255000
Ni 100.080000 27.105000 6.255000
Ni 100.080000 25.020000 8.340000
Ni 102.165000 27.105000 8.340000
Ni 102.165000 25.020000 10.425000
Ni 100.080000 27.105000 10.425000
Ni 100.080000 25.020000 12.510000
Ni 102.165000 27.105000 12.510000
Ni 102.165000 25.020000 14.595000
Ni 100.080000 27.105000 14.595000
Ni 100.080000 25.020000 16.680000
Ni 102.165000 27.105000 16.680000
Ni 102.165000 25.020000 18.765000
Ni 100.080000 27.105000 18.765000
Ni 100.080000 25.020000 20.850000
Ni 102.165000 27.105000 20.850000
Ni 102.165000 25.020000 22.935000
Ni 100.080000 27.105000 22.935000
Ni 100.080000 25.020000 25.020000
Ni 102.165000 27.105000 25.020000
Ni 102.165000 25.020000 27.105000
Ni 100.080000 27.105000 27.105000
Ni 100.080000 25.020000 29.190000
Ni 102.165000 27.105000 29.190000
Ni 100.080000 27.105000 31.275000
Ni 100.080000 29.190000 0.000000
Ni 102.165000 31.275000 0.000000
Ni 102.165000 29.190000 2.085000
Ni 100.080000 31.275000 2.085000
Ni 100.080000 29.190000 4.170000
Ni 102.165000 31.275000 4.170000
Ni 102.165000 29.190000 6.255000
Ni 100.080000 31.275000 6.255000
Ni 100.080000 29.190000 8.340000
Ni 102.165000 31.275000 8.340000
Ni 102.165000 29.190000 10.425000
Ni 100.080000 31.275000 10.425000
Ni 100.080000 29.190000 12.510000
Ni 102.165000 31.275000 12.510000
Ni 102.165000 29.190000 14.595000
Ni 100.080000 31.275000 14.595000
Ni 100.080000 29.190000 16.680000
Ni 102.165000 31.275000 16.680000
Ni 102.165000 29.190000 18.765000
Ni 100.080000 31.275000 18.765000
Ni 100.080000 29.190000 20.850000
Ni 102.165000 31.275000 20.850000
Ni 102.165000 29.190000 22.935000
Ni 100.080000 31.275000 22.935000
Ni 100.080000 29.190000 25.020000
Ni 102.165000 31.275000 25.020000
Ni 102.165000 29.190000 27.105000
Ni 100.080000 31.275000 27.105000
Ni 100.080000 29.190000 29.190000
Ni 102.165000 31.275000 29.190000
Ni 102.165000 29.190000 31.275000
Ni 100.080000 31.275000 31.275000
Ni 100.080000 29.190000 33.360000
Ni 102.165000 31.275000 33.360000
Ni 100.080000 31.275000 35.445000
Ni 100.080000 33.360000 0.000000
Ni 102.165000 35.445000 0.000000
Ni 102.165000 33.360000 2.085000
Ni 100.080000 35.445000 2.085000
Ni 100.080000 33.360000 4.170000
Ni 102.165000 35.445000 4.170000
Ni 102.165000 33.360000 6.255000
Ni 100.080000 35.445000 6.255000
Ni 100.080000 33.360000 8.340000
Ni 102.165000 35.445000 8.340000
Ni 102.165000 33.360000 10.425000
Ni 100.080000 35.445000 10.425000
Ni 100.080000 33.360000 12.510000
Ni 102.165000 35.445000 12.510000
Ni 102.165000 33.360000 14.595000
Ni 100.080000 35.445000 14.595000
Ni 100.080000 33.360000 16.680000
Ni 102.165000 35.445000 16.680000
Ni 102.165000 33.360000 18.765000
Ni 100.080000 35.445000 18.765000
Ni 100.080000 33.360000 20.850000
Ni 102.165000 35.445000 20.850000
Ni 102.165000 33.360000 22.935000
Ni 100.080000 35.445000 22.935000
Ni 100.080000 33.360000 25.020000
Ni 102.165000 35.445000 25.020000
Ni 102.165000 33.360000 27.105000
Ni 100.080000 35.445000 27.105000
Ni 100.080000 33.360000 29.190000
Ni 102.165000 35.445000 29.190000
Ni 102.165000 33.360000 31.275000
Ni 100.080000 35.445000 31.275000
Ni 100.080000 33.360000 33.360000
Ni 102.165000 35.445000 33.360000
Ni 102.165000 33.360000 35.445000
Ni 100.080000 35.445000 35.445000
Ni 100.080000 33.360000 37.530000
Ni 102.165000 35.445000 37.530000
Ni 100.080000 35.445000 39.615000
Ni 100.080000 37.530000 0.000000
Ni 102.165000 39.615000 0.000000
Ni 102.165000 37.530000 2.085000
Ni 100.080000 39.615000 2.085000
Ni 100.080000 37.530000 4.170000
Ni 102.165000 39.615000 4.170000
Ni 102.165000 37.530000 6.255000
Ni 100.080000 39.615000 6.255000
Ni 100.080000 37.530000 8.340000
Ni 102.165000 39.615000 8.340000
Ni 102.165000 37.530000 10.425000
Ni 100.080000 39.615000 10.425000
Ni 100.080000 37.530000 12.510000
Ni 102.165000 39.615000 12.510000
Ni 102.165000 37.530000 14.595000
Ni 100.080000 39.615000 14.595000
Ni 100.080000 37.530000 16.680000
Ni 102.165000 39.615000 16.680000
Ni 102.165000 37.530000 18.765000
Ni 100.080000 39.615000 18.765000
Ni 100.080000 37.530000 20.850000
Ni 102.165000 39.615000 20.850000
Ni 102.165000 37.530000 22.935000
Ni 100.080000 39.615000 22.935000
Ni 100.080000 37.530000 25.020000
Ni 102.165000 39.615000 25.020000
Ni 102.165000 37.530000 27.105000
Ni 100.080000 39.615000 27.105000
Ni 100.080000 37.530000 29.190000
Ni 102.165000 39.615000 29.190000
Ni 102.165000 37.530000 31.275000
Ni 100.080000 39.615000 31.275000
Ni 100.080000 37.530000 33.360000
Ni 102.165000 39.615000 33.360000
Ni 102.165000 37.530000 35.445000
Ni 100.080000 39.615000 35.445000
Ni 100.080000 37.530000 37.530000
Ni 102.165000 39.615000 37.530000
Ni 102.165000 37.530000 39.615000
Ni 100.080000 39.615000 39.615000
Ni 104.250000 0.000000 0.000000
Ni 106.335000 2.085000 0.000000
Ni 106.335000 0.000000 2.085000
Ni 104.250000 2.085000 2.085000
Ni 104.250000 0.000000 4.170000
Ni 106.335000 2.085000 4.170000
Ni 106.335000 0.000000 6.255000
Ni 104.250000 2.085000 6.255000
Ni 104.250000 0.000000 8.340000
Ni 106.335000 2.085000 8.340000
Ni 106.335000 0.000000 10.425000
Ni 104.250000 2.085000 10.425000
Ni 104.250000 0.000000 12.510000
Ni 106.335000 2.085000 12.510000
Ni 106.335000 0.000000 14.595000
Ni 104.250000 2.085000 14.595000
Ni 104.250000 0.000000 16.680000
Ni 106.335000 2.085000 16.680000
Ni 106.335000 0.000000 18.765000
Ni 104.250000 2.085000 18.765000
Ni 104.250000 0.000000 20.850000
Ni 106.335000 2.085000 20.850000
Ni 106.335000 0.000000 22.935000
Ni 104.250000 2.085000 22.935000
Ni 104.250000 0.000000 25.020000
Ni 106.335000 2.085000 25.020000
Ni 106.335000 0.000000 27.105000
Ni 104.250000 2.085000 27.105000
Ni 104.250000 0.000000 29.190000
Ni 106.335000 2.085000 29.190000
Ni 106.335000 0.000000 31.275000
Ni 104.250000 2.085000 31.275000
Ni 104.250000 0.000000 33.360000
Ni 106.335000 2.085000 33.360000
Ni 106.335000 0.000000 35.445000
Ni 104.250000 2.085000 35.445000
Ni 104.250000 0.000000 37.530000
Ni 106.335000 2.085000 37.530000
Ni 106.335000 0.000000 39.615000
Ni 104.250000 2.085000 39.615000
Ni 104.250000 4.170000 0.000000
Ni 106.335000 6.255000 0.000000
Ni 106.335000 4.170000 2.085000
Ni 104.250000 6.255000 2.085000
Ni 104.250000 4.170000 4.170000
Ni 106.335000 6.255000 4.170000
Ni 106.335000 4.170000 6.255000
Ni 104.250000 6.255000 6.255000
Ni 104.250000 4.170000 8.340000
Ni 106.335000 6.255000 8.340000
Ni 106.335000 4.170000 10.425000
Ni 104.250000 6.255000 10.425000
Ni 104.250000 4.170000 12.510000
Ni 106.335000 6.255000 12.510000
Ni 106.335000 4.170000 14.595000
Ni 104.250000 6.255000 14.595000
Ni 104.250000 4.170000 16.680000
Ni 106.335000 6.255000 16.680000
Ni 106.335000 4.170000 18.765000
Ni 104.250000 6.255000 18.765000
Ni 104.250000 4.170000 20.850000
Ni 106.335000 6.255000 20.850000
Ni 106.335000 4.170000 22.935000
Ni 104.250000 6.255000 22.935000
Ni 104.250000 4.170000 25.020000
Ni 106.335000 6.255000 25.020000
Ni 106.335000 4.170000 27.105000
Ni 104.250000 6.255000 27.105000
Ni 104.250000 4.170000 29.190000
Ni 106.335000 6.255000 29.190000
Ni 106.335000 4.170000 31.275000
Ni 104.250000 6.255000 31.275000
Ni 104.250000 4.170000 33.360000
Ni 106.335000 6.255000 33.360000
Ni 106.335000 4.170000 35.445000
Ni 104.250000 6.255000 35.445000
Ni 104.250000 4.170000 37.530000
Ni 106.335000 6.255000 37.530000
Ni 106.335000 4.170000 39.615000
Ni 104.250000 6.255000 39.615000
Ni 104.250000 8.340000 0.000000
Ni 106.335000 10.425000 0.000000
Ni 106.335000 8.340000 2.085000
Ni 104.250000 10.425000 2.085000
Ni 104.250000 8.340000 4.170000
Ni 106.335000 10.425000 4.170000
Ni 106.335000 8.340000 6.255000
Ni 104.250000 10.425000 6.255000
Ni 104.250000 8.340000 8.340000
Ni 106.335000 10.425000 8.340000
Ni 106.335000 8.340000 10.425000
Ni 104.250000 10.425000 10.425000
Ni 104.250000 8.340000 12.510000
Ni 106.335000 10.425000 12.510000
Ni 106.335000 8.340000 14.595000
Ni 104.250000 10.425000 14.595000
Ni 104.250000 8.340000 16.680000
Ni 106.335000 10.425000 16.680000
Ni 106.335000 8.340000 18.765000
Ni 104.250000 10.425000 18.765000
Ni 104.250000 8.340000 20.850000
Ni 106.335000 10.425000 20.850000
Ni 106.335000 8.340000 22.935000
Ni 104.250000 10.425000 22.935000
Ni 104.250000 8.340000 25.020000
Ni 106.335000 10.425000 25.020000
Ni 106.335000 8.340000 27.105000
Ni 104.250000 10.425000 27.105000
Ni 104.250000 8.340000 29.190000
Ni 106.335000 10.425000 29.190000
Ni 106.335000 8.340000 31.275000
Ni 104.250000 10.425000 31.275000
Ni 104.250000 8.340000 33.360000
Ni 106.335000 10.425000 33.360000
Ni 106.335000 8.340000 35.445000
Ni 104.250000 10.425000 35.445000
Ni 104.250000 8.340000 37.530000
Ni 104.250000 12.510000 0.000000
Ni 106.335000 14.595000 0.000000
Ni 106.335000 12.510000 2.085000
Ni 104.250000 14.595000 2.085000
Ni 104.250000 12.510000 4.170000
Ni 106.335000 14.595000 4.170000
Ni 106.335000 12.510000 6.255000
Ni 104.250000 14.595000 6.255000
Ni 104.250000 12.510000 8.340000
Ni 106.335000 14.595000 8.340000
Ni 106.335000 12.510000 10.425000
Ni 104.250000 14.595000 10.425000
Ni 104.250000 12.510000 12.510000
Ni 106.335000 14.595000 12.510000
Ni 106.335000 12.510000 14.595000
Ni 104.250000 14.595000 14.595000
Ni 104.250000 12.510000 16.680000
Ni 106.335000 14.595000 16.680000
Ni 106.335000 12.510000 18.765000
Ni 104.250000 14.595000 18.765000
Ni 104.250000 12.510000 20.850000
Ni 106.335000 14.595000 20.850000
Ni 106.335000 12.510000 22.935000
Ni 104.250000 14.595000 22.935000
Ni 104.250000 12.510000 25.020000
Ni 106.335000 14.595000 25.020000
Ni 106.335000 12.510000 27.105000
Ni 104.250000 14.595000 27.105000
Ni 104.250000 12.510000 29.190000
Ni 106.335000 14.595000 29.190000
Ni 106.335000 12.510000 31.275000
Ni 104.250000 14.595000 31.275000
Ni 104.250000 12.510000 33.360000
Ni 104.250000 16.680000 0.000000
Ni 106.335000 18.765000 0.000000
Ni 106.335000 16.680000 2.085000
Ni 104.250000 18.765000 2.085000
Ni 104.250000 16.680000 4.170000
Ni 106.335000 18.765000 4.170000
Ni 106.335000 16.680000 6.255000
Ni 104.250000 18.765000 6.255000
Ni 104.250000 16.680000 8.340000
Ni 106.335000 18.765000 8.340000
Ni 106.335000 16.680000 10.425000
Ni 104.250000 18.765000 10.425000
Ni 104.250000 16.680000 12.510000
Ni 106.335000 18.765000 12.510000
Ni 106.335000 16.680000 14.595000
Ni 104.250000 18.765000 14.595000
Ni 104.250000 16.680000 16.680000
Ni 106.335000 18.765000 16.680000
Ni 106.335000 16.680000 18.765000
Ni 104.250000 18.765000 18.765000
Ni 104.250000 16.680000 20.850000
Ni 106.335000 18.765000 20.850000
Ni 106.335000 16.680000 22.935000
Ni 104.250000 18.765000 22.935000
Ni 104.250000 16.680000 25.020000
Ni 106.335000 18.765000 25.020000
Ni 106.335000 16.680000 27.105000
Ni 104.250000 18.765000 27.105000
Ni 104.250000 16.680000 29.190000
Ni 104.250000 20.850000 0.000000
Ni 106.335000 22.935000 0.000000
Ni 106.335000 20.850000 2.085000
Ni 104.250000 22.935000 2.085000
Ni 104.250000 20.850000 4.170000
Ni 106.335000 22.935000 4.170000
Ni 106.335000 20.850000 6.255000
Ni 104.250000 22.935000 6.255000
Ni 104.250000 20.850000 8.340000
Ni 106.335000 22.935000 8.340000
Ni 106.335000 20.850000 10.425000
Ni 104.250000 22.935000 10.425000
Ni 104.250000 20.850000 12.510000
Ni 106.335000 22.935000 12.510000
Ni 106.335000 20.850000 14.595000
Ni 104.250000 22.935000 14.595000
Ni 104.250000 20.850000 16.680000
Ni 106.335000 22.935000 16.680000
Ni 106.335000 20.850000 18.765000
Ni 104.250000 22.935000 18.765000
Ni 104.250000 20.850000 20.850000
Ni 106.335000 22.935000 20.850000
Ni 106.335000 20.850000 22.935000
Ni 104.250000 22.935000 22.935000
Ni 104.250000 20.850000 25.020000
Ni 106.335000 22.935000 25.020000
Ni 104.250000 22.935000 27.105000
Ni 104.250000 25.020000 0.000000
Ni 106.335000 27.105000 0.000000
Ni 106.335000 25.020000 2.085000
Ni 104.250000 27.105000 2.085000
Ni 104.250000 25.020000 4.170000
Ni 106.335000 27.105000 4.170000
Ni 106.335000 25.020000 6.255000
Ni 104.250000 27.105000 6.255000
Ni 104.250000 25.020000 8.340000
Ni 106.335000 27.105000 8.340000
Ni 106.335000 25.020000 10.425000
Ni 104.250000 27.105000 10.425000
Ni 104.250000 25.020000 12.510000
Ni 106.335000 27.105000 12.510000
Ni 106.335000 25.020000 14.595000
Ni 104.250000 27.105000 14.595000
Ni 104.250000 25.020000 16.680000
Ni 106.335000 27.105000 16.680000
Ni 106.335000 25.020000 18.765000
Ni 104.250000 27.105000 18.765000
Ni 104.250000 25.020000 20.850000
Ni 106.335000 27.105000 20.850000
Ni 106.335000 25.020000 22.935000
Ni 104.250000 27.105000 22.935000
Ni 104.250000 25.020000 25.020000
Ni 106.335000 27.105000 25.020000
Ni 106.335000 25.020000 27.105000
Ni 104.250000 27.105000 27.105000
Ni 104.250000 25.020000 29.190000
Ni 106.335000 27.105000 29.190000
Ni 104.250000 27.105000 31.275000
Ni 104.250000 29.190000 0.000000
Ni 106.335000 31.275000 0.000000
Ni 106.335000 29.190000 2.085000
Ni 104.250000 31.275000 2.085000
Ni 104.250000 29.190000 4.170000
Ni 106.335000 31.275000 4.170000
Ni 106.335000 29.190000 6.255000
Ni 104.250000 31.275000 6.255000
Ni 104.250000 29.190000 8.340000
Ni 106.335000 31.275000 8.340000
Ni 106.335000 29.190000 10.425000
Ni 104.250000 31.275000 10.425000
Ni 104.250000 29.190000 12.510000
Ni 106.335000 31.275000 12.510000
Ni 106.335000 29.190000 14.595000
Ni 104.250000 31.275000 14.595000
Ni 104.250000 29.190000 16.680000
Ni 106.335000 31.275000 16.680000
Ni 106.335000 29.190000 18.765000
Ni 104.250000 31.275000 18.765000
Ni 104.250000 29.190000 20.850000
Ni 106.335000 31.275000 20.850000
Ni 106.335000 29.190000 22.935000
Ni 104.250000 31.275000 22.935000
Ni 104.250000 29.190000 25.020000
Ni 106.335000 31.275000 25.020000
Ni 106.335000 29.190000 27.105000
Ni 104.250000 31.275000 27.105000
Ni 104.250000 29.190000 29.190000
Ni 106.335000 31.275000 29.190000
Ni 106.335000 29.190000 31.275000
Ni 104.250000 31.275000 31.275000
Ni 104.250000 29.190000 33.360000
Ni 106.335000 31.275000 33.360000
Ni 104.250000 31.275000 35.445000
Ni 104.250000 33.360000 0.000000
Ni 106.335000 35.445000 0.000000
Ni 106.335000 33.360000 2.085000
Ni 104.250000 35.445000 2.085000
Ni 104.250000 33.360000 4.170000
Ni 106.335000 35.445000 4.170000
Ni 106.335000 33.360000 6.255000
Ni 104.250000 35.445000 6.255000
Ni 104.250000 33.360000 8.340000
Ni 106.335000 35.445000 8.340000
Ni 106.335000 33.360000 10.425000
Ni 104.250000 35.445000 10.425000
Ni 104.250000 33.360000 12.510000
Ni 106.335000 35.445000 12.510000
Ni 106.335000 33.360000 14.595000
Ni 104.250000 35.445000 14.595000
Ni 104.250000 33.360000 16.680000
Ni 106.335000 35.445000 16.680000
Ni 106.335000 33.360000 18.765000
Ni 104.250000 35.445000 18.765000
Ni 104.250000 33.360000 20.850000
Ni 106.335000 35.445000 20.850000
Ni 106.335000 33.360000 22.935000
Ni 104.250000 35.445000 22.935000
Ni 104.250000 33.360000 25.020000
Ni 106.335000 35.445000 25.020000
Ni 106.335000 33.360000 27.105000
Ni 104.250000 35.445000 27.105000
Ni 104.250000 33.360000 29.190000
Ni 106.335000 35.445000 29.190000
Ni 106.335000 33.360000 31.275000
Ni 104.250000 35.445000 31.275000
Ni 104.250000 33.360000 33.360000
Ni 106.335000 35.445000 33.360000
Ni 106.335000 33.360000 35.445000
Ni 104.250000 35.445000 35.445000
Ni 104.250000 33.360000 37.530000
Ni 106.335000 35.445000 37.530000
Ni 104.250000 35.445000 39.615000
Ni 104.250000 37.530000 0.000000
Ni 106.335000 39.615000 0.000000
Ni 106.335000 37.530000 2.085000
Ni 104.250000 39.615000 2.085000
Ni 104.250000 37.530000 4.170000
Ni 106.335000 39.615000 4.170000
Ni 106.335000 37.530000 6.255000
Ni 104.250000 39.615000 6.255000
Ni 104.250000 37.530000 8.340000
Ni 106.335000 39.615000 8.340000
Ni 106.335000 37.530000 10.425000
Ni 104.250000 39.615000 10.425000
Ni 104.250000 37.530000 12.510000
Ni 106.335000 39.615000 12.510000
Ni 106.335000 37.530000 14.595000
Ni 104.250000 39.615000 14.595000
Ni 104.250000 37.530000 16.680000
Ni 106.335000 39.615000 16.680000
Ni 106.335000 37.530000 18.765000
Ni 104.250000 39.615000 18.765000
Ni 104.250000 37.530000 20.850000
Ni 106.335000 39.615000 20.850000
Ni 106.335000 37.530000 22.935000
Ni 104.250000 39.615000 22.935000
Ni 104.250000 37.530000 25.020000
Ni 106.335000 39.615000 25.020000
Ni 106.335000 37.530000 27.105000
Ni 104.250000 39.615000 27.105000
Ni 104.250000 37.530000 29.190000
Ni 106.335000 39.615000 29.190000
Ni 106.335000 37.530000 31.275000
Ni 104.250000 39.615000 31.275000
Ni 104.250000 37.530000 33.360000
Ni 106.335000 39.615000 33.360000
Ni 106.335000 37.530000 35.445000
Ni 104.250000 39.615000 35.445000
Ni 104.250000 37.530000 37.530000
Ni 106.335000 39.615000 37.530000
Ni 106.335000 37.530000 39.615000
Ni 104.250000 39.615000 39.615000
Ni 108.420000 0.000000 0.000000
Ni 110.505000 2.085000 0.000000
Ni 110.505000 0.000000 2.085000
Ni 108.420000 2.085000 2.085000
Ni 108.420000 0.000000 4.170000
Ni 110.505000 2.085000 4.170000
Ni 110.505000 0.000000 6.255000
Ni 108.420000 2.085000 6.255000
Ni 108.420000 0.000000 8.340000
Ni 110.505000 2.085000 8.340000
Ni 110.505000 0.000000 10.425000
Ni 108.420000 2.085000 10.425000
Ni 108.420000 0.000000 12.510000
Ni 110.505000 2.085000 12.510000
Ni 110.505000 0.000000 14.595000
Ni 108.420000 2.085000 14.595000
Ni 108.420000 0.000000 16.680000
Ni 110.505000 2.085000 16.680000
Ni 110.505000 0.000000 18.765000
Ni 108.420000 2.085000 18.765000
Ni 108.420000 0.000000 20.850000
Ni 110.505000 2.085000 20.850000
Ni 110.505000 0.000000 22.935000
Ni 108.420000 2.085000 22.935000
Ni 108.420000 0.000000 25.020000
Ni 110.505000 2.085000 25.020000
Ni 110.505000 0.000000 27.105000
Ni 108.420000 2.085000 27.105000
Ni 108.420000 0.000000 29.190000
Ni 110.505000 2.085000 29.190000
Ni 110.505000 0.000000 31.275000
Ni 108.420000 2.085000 31.275000
Ni 108.420000 0.000000 33.360000
Ni 110.505000 2.085000 33.360000
Ni 110.505000 0.000000 35.445000
Ni 108.420000 2.085000 35.445000
Ni 108.420000 0.000000 37.530000
Ni 110.505000 2.085000 37.530000
Ni 110.505000 0.000000 39.615000
Ni 108.420000 2.085000 39.615000
Ni 108.420000 4.170000 0.000000
Ni 110.505000 6.255000 0.000000
Ni 110.505000 4.170000 2.085000
Ni 108.420000 6.255000 2.085000
Ni 108.420000 4.170000 4.170000
Ni 110.505000 6.255000 4.170000
Ni 110.505000 4.170000 6.255000
Ni 108.420000 6.255000 6.255000
Ni 108.420000 4.170000 8.340000
Ni 110.505000 6.255000 8.340000
Ni 110.505000 4.170000 10.425000
Ni 108.420000 6.255000 10.425000
Ni 108.420000 4.170000 12.510000
Ni 110.505000 6.255000 12.510000
Ni 110.505000 4.170000 14.595000
Ni 108.420000 6.255000 14.595000
Ni 108.420000 4.170000 16.680000
Ni 110.505000 6.255000 16.680000
Ni 110.505000 4.170000 18.765000
Ni 108.420000 6.255000 18.765000
Ni 108.420000 4.170000 20.850000
Ni 110.505000 6.255000 20.850000
Ni 110.505000 4.170000 22.935000
Ni 108.420000 6.255000 22.935000
Ni 108.420000 4.170000 25.020000
Ni 110.505000 6.255000 25.020000
Ni 110.505000 4.170000 27.105000
Ni 108.420000 6.255000 27.105000
Ni 108.420000 4.170000 29.190000
Ni 110.505000 6.255000 29.190000
Ni 110.505000 4.170000 31.275000
Ni 108.420000 6.255000 31.275000
Ni 108.420000 4.170000 33.360000
Ni 110.505000 6.255000 33.360000
Ni 110.505000 4.170000 35.445000
Ni 108.420000 6.255000 35.445000
Ni 108.420000 4.170000 37.530000
Ni 110.505000 6.255000 37.530000
Ni 110.505000 4.170000 39.615000
Ni 108.420000 6.255000 39.615000
Ni 108.420000 8.340000 0.000000
Ni 110.505000 10.425000 0.000000
Ni 110.505000 8.340000 2.085000
Ni 108.420000 10.425000 2.085000
Ni 108.420000 8.340000 4.170000
Ni 110.505000 10.425000 4.170000
Ni 110.505000 8.340000 6.255000
Ni 108.420000 10.425000 6.255000
Ni 108.420000 8.340000 8.340000
Ni 110.505000 10.425000 8.340000
Ni 110.505000 8.340000 10.425000
Ni 108.420000 10.425000 10.425000
Ni 108.420000 8.340000 12.510000
Ni 110.505000 10.425000 12.510000
Ni 110.505000 8.340000 14.595000
Ni 108.420000 10.425000 14.595000
Ni 108.420000 8.340000 16.680000
Ni 110.505000 10.425000 16.680000
Ni 110.505000 8.340000 18.765000
Ni 108.420000 10.425000 18.765000
Ni 108.420000 8.340000 20.850000
Ni 110.505000 10.425000 20.850000
Ni 110.505000 8.340000 22.935000
Ni 108.420000 10.425000 22.935000
Ni 108.420000 8.340000 25.020000
Ni 110.505000 10.425000 25.020000
Ni 110.505000 8.340000 27.105000
Ni 108.420000 10.425000 27.105000
Ni 108.420000 8.340000 29.190000
Ni 110.505000 10.425000 29.190000
Ni 110.505000 8.340000 31.275000
Ni 108.420000 10.425000 31.275000
Ni 108.420000 8.340000 33.360000
Ni 110.505000 10.425000 33.360000
Ni 110.505000 8.340000 35.445000
Ni 108.420000 10.425000 35.445000
Ni 108.420000 8.340000 37.530000
Ni 108.420000 12.510000 0.000000
Ni 110.505000 14.595000 0.000000
Ni 110.505000 12.510000 2.085000
Ni 108.420000 14.595000 2.085000
Ni 108.420000 12.510000 4.170000
Ni 110.505000 14.595000 4.170000
Ni 110.505000 12.510000 6.255000
Ni 108.420000 14.595000 6.255000
Ni 108.420000 12.510000 8.340000
Ni 110.505000 14.595000 8.340000
Ni 110.505000 12.510000 10.425000
Ni 108.420000 14.595000 10.425000
Ni 108.420000 12.510000 12.510000
Ni 110.505000 14.595000 12.510000
Ni 110.505000 12.510000 14.595000
Ni 108.420000 14.595000 14.595000
Ni 108.420000 12.510000 16.680000
Ni 110.505000 14.595000 16.680000
Ni 110.505000 12.510000 18.765000
Ni 108.420000 14.595000 18.765000
Ni 108.420000 12.510000 20.850000
Ni 110.505000 14.595000 20.850000
Ni 110.505000 12.510000 22.935000
Ni 108.420000 14.595000 22.935000
Ni 108.420000 12.510000 25.020000
Ni 110.505000 14.595000 25.020000
Ni 110.505000 12.510000 27.105000
Ni 108.420000 14.595000 27.105000
Ni 108.420000 12.510000 29.190000
Ni 110.505000 14.595000 29.190000
Ni 110.505000 12.510000 31.275000
Ni 108.420000 14.595000 31.275000
Ni 108.420000 12.510000 33.360000
Ni 108.420000 16.680000 0.000000
Ni 110.505000 18.765000 0.000000
Ni 110.505000 16.680000 2.085000
Ni 108.420000 18.765000 2.085000
Ni 108.420000 16.680000 4.170000
Ni 110.505000 18.765000 4.170000
Ni 110.505000 16.680000 6.255000
Ni 108.420000 18.765000 6.255000
Ni 108.420000 16.680000 8.340000
Ni 110.505000 18.765000 8.340000
Ni 110.505000 16.680000 10.425000
Ni 108.420000 18.765000 10.425000
Ni 108.420000 16.680000 12.510000
Ni 110.505000 18.765000 12.510000
Ni 110.505000 16.680000 14.595000
Ni 108.420000 18.765000 14.595000
Ni 108.420000 16.680000 16.680000
Ni 110.505000 18.765000 16.680000
Ni 110.505000 16.680000 18.765000
Ni 108.420000 18.765000 18.765000
Ni 108.420000 16.680000 20.850000
Ni 110.505000 18.765000 20.850000
Ni 110.505000 16.680000 22.935000
Ni 108.420000 18.765000 22.935000
Ni 108.420000 16.680000 25.020000
Ni 110.505000 18.765000 25.020000
Ni 110.505000 16.680000 27.105000
Ni 108.420000 18.765000 27.105000
Ni 108.420000 16.680000 29.190000
Ni 108.420000 20.850000 0.000000
Ni 110.505000 22.935000 0.000000
Ni 110.505000 20.850000 2.085000
Ni 108.420000 22.935000 2.085000
Ni 108.420000 20.850000 4.170000
Ni 110.505000 22.935000 4.170000
Ni 110.505000 20.850000 6.255000
Ni 108.420000 22.935000 6.255000
Ni 108.420000 20.850000 8.340000
Ni 110.505000 22.935000 8.340000
Ni 110.505000 20.850000 10.425000
Ni 108.420000 22.935000 10.425000
Ni 108.420000 20.850000 12.510000
Ni 110.505000 22.935000 12.510000
Ni 110.505000 20.850000 14.595000
Ni 108.420000 22.935000 14.595000
Ni 108.420000 20.850000 16.680000
Ni 110.505000 22.935000 16.680000
Ni 110.505000 20.850000 18.765000
Ni 108.420000 22.935000 18.765000
Ni 108.420000 20.850000 20.850000
Ni 110.505000 22.935000 20.850000
Ni 110.505000 20.850000 22.935000
Ni 108.420000 22.935000 22.935000
Ni 108.420000 20.850000 25.020000
Ni 110.505000 22.935000 25.020000
Ni 108.420000 22.935000 27.105000
Ni 108.420000 25.020000 0.000000
Ni 110.505000 27.105000 0.000000
Ni 110.505000 25.020000 2.085000
Ni 108.420000 27.105000 2.085000
Ni 108.420000 25.020000 4.170000
Ni 110.505000 27.105000 4.170000
Ni 110.505000 25.020000 6.255000
Ni 108.420000 27.105000 6.255000
Ni 108.420000 25.020000 8.340000
Ni 110.505000 27.105000 8.340000
Ni 110.505000 25.020000 10.425000
Ni 108.420000 27.105000 10.425000
Ni 108.420000 25.020000 12.510000
Ni 110.505000 27.105000 12.510000
Ni 110.505000 25.020000 14.595000
Ni 108.420000 27.105000 14.595000
Ni 108.420000 25.020000 16.680000
Ni 110.505000 27.105000 16.680000
Ni 110.505000 25.020000 18.765000
Ni 108.420000 27.105000 18.765000
Ni 108.420000 25.020000 20.850000
Ni 110.505000 27.105000 20.850000
Ni 110.505000 25.020000 22.935000
Ni 108.420000 27.105000 22.935000
Ni 108.420000 25.020000 25.020000
Ni 110.505000 27.105000 25.020000
Ni 110.505000 25.020000 27.105000
Ni 108.420000 27.105000 27.105000
Ni 108.420000 25.020000 29.190000
Ni 110.505000 27.105000 29.190000
Ni 108.420000 27.105000 31.275000
Ni 108.420000 29.190000 0.000000
Ni 110.505000 31.275000 0.000000
Ni 110.505000 29.190000 2.085000
Ni 108.420000 31.275000 2.085000
Ni 108.420000 29.190000 4.170000
Ni 110.505000 31.275000 4.170000
Ni 110.505000 29.190000 6.255000
Ni 108.420000 31.275000 6.255000
Ni 108.420000 29.190000 8.340000
Ni 110.505000 31.275000 8.340000
Ni 110.505000 29.190000 10.425000
Ni 108.420000 31.275000 10.425000
Ni 108.420000 29.190000 12.510000
Ni 110.505000 31.275000 12.510000
Ni 110.505000 29.190000 14.595000
Ni 108.420000 31.275000 14.595000
Ni 108.420000 29.190000 16.680000
Ni 110.505000 31.275000 16.680000
Ni 110.505000 29.190000 18.765000
Ni 108.420000 31.275000 18.765000
Ni 108.420000 29.190000 20.850000
Ni 110.505000 31.275000 20.850000
Ni 110.505000 29.190000 22.935000
Ni 108.420000 31.275000 22.935000
Ni 108.420000 29.190000 25.020000
Ni 110.505000 31.275000 25.020000
Ni 110.505000 29.190000 27.105000
Ni 108.420000 31.275000 27.105000
Ni 108.420000 29.190000 29.190000
Ni 110.505000 31.275000 29.190000
Ni 110.505000 29.190000 31.275000
Ni 108.420000 31.275000 31.275000
Ni 108.420000 29.190000 33.360000
Ni 110.505000 31.275000 33.360000
Ni 108.420000 31.275000 35.445000
Ni 108.420000 33.360000 0.000000
Ni 110.505000 35.445000 0.000000
Ni 110.505000 33.360000 2.085000
Ni 108.420000 35.445000 2.085000
Ni 108.420000 33.360000 4.170000
Ni 110.505000 35.445000 4.170000
Ni 110.505000 33.360000 6.255000
Ni 108.420000 35.445000 6.255000
Ni 108.420000 33.360000 8.340000
Ni 110.505000 35.445000 8.340000
Ni 110.505000 33.360000 10.425000
Ni 108.420000 35.445000 10.425000
Ni 108.420000 33.360000 12.510000
Ni 110.505000 35.445000 12.510000
Ni 110.505000 33.360000 14.595000
Ni 108.420000 35.445000 14.595000
Ni 108.420000 33.360000 16.680000
Ni 110.505000 35.445000 16.680000
Ni 110.505000 33.360000 18.765000
Ni 108.420000 35.445000 18.765000
Ni 108.420000 33.360000 20.850000
Ni 110.505000 35.445000 20.850000
Ni 110.505000 33.360000 22.935000
Ni 108.420000 35.445000 22.935000
Ni 108.420000 33.360000 25.020000
Ni 110.505000 35.445000 25.020000
Ni 110.505000 33.360000 27.105000
Ni 108.420000 35.445000 27.105000
Ni 108.420000 33.360000 29.190000
Ni 110.505000 35.445000 29.190000
Ni 110.505000 33.360000 31.275000
Ni 108.420000 35.445000 31.275000
Ni 108.420000 33.360000 33.360000
Ni 110.505000 35.445000 33.360000
Ni 110.505000 33.360000 35.445000
Ni 108.420000 35.445000 35.445000
Ni 108.420000 33.360000 37.530000
Ni 110.505000 35.445000 37.530000
Ni 108.420000 35.445000 39.615000
Ni 108.420000 37.530000 0.000000
Ni 110.505000 39.615000 0.000000
Ni 110.505000 37.530000 2.085000
Ni 108.420000 39.615000 2.085000
Ni 108.420000 37.530000 4.170000
Ni 110.505000 39.615000 4.170000
Ni 110.505000 37.530000 6.255000
Ni 108.420000 39.615000 6.255000
Ni 108.420000 37.530000 8.340000
Ni 110.505000 39.615000 8.340000
Ni 110.505000 37.530000 10.425000
Ni 108.420000 39.615000 10.425000
Ni 108.420000 37.530000 12.510000
Ni 110.505000 39.615000 12.510000
Ni 110.505000 37.530000 14.595000
Ni 108.420000 39.615000 14.595000
Ni 108.420000 37.530000 16.680000
Ni 110.505000 39.615000 16.680000
Ni 110.505000 37.530000 18.765000
Ni 108.420000 39.615000 18.765000
Ni 108.420000 37.530000 20.850000
Ni 110.505000 39.615000 20.850000
Ni 110.505000 37.530000 22.935000
Ni 108.420000 39.615000 22.935000
Ni 108.420000 37.530000 25.020000
Ni 110.505000 39.615000 25.020000
Ni 110.505000 37.530000 27.105000
Ni 108.420000 39.615000 27.105000
Ni 108.420000 37.530000 29.190000
Ni 110.505000 39.615000 29.190000
Ni 110.505000 37.530000 31.275000
Ni 108.420000 39.615000 31.275000
Ni 108.420000 37.530000 33.360000
Ni 110.505000 39.615000 33.360000
Ni 110.505000 37.530000 35.445000
Ni 108.420000 39.615000 35.445000
Ni 108.420000 37.530000 37.530000
Ni 110.505000 39.615000 37.530000
Ni 110.505000 37.530000 39.615000
Ni 108.420000 39.615000 39.615000
Ni 112.590000 0.000000 0.000000
Ni 114.675000 2.085000 0.000000
Ni 114.675000 0.000000 2.085000
Ni 112.590000 2.085000 2.085000
Ni 112.590000 0.000000 4.170000
Ni 114.675000 2.085000 4.170000
Ni 114.675000 0.000000 6.255000
Ni 112.590000 2.085000 6.255000
Ni 112.590000 0.000000 8.340000
Ni 114.675000 2.085000 8.340000
Ni 114.675000 0.000000 10.425000
Ni 112.590000 2.085000 10.425000
Ni 112.590000 0.000000 12.510000
Ni 114.675000 2.085000 12.510000
Ni 114.675000 0.000000 14.595000
Ni 112.590000 2.085000 14.595000
Ni 112.590000 0.000000 16.680000
Ni 114.675000 2.085000 16.680000
Ni 114.675000 0.000000 18.765000
Ni 112.590000 2.085000 18.765000
Ni 112.590000 0.000000 20.850000
Ni 114.675000 2.085000 20.850000
Ni 114.675000 0.000000 22.935000
Ni 112.590000 2.085000 22.935000
Ni 112.590000 0.000000 25.020000
Ni 114.675000 2.085000 25.020000
Ni 114.675000 0.000000 27.105000
Ni 112.590000 2.085000 27.105000
Ni 112.590000 0.000000 29.190000
Ni 114.675000 2.085000 29.190000
Ni 114.675000 0.000000 31.275000
Ni 112.590000 2.085000 31.275000
Ni 112.590000 0.000000 33.360000
Ni 114.675000 2.085000 33.360000
Ni 114.675000 0.000000 35.445000
Ni 112.590000 2.085000 35.445000
Ni 112.590000 0.000000 37.530000
Ni 114.675000 2.085000 37.530000
Ni 114.675000 0.000000 39.615000
Ni 112.590000 2.085000 39.615000
Ni 112.590000 4.170000 0.000000
Ni 114.675000 6.255000 0.000000
Ni 114.675000 4.170000 2.085000
Ni 112.590000 6.255000 2.085000
Ni 112.590000 4.170000 4.170000
Ni 114.675000 6.255000 4.170000
Ni 114.675000 4.170000 6.255000
Ni 112.590000 6.255000 6.255000
Ni 112.590000 4.170000 8.340000
Ni 114.675000 6.255000 8.340000
Ni 114.675000 4.170000 10.425000
Ni 112.590000 6.255000 10.425000
Ni 112.590000 4.170000 12.510000
Ni 114.675000 6.255000 12.510000
Ni 114.675000 4.170000 14.595000
Ni 112.590000 6.255000 14.595000
Ni 112.590000 4.170000 16.680000
Ni 114.675000 6.255000 16.680000
Ni 114.675000 4.170000 18.765000
Ni 112.590000 6.255000 18.765000
Ni 112.590000 4.170000 20.850000
Ni 114.675000 6.255000 20.850000
Ni 114.675000 4.170000 22.935000
Ni 112.590000 6.255000 22.935000
Ni 112.590000 4.170000 25.020000
Ni 114.675000 6.255000 25.020000
Ni 114.675000 4.170000 27.105000
Ni 112.590000 6.255000 27.105000
Ni 112.590000 4.170000 29.190000
Ni 114.675000 6.255000 29.190000
Ni 114.675000 4.170000 31.275000
Ni 112.590000 6.255000 31.275000
Ni 112.590000 4.170000 33.360000
Ni 114.675000 6.255000 33.360000
Ni 114.675000 4.170000 35.445000
Ni 112.590000 6.255000 35.445000
Ni 112.590000 4.170000 37.530000
Ni 114.675000 6.255000 37.530000
Ni 114.675000 4.170000 39.615000
Ni 112.590000 6.255000 39.615000
Ni 112.590000 8.340000 0.000000
Ni 114.675000 10.425000 0.000000
Ni 114.675000 8.340000 2.085000
Ni 112.590000 10.425000 2.085000
Ni 112.590000 8.340000 4.170000
Ni 114.675000 10.425000 4.170000
Ni 114.675000 8.340000 6.255000
Ni 112.590000 10.425000 6.255000
Ni 112.590000 8.340000 8.340000
Ni 114.675000 10.425000 8.340000
Ni 114.675000 8.340000 10.425000
Ni 112.590000 10.425000 10.425000
Ni 112.590000 8.340000 12.510000
Ni 114.675000 10.425000 12.510000
Ni 114.675000 8.340000 14.595000
Ni 112.590000 10.425000 14.595000
Ni 112.590000 8.340000 16.680000
Ni 114.675000 10.425000 16.680000
Ni 114.675000 8.340000 18.765000
Ni 112.590000 10.425000 18.765000
Ni 112.590000 8.340000 20.850000
Ni 114.675000 10.425000 20.850000
Ni 114.675000 8.340000 22.935000
Ni 112.590000 10.425000 22.935000
Ni 112.590000 8.340000 25.020000
Ni 114.675000 10.425000 25.020000
Ni 114.675000 8.340000 27.105000
Ni 112.590000 10.425000 27.105000
Ni 112.590000 8.340000 29.190000
Ni 114.675000 10.425000 29.190000
Ni 114.675000 8.340000 31.275000
Ni 112.590000 10.425000 31.275000
Ni 112.590000 8.340000 33.360000
Ni 114.675000 10.425000 33.360000
Ni 114.675000 8.340000 35.445000
Ni 112.590000 10.425000 35.445000
Ni 112.590000 8.340000 37.530000
Ni 112.590000 12.510000 0.000000
Ni 114.675000 14.595000 0.000000
Ni 114.675000 12.510000 2.085000
Ni 112.590000 14.595000 2.085000
Ni 112.590000 12.510000 4.170000
Ni 114.675000 14.595000 4.170000
Ni 114.675000 12.510000 6.255000
Ni 112.590000 14.595000 6.255000
Ni 112.590000 12.510000 8.340000
Ni 114.675000 14.595000 8.340000
Ni 114.675000 12.510000 10.425000
Ni 112.590000 14.595000 10.425000
Ni 112.590000 12.510000 12.510000
Ni 114.675000 14.595000 12.510000
Ni 114.675000 12.510000 14.595000
Ni 112.590000 14.595000 14.595000
Ni 112.590000 12.510000 16.680000
Ni 114.675000 14.595000 16.680000
Ni 114.675000 12.510000 18.765000
Ni 112.590000 14.595000 18.765000
Ni 112.590000 12.510000 20.850000
Ni 114.675000 14.595000 20.850000
Ni 114.675000 12.510000 22.935000
Ni 112.590000 14.595000 22.935000
Ni 112.590000 12.510000 25.020000
Ni 114.675000 14.595000 25.020000
Ni 114.675000 12.510000 27.105000
Ni 112.590000 14.595000 27.105000
Ni 112.590000 12.510000 29.190000
Ni 114.675000 14.595000 29.190000
Ni 114.675000 12.510000 31.275000
Ni 112.590000 14.595000 31.275000
Ni 112.590000 12.510000 33.360000
Ni 112.590000 16.680000 0.000000
Ni 114.675000 18.765000 0.000000
Ni 114.675000 16.680000 2.085000
Ni 112.590000 18.765000 2.085000
Ni 112.590000 16.680000 4.170000
Ni 114.675000 18.765000 4.170000
Ni 114.675000 16.680000 6.255000
Ni 112.590000 18.765000 6.255000
Ni 112.590000 16.680000 8.340000
Ni 114.675000 18.765000 8.340000
Ni 114.675000 16.680000 10.425000
Ni 112.590000 18.765000 10.425000
Ni 112.590000 16.680000 12.510000
Ni 114.675000 18.765000 12.510000
Ni 114.675000 16.680000 14.595000
Ni 112.590000 18.765000 14.595000
Ni 112.590000 16.680000 16.680000
Ni 114.675000 18.765000 16.680000
Ni 114.675000 16.680000 18.765000
Ni 112.590000 18.765000 18.765000
Ni 112.590000 16.680000 20.850000
Ni 114.675000 18.765000 20.850000
Ni 114.675000 16.680000 22.935000
Ni 112.590000 18.765000 22.935000
Ni 112.590000 16.680000 25.020000
Ni 114.675000 18.765000 25.020000
Ni 114.675000 16.680000 27.105000
Ni 112.590000 18.765000 27.105000
Ni 112.590000 16.680000 29.190000
Ni 112.590000 20.850000 0.000000
Ni 114.675000 22.935000 0.000000
Ni 114.675000 20.850000 2.085000
Ni 112.590000 22.935000 2.085000
Ni 112.590000 20.850000 4.170000
Ni 114.675000 22.935000 4.170000
Ni 114.675000 20.850000 6.255000
Ni 112.590000 22.935000 6.255000
Ni 112.590000 20.850000 8.340000
Ni 114.675000 22.935000 8.340000
Ni 114.675000 20.850000 10.425000
Ni 112.590000 22.935000 10.425000
Ni 112.590000 20.850000 12.510000
Ni 114.675000 22.935000 12.510000
Ni 114.675000 20.850000 14.595000
Ni 112.590000 22.935000 14.595000
Ni 112.590000 20.850000 16.680000
Ni 114.675000 22.935000 16.680000
Ni 114.675000 20.850000 18.765000
Ni 112.590000 22.935000 18.765000
Ni 112.590000 20.850000 20.850000
Ni 114.675000 22.935000 20.850000
Ni 114.675000 20.850000 22.935000
Ni 112.590000 22.935000 22.935000
Ni 112.590000 20.850000 25.020000
Ni 114.675000 22.935000 25.020000
Ni 112.590000 22.935000 27.105000
Ni 112.590000 25.020000 0.000000
Ni 114.675000 27.105000 0.000000
Ni 114.675000 25.020000 2.085000
Ni 112.590000 27.105000 2.085000
Ni 112.590000 25.020000 4.170000
Ni 114.675000 27.105000 4.170000
Ni 114.675000 25.020000 6.255000
Ni 112.590000 27.105000 6.255000
Ni 112.590000 25.020000 8.340000
Ni 114.675000 27.105000 8.340000
Ni 114.675000 25.020000 10.425000
Ni 112.590000 27.105000 10.425000
Ni 112.590000 25.020000 12.510000
Ni 114.675000 27.105000 12.510000
Ni 114.675000 25.020000 14.595000
Ni 112.590000 27.105000 14.595000
Ni 112.590000 25.020000 16.680000
Ni 114.675000 27.105000 16.680000
Ni 114.675000 25.020000 18.765000
Ni 112.590000 27.105000 18.765000
Ni 112.590000 25.020000 20.850000
Ni 114.675000 27.105000 20.850000
Ni 114.675000 25.020000 22.935000
Ni 112.590000 27.105000 22.935000
Ni 112.590000 25.020000 25.020000
Ni 114.675000 27.105000 25.020000
Ni 114.675000 25.020000 27.105000
Ni 112.590000 27.105000 27.105000
Ni 112.590000 25.020000 29.190000
Ni 114.675000 27.105000 29.190000
Ni 112.590000 27.105000 31.275000
Ni 112.590000 29.190000 0.000000
Ni 114.675000 31.275000 0.000000
Ni 114.675000 29.190000 2.085000
Ni 112.590000 31.275000 2.085000
Ni 112.590000 29.190000 4.170000
Ni 114.675000 31.275000 4.170000
Ni 114.675000 29.190000 6.255000
Ni 112.590000 31.275000 6.255000
Ni 112.590000 29.190000 8.340000
Ni 114.675000 31.275000 8.340000
Ni 114.675000 29.190000 10.425000
Ni 112.590000 31.275000 10.425000
Ni 112.590000 29.190000 12.510000
Ni 114.675000 31.275000 12.510000
Ni 114.675000 29.190000 14.595000
Ni 112.590000 31.275000 14.595000
Ni 112.590000 29.190000 16.680000
Ni 114.675000 31.275000 16.680000
Ni 114.675000 29.190000 18.765000
Ni 112.590000 31.275000 18.765000
Ni 112.590000 29.190000 20.850000
Ni 114.675000 31.275000 20.850000
Ni 114.675000 29.190000 22.935000
Ni 112.590000 31.275000 22.935000
Ni 112.590000 29.190000 25.020000
Ni 114.675000 31.275000 25.020000
Ni 114.675000 29.190000 27.105000
Ni 112.590000 31.275000 27.105000
Ni 112.590000 29.190000 29.190000
Ni 114.675000 31.275000 29.190000
Ni 114.675000 29.190000 31.275000
Ni 112.590000 31.275000 31.275000
Ni 112.590000 29.190000 33.360000
Ni 114.675000 31.275000 33.360000
Ni 112.590000 31.275000 35.445000
Ni 112.590000 33.360000 0.000000
Ni 114.675000 35.445000 0.000000
Ni 114.675000 33.360000 2.085000
Ni 112.590000 35.445000 2.085000
Ni 112.590000 33.360000 4.170000
Ni 114.675000 35.445000 4.170000
Ni 114.675000 33.360000 6.255000
Ni 112.590000 35.445000 6.255000
Ni 112.590000 33.360000 8.340000
Ni 114.675000 35.445000 8.340000
Ni 114.675000 33.360000 10.425000
Ni 112.590000 35.445000 10.425000
Ni 112.590000 33.360000 12.510000
Ni 114.675000 35.445000 12.510000
Ni 114.675000 33.360000 14.595000
Ni 112.590000 35.445000 14.595000
Ni 112.590000 33.360000 16.680000
Ni 114.675000 35.445000 16.680000
Ni 114.675000 33.360000 18.765000
Ni 112.590000 35.445000 18.765000
Ni 112.590000 33.360000 20.850000
Ni 114.675000 35.445000 20.850000
Ni 114.675000 33.360000 22.935000
Ni 112.590000 35.445000 22.935000
Ni 112.590000 33.360000 25.020000
Ni 114.675000 35.445000 25.020000
Ni 114.675000 33.360000 27.105000
Ni 112.590000 35.445000 27.105000
Ni 112.590000 33.360000 29.190000
Ni 114.675000 35.445000 29.190000
Ni 114.675000 33.360000 31.275000
Ni 112.590000 35.445000 31.275000
Ni 112.590000 33.360000 33.360000
Ni 114.675000 35.445000 33.360000
Ni 114.675000 33.360000 35.445000
Ni 112.590000 35.445000 35.445000
Ni 112.590000 33.360000 37.530000
Ni 114.675000 35.445000 37.530000
Ni 112.590000 35.445000 39.615000
Ni 112.590000 37.530000 0.000000
Ni 114.675000 39.615000 0.000000
Ni 114.675000 37.530000 2.085000
Ni 112.590000 39.615000 2.085000
Ni 112.590000 37.530000 4.170000
Ni 114.675000 39.615000 4.170000
Ni 114.675000 37.530000 6.255000
Ni 112.590000 39.615000 6.255000
Ni 112.590000 37.530000 8.340000
Ni 114.675000 39.615000 8.340000
Ni 114.675000 37.530000 10.425000
Ni 112.590000 39.615000 10.425000
Ni 112.590000 37.530000 12.510000
Ni 114.675000 39.615000 12.510000
Ni 114.675000 37.530000 14.595000
Ni 112.590000 39.615000 14.595000
Ni 112.590000 37.530000 16.680000
Ni 114.675000 39.615000 16.680000
Ni 114.675000 37.530000 18.765000
Ni 112.590000 39.615000 18.765000
Ni 112.590000 37.530000 20.850000
Ni 114.675000 39.615000 20.850000
Ni 114.675000 37.530000 22.935000
Ni 112.590000 39.615000 22.935000
Ni 112.590000 37.530000 25.020000
Ni 114.675000 39.615000 25.020000
Ni 114.675000 37.530000 27.105000
Ni 112.590000 39.615000 27.105000
Ni 112.590000 37.530000 29.190000
Ni 114.675000 39.615000 29.190000
Ni 114.675000 37.530000 31.275000
Ni 112.590000 39.615000 31.275000
Ni 112.590000 37.530000 33.360000
Ni 114.675000 39.615000 33.360000
Ni 114.675000 37.530000 35.445000
Ni 112.590000 39.615000 35.445000
Ni 112.590000 37.530000 37.530000
Ni 114.675000 39.615000 37.530000
Ni 114.675000 37.530000 39.615000
Ni 112.590000 39.615000 39.615000
Ni 116.760000 0.000000 0.000000
Ni 118.845000 2.085000 0.000000
Ni 118.845000 0.000000 2.085000
Ni 116.760000 2.085000 2.085000
Ni 116.760000 0.000000 4.170000
Ni 118.845000 2.085000 4.170000
Ni 118.845000 0.000000 6.255000
Ni 116.760000 2.085000 6.255000
Ni 116.760000 0.000000 8.340000
Ni 118.845000 2.085000 8.340000
Ni 118.845000 0.000000 10.425000
Ni 116.760000 2.085000 10.425000
Ni 116.760000 0.000000 12.510000
Ni 118.845000 2.085000 12.510000
Ni 118.845000 0.000000 14.595000
Ni 116.760000 2.085000 14.595000
Ni 116.760000 0.000000 16.680000
Ni 118.845000 2.085000 16.680000
Ni 118.845000 0.000000 18.765000
Ni 116.760000 2.085000 18.765000
Ni 116.760000 0.000000 20.850000
Ni 118.845000 2.085000 20.850000
Ni 118.845000 0.000000 22.935000
Ni 116.760000 2.085000 22.935000
Ni 116.760000 0.000000 25.020000
Ni 118.845000 2.085000 25.020000
Ni 118.845000 0.000000 27.105000
Ni 116.760000 2.085000 27.105000
Ni 116.760000 0.000000 29.190000
Ni 118.845000 2.085000 29.190000
Ni 118.845000 0.000000 31.275000
Ni 116.760000 2.085000 31.275000
Ni 116.760000 0.000000 33.360000
Ni 118.845000 2.085000 33.360000
Ni 118.845000 0.000000 35.445000
Ni 116.760000 2.085000 35.445000
Ni 116.760000 0.000000 37.530000
Ni 118.845000 2.085000 37.530000
Ni 118.845000 0.000000 39.615000
Ni 116.760000 2.085000 39.615000
Ni 116.760000 4.170000 0.000000
Ni 118.845000 6.255000 0.000000
Ni 118.845000 4.170000 2.085000
Ni 116.760000 6.255000 2.085000
Ni 116.760000 4.170000 4.170000
Ni 118.845000 6.255000 4.170000
Ni 118.845000 4.170000 6.255000
Ni 116.760000 6.255000 6.255000
Ni 116.760000 4.170000 8.340000
Ni 118.845000 6.255000 8.340000
Ni 118.845000 4.170000 10.425000
Ni 116.760000 6.255000 10.425000
Ni 116.760000 4.170000 12.510000
Ni 118.845000 6.255000 12.510000
Ni 118.845000 4.170000 14.595000
Ni 116.760000 6.255000 14.595000
Ni 116.760000 4.170000 16.680000
Ni 118.845000 6.255000 16.680000
Ni 118.845000 4.170000 18.765000
Ni 116.760000 6.255000 18.765000
Ni 116.760000 4.170000 20.850000
Ni 118.845000 6.255000 20.850000
Ni 118.845000 4.170000 22.935000
Ni 116.760000 6.255000 22.935000
Ni 116.760000 4.170000 25.020000
Ni 118.845000 6.255000 25.020000
Ni 118.845000 4.170000 27.105000
Ni 116.760000 6.255000 27.105000
Ni 116.760000 4.170000 29.190000
Ni 118.845000 6.255000 29.190000
Ni 118.845000 4.170000 31.275000
Ni 116.760000 6.255000 31.275000
Ni 116.760000 4.170000 33.360000
Ni 118.845000 6.255000 33.360000
Ni 118.845000 4.170000 35.445000
Ni 116.760000 6.255000 35.445000
Ni 116.760000 4.170000 37.530000
Ni 118.845000 6.255000 37.530000
Ni 118.845000 4.170000 39.615000
Ni 116.760000 6.255000 39.615000
Ni 116.760000 8.340000 0.000000
Ni 118.845000 10.425000 0.000000
Ni 118.845000 8.340000 2.085000
Ni 116.760000 10.425000 2.085000
Ni 116.760000 8.340000 4.170000
Ni 118.845000 10.425000 4.170000
Ni 118.845000 8.340000 6.255000
Ni 116.760000 10.425000 6.255000
Ni 116.760000 8.340000 8.340000
Ni 118.845000 10.425000 8.340000
Ni 118.845000 8.340000 10.425000
Ni 116.760000 10.425000 10.425000
Ni 116.760000 8.340000 12.510000
Ni 118.845000 10.425000 12.510000
Ni 118.845000 8.340000 14.595000
Ni 116.760000 10.425000 14.595000
Ni 116.760000 8.340000 16.680000
Ni 118.845000 10.425000 16.680000
Ni 118.845000 8.340000 18.765000
Ni 116.760000 10.425000 18.765000
Ni 116.760000 8.340000 20.850000
Ni 118.845000 10.425000 20.850000
Ni 118.845000 8.340000 22.935000
Ni 116.760000 10.425000 22.935000
Ni 116.760000 8.340000 25.020000
Ni 118.845000 10.425000 25.020000
Ni 118.845000 8.340000 27.105000
Ni 116.760000 10.425000 27.105000
Ni 116.760000 8.340000 29.190000
Ni 118.845000 10.425000 29.190000
Ni 118.845000 8.340000 31.275000
Ni 116.760000 10.425000 31.275000
Ni 116.760000 8.340000 33.360000
Ni 118.845000 10.425000 33.360000
Ni 118.845000 8.340000 35.445000
Ni 116.760000 10.425000 35.445000
Ni 116.760000 8.340000 37.530000
Ni 116.760000 12.510000 0.000000
Ni 118.845000 14.595000 0.000000
Ni 118.845000 12.510000 2.085000
Ni 116.760000 14.595000 2.085000
Ni 116.760000 12.510000 4.170000
Ni 118.845000 14.595000 4.170000
Ni 118.845000 12.510000 6.255000
Ni 116.760000 14.595000 6.255000
Ni 116.760000 12.510000 8.340000
Ni 118.845000 14.595000 8.340000
Ni 118.845000 12.510000 10.425000
Ni 116.760000 14.595000 10.425000
Ni 116.760000 12.510000 12.510000
Ni 118.845000 14.595000 12.510000
Ni 118.845000 12.510000 14.595000
Ni 116.760000 14.595000 14.595000
Ni 116.760000 12.510000 16.680000
Ni 118.845000 14.595000 16.680000
Ni 118.845000 12.510000 18.765000
Ni 116.760000 14.595000 18.765000
Ni 116.760000 12.510000 20.850000
Ni 118.845000 14.595000 20.850000
Ni 118.845000 12.510000 22.935000
Ni 116.760000 14.595000 22.935000
Ni 116.760000 12.510000 25.020000
Ni 118.845000 14.595000 25.020000
Ni 118.845000 12.510000 27.105000
Ni 116.760000 14.595000 27.105000
Ni 116.760000 12.510000 29.190000
Ni 118.845000 14.595000 29.190000
Ni 118.845000 12.510000 31.275000
Ni 116.760000 14.595000 31.275000
Ni 116.760000 12.510000 33.360000
Ni 116.760000 16.680000 0.000000
Ni 118.845000 18.765000 0.000000
Ni 118.845000 16.680000 2.085000
Ni 116.760000 18.765000 2.085000
Ni 116.760000 16.680000 4.170000
Ni 118.845000 18.765000 4.170000
Ni 118.845000 16.680000 6.255000
Ni 116.760000 18.765000 6.255000
Ni 116.760000 16.680000 8.340000
Ni 118.845000 18.765000 8.340000
Ni 118.845000 16.680000 10.425000
Ni 116.760000 18.765000 10.425000
Ni 116.760000 16.680000 12.510000
Ni 118.845000 18.765000 12.510000
Ni 118.845000 16.680000 14.595000
Ni 116.760000 18.765000 14.595000
Ni 116.760000 16.680000 16.680000
Ni 118.845000 18.765000 16.680000
Ni 118.845000 16.680000 18.765000
Ni 116.760000 18.765000 18.765000
Ni 116.760000 16.680000 20.850000
Ni 118.845000 18.765000 20.850000
Ni 118.845000 16.680000 22.935000
Ni 116.760000 18.765000 22.935000
Ni 116.760000 16.680000 25.020000
Ni 118.845000 18.765000 25.020000
Ni 118.845000 16.680000 27.105000
Ni 116.760000 18.765000 27.105000
Ni 116.760000 16.680000 29.190000
Ni 116.760000 20.850000 0.000000
Ni 118.845000 22.935000 0.000000
Ni 118.845000 20.850000 2.085000
Ni 116.760000 22.935000 2.085000
Ni 116.760000 20.850000 4.170000
Ni 118.845000 22.935000 4.170000
Ni 118.845000 20.850000 6.255000
Ni 116.760000 22.935000 6.255000
Ni 116.760000 20.850000 8.340000
Ni 118.845000 22.935000 8.340000
Ni 118.845000 20.850000 10.425000
Ni 116.760000 22.935000 10.425000
Ni 116.760000 20.850000 12.510000
Ni 118.845000 22.935000 12.510000
Ni 118.845000 20.850000 14.595000
Ni 116.760000 22.935000 14.595000
Ni 116.760000 20.850000 16.680000
Ni 118.845000 22.935000 16.680000
Ni 118.845000 20.850000 18.765000
Ni 116.760000 22.935000 18.765000
Ni 116.760000 20.850000 20.850000
Ni 118.845000 22.935000 20.850000
Ni 118.845000 20.850000 22.935000
Ni 116.760000 22.935000 22.935000
Ni 116.760000 20.850000 25.020000
Ni 118.845000 22.935000 25.020000
Ni 116.760000 22.935000 27.105000
Ni 116.760000 25.020000 0.000000
Ni 118.845000 27.105000 0.000000
Ni 118.845000 25.020000 2.085000
Ni 116.760000 27.105000 2.085000
Ni 116.760000 25.020000 4.170000
Ni 118.845000 27.105000 4.170000
Ni 118.845000 25.020000 6.255000
Ni 116.760000 27.105000 6.255000
Ni 116.760000 25.020000 8.340000
Ni 118.845000 27.105000 8.340000
Ni 118.845000 25.020000 10.425000
Ni 116.760000 27.105000 10.425000
Ni 116.760000 25.020000 12.510000
Ni 118.845000 27.105000 12.510000
Ni 118.845000 25.020000 14.595000
Ni 116.760000 27.105000 14.595000
Ni 116.760000 25.020000 16.680000
Ni 118.845000 27.105000 16.680000
Ni 118.845000 25.020000 18.765000
Ni 116.760000 27.105000 18.765000
Ni 116.760000 25.020000 20.850000
Ni 118.845000 27.105000 20.850000
Ni 118.845000 25.020000 22.935000
Ni 116.760000 27.105000 22.935000
Ni 116.760000 25.020000 25.020000
Ni 118.845000 27.105000 25.020000
Ni 118.845000 25.020000 27.105000
Ni 116.760000 27.105000 27.105000
Ni 116.760000 25.020000 29.190000
Ni 118.845000 27.105000 29.190000
Ni 116.760000 27.105000 31.275000
Ni 116.760000 29.190000 0.000000
Ni 118.845000 31.275000 0.000000
Ni 118.845000 29.190000 2.085000
Ni 116.760000 31.275000 2.085000
Ni 116.760000 29.190000 4.170000
Ni 118.845000 31.275000 4.170000
Ni 118.845000 29.190000 6.255000
Ni 116.760000 31.275000 6.255000
Ni 116.760000 29.190000 8.340000
Ni 118.845000 31.275000 8.340000
Ni 118.845000 29.190000 10.425000
Ni 116.760000 31.275000 10.425000
Ni 116.760000 29.190000 12.510000
Ni 118.845000 31.275000 12.510000
Ni 118.845000 29.190000 14.595000
Ni 116.760000 31.275000 14.595000
Ni 116.760000 29.190000 16.680000
Ni 118.845000 31.275000 16.680000
Ni 118.845000 29.190000 18.765000
Ni 116.760000 31.275000 18.765000
Ni 116.760000 29.190000 20.850000
Ni 118.845000 31.275000 20.850000
Ni 118.845000 29.190000 22.935000
Ni 116.760000 31.275000 22.935000
Ni 116.760000 29.190000 25.020000
Ni 118.845000 31.275000 25.020000
Ni 118.845000 29.190000 27.105000
Ni 116.760000 31.275000 27.105000
Ni 116.760000 29.190000 29.190000
Ni 118.845000 31.275000 29.190000
Ni 118.845000 29.190000 31.275000
Ni 116.760000 31.275000 31.275000
Ni 116.760000 29.190000 33.360000
Ni 118.845000 31.275000 33.360000
Ni 116.760000 31.275000 35.445000
Ni 116.760000 33.360000 0.000000
Ni 118.845000 35.445000 0.000000
Ni 118.845000 33.360000 2.085000
Ni 116.760000 35.445000 2.085000
Ni 116.760000 33.360000 4.170000
Ni 118.845000 35.445000 4.170000
Ni 118.845000 33.360000 6.255000
Ni 116.760000 35.445000 6.255000
Ni 116.760000 33.360000 8.340000
Ni 118.845000 35.445000 8.340000
Ni 118.845000 33.360000 10.425000
Ni 116.760000 35.445000 10.425000
Ni 116.760000 33.360000 12.510000
Ni 118.845000 35.445000 12.510000
Ni 118.845000 33.360000 14.595000
Ni 116.760000 35.445000 14.595000
Ni 116.760000 33.360000 16.680000
Ni 118.845000 35.445000 16.680000
Ni 118.845000 33.360000 18.765000
Ni 116.760000 35.445000 18.765000
Ni 116.760000 33.360000 20.850000
Ni 118.845000 35.445000 20.850000
Ni 118.845000 33.360000 22.935000
Ni 116.760000 35.445000 22.935000
Ni 116.760000 33.360000 25.020000
Ni 118.845000 35.445000 25.020000
Ni 118.845000 33.360000 27.105000
Ni 116.760000 35.445000 27.105000
Ni 116.760000 33.360000 29.190000
Ni 118.845000 35.445000 29.190000
Ni 118.845000 33.360000 31.275000
Ni 116.760000 35.445000 31.275000
Ni 116.760000 33.360000 33.360000
Ni 118.845000 35.445000 33.360000
Ni 118.845000 33.360000 35.445000
Ni 116.760000 35.445000 35.445000
Ni 116.760000 33.360000 37.530000
Ni 118.845000 35.445000 37.530000
Ni 116.760000 35.445000 39.615000
Ni 116.760000 37.530000 0.000000
Ni 118.845000 39.615000 0.000000
Ni 118.845000 37.530000 2.085000
Ni 116.760000 39.615000 2.085000
Ni 116.760000 37.530000 4.170000
Ni 118.845000 39.615000 4.170000
Ni 118.845000 37.530000 6.255000
Ni 116.760000 39.615000 6.255000
Ni 116.760000 37.530000 8.340000
Ni 118.845000 39.615000 8.340000
Ni 118.845000 37.530000 10.425000
Ni 116.760000 39.615000 10.425000
Ni 116.760000 37.530000 12.510000
Ni 118.845000 39.615000 12.510000
Ni 118.845000 37.530000 14.595000
Ni 116.760000 39.615000 14.595000
Ni 116.760000 37.530000 16.680000
Ni 118.845000 39.615000 16.680000
Ni 118.845000 37.530000 18.765000
Ni 116.760000 39.615000 18.765000
Ni 116.760000 37.530000 20.850000
Ni 118.845000 39.615000 20.850000
Ni 118.845000 37.530000 22.935000
Ni 116.760000 39.615000 22.935000
Ni 116.760000 37.530000 25.020000
Ni 118.845000 39.615000 25.020000
Ni 118.845000 37.530000 27.105000
Ni 116.760000 39.615000 27.105000
Ni 116.760000 37.530000 29.190000
Ni 118.845000 39.615000 29.190000
Ni 118.845000 37.530000 31.275000
Ni 116.760000 39.615000 31.275000
Ni 116.760000 37.530000 33.360000
Ni 118.845000 39.615000 33.360000
Ni 118.845000 37.530000 35.445000
Ni 116.760000 39.615000 35.445000
Ni 116.760000 37.530000 37.530000
Ni 118.845000 39.615000 37.530000
Ni 118.845000 37.530000 39.615000
Ni 116.760000 39.615000 39.615000
Ni 120.930000 0.000000 0.000000
Ni 123.015000 2.085000 0.000000
Ni 123.015000 0.000000 2.085000
Ni 120.930000 2.085000 2.085000
Ni 120.930000 0.000000 4.170000
Ni 123.015000 2.085000 4.170000
Ni 123.015000 0.000000 6.255000
Ni 120.930000 2.085000 6.255000
Ni 120.930000 0.000000 8.340000
Ni 123.015000 2.085000 8.340000
Ni 123.015000 0.000000 10.425000
Ni 120.930000 2.085000 10.425000
Ni 120.930000 0.000000 12.510000
Ni 123.015000 2.085000 12.510000
Ni 123.015000 0.000000 14.595000
Ni 120.930000 2.085000 14.595000
Ni 120.930000 0.000000 16.680000
Ni 123.015000 2.085000 16.680000
Ni 123.015000 0.000000 18.765000
Ni 120.930000 2.085000 18.765000
Ni 120.930000 0.000000 20.850000
Ni 123.015000 2.085000 20.850000
Ni 123.015000 0.000000 22.935000
Ni 120.930000 2.085000 22.935000
Ni 120.930000 0.000000 25.020000
Ni 123.015000 2.085000 25.020000
Ni 123.015000 0.000000 27.105000
Ni 120.930000 2.085000 27.105000
Ni 120.930000 0.000000 29.190000
Ni 123.015000 2.085000 29.190000
Ni 123.015000 0.000000 31.275000
Ni 120.930000 2.085000 31.275000
Ni 120.930000 0.000000 33.360000
Ni 123.015000 2.085000 33.360000
Ni 123.015000 0.000000 35.445000
Ni 120.930000 2.085000 35.445000
Ni 120.930000 0.000000 37.530000
Ni 123.015000 2.085000 37.530000
Ni 123.015000 0.000000 39.615000
Ni 120.930000 2.085000 39.615000
Ni 120.930000 4.170000 0.000000
Ni 123.015000 6.255000 0.000000
Ni 123.015000 4.170000 2.085000
Ni 120.930000 6.255000 2.085000
Ni 120.930000 4.170000 4.170000
Ni 123.015000 6.255000 4.170000
Ni 123.015000 4.170000 6.255000
Ni 120.930000 6.255000 6.255000
Ni 120.930000 4.170000 8.340000
Ni 123.015000 6.255000 8.340000
Ni 123.015000 4.170000 10.425000
Ni 120.930000 6.255000 10.425000
Ni 120.930000 4.170000 12.510000
Ni 123.015000 6.255000 12.510000
Ni 123.015000 4.170000 14.595000
Ni 120.930000 6.255000 14.595000
Ni 120.930000 4.170000 16.680000
Ni 123.015000 6.255000 16.680000
Ni 123.015000 4.170000 18.765000
Ni 120.930000 6.255000 18.765000
Ni 120.930000 4.170000 20.850000
Ni 123.015000 6.255000 20.850000
Ni 123.015000 4.170000 22.935000
Ni 120.930000 6.255000 22.935000
Ni 120.930000 4.170000 25.020000
Ni 123.015000 6.255000 25.020000
Ni 123.015000 4.170000 27.105000
Ni 120.930000 6.255000 27.105000
Ni 120.930000 4.170000 29.190000
Ni 123.015000 6.255000 29.190000
Ni 123.015000 4.170000 31.275000
Ni 120.930000 6.255000 31.275000
Ni 120.930000 4.170000 33.360000
Ni 123.015000 6.255000 33.360000
Ni 123.015000 4.170000 35.445000
Ni 120.930000 6.255000 35.445000
Ni 120.930000 4.170000 37.530000
Ni 123.015000 6.255000 37.530000
Ni 123.015000 4.170000 39.615000
Ni 120.930000 6.255000 39.615000
Ni 120.930000 8.340000 0.000000
Ni 123.015000 10.425000 0.000000
Ni 123.015000 8.340000 2.085000
Ni 120.930000 10.425000 2.085000
Ni 120.930000 8.340000 4.170000
Ni 123.015000 10.425000 4.170000
Ni 123.015000 8.340000 6.255000
Ni 120.930000 10.425000 6.255000
Ni 120.930000 8.340000 8.340000
Ni 123.015000 10.425000 8.340000
Ni 123.015000 8.340000 10.425000
Ni 120.930000 10.425000 10.425000
Ni 120.930000 8.340000 12.510000
Ni 123.015000 10.425000 12.510000
Ni 123.015000 8.340000 14.595000
Ni 120.930000 10.425000 14.595000
Ni 120.930000 8.340000 16.680000
Ni 123.015000 10.425000 16.680000
Ni 123.015000 8.340000 18.765000
Ni 120.930000 10.425000 18.765000
Ni 120.930000 8.340000 20.850000
Ni 123.015000 10.425000 20.850000
Ni 123.015000 8.340000 22.935000
Ni 120.930000 10.425000 22.935000
Ni 120.930000 8.340000 25.020000
Ni 123.015000 10.425000 25.020000
Ni 123.015000 8.340000 27.105000
Ni 120.930000 10.425000 27.105000
Ni 120.930000 8.340000 29.190000
Ni 123.015000 10.425000 29.190000
Ni 123.015000 8.340000 31.275000
Ni 120.930000 10.425000 31.275000
Ni 120.930000 8.340000 33.360000
Ni 123.015000 10.425000 33.360000
Ni 123.015000 8.340000 35.445000
Ni 120.930000 10.425000 35.445000
Ni 120.930000 8.340000 37.530000
Ni 120.930000 12.510000 0.000000
Ni 123.015000 14.595000 0.000000
Ni 123.015000 12.510000 2.085000
Ni 120.930000 14.595000 2.085000
Ni 120.930000 12.510000 4.170000
Ni 123.015000 14.595000 4.170000
Ni 123.015000 12.510000 6.255000
Ni 120.930000 14.595000 6.255000
Ni 120.930000 12.510000 8.340000
Ni 123.015000 14.595000 8.340000
Ni 123.015000 12.510000 10.425000
Ni 120.930000 14.595000 10.425000
Ni 120.930000 12.510000 12.510000
Ni 123.015000 14.595000 12.510000
Ni 123.015000 12.510000 14.595000
Ni 120.930000 14.595000 14.595000
Ni 120.930000 12.510000 16.680000
Ni 123.015000 14.595000 16.680000
Ni 123.015000 12.510000 18.765000
Ni 120.930000 14.595000 18.765000
Ni 120.930000 12.510000 20.850000
Ni 123.015000 14.595000 20.850000
Ni 123.015000 12.510000 22.935000
Ni 120.930000 14.595000 22.935000
Ni 120.930000 12.510000 25.020000
Ni 123.015000 14.595000 25.020000
Ni 123.015000 12.510000 27.105000
Ni 120.930000 14.595000 27.105000
Ni 120.930000 12.510000 29.190000
Ni 123.015000 14.595000 29.190000
Ni 123.015000 12.510000 31.275000
Ni 120.930000 14.595000 31.275000
Ni 120.930000 12.510000 33.360000
Ni 120.930000 16.680000 0.000000
Ni 123.015000 18.765000 0.000000
Ni 123.015000 16.680000 2.085000
Ni 120.930000 18.765000 2.085000
Ni 120.930000 16.680000 4.170000
Ni 123.015000 18.765000 4.170000
Ni 123.015000 16.680000 6.255000
Ni 120.930000 18.765000 6.255000
Ni 120.930000 16.680000 8.340000
Ni 123.015000 18.765000 8.340000
Ni 123.015000 16.680000 10.425000
Ni 120.930000 18.765000 10.425000
Ni 120.930000 16.680000 12.510000
Ni 123.015000 18.765000 12.510000
Ni 123.015000 16.680000 14.595000
Ni 120.930000 18.765000 14.595000
Ni 120.930000 16.680000 16.680000
Ni 123.015000 18.765000 16.680000
Ni 123.015000 16.680000 18.765000
Ni 120.930000 18.765000 18.765000
Ni 120.930000 16.680000 20.850000
Ni 123.015000 18.765000 20.850000
Ni 123.015000 16.680000 22.935000
Ni 120.930000 18.765000 22.935000
Ni 120.930000 16.680000 25.020000
Ni 123.015000 18.765000 25.020000
Ni 123.015000 16.680000 27.105000
Ni 120.930000 18.765000 27.105000
Ni 120.930000 16.680000 29.190000
Ni 120.930000 20.850000 0.000000
Ni 123.015000 22.935000 0.000000
Ni 123.015000 20.850000 2.085000
Ni 120.930000 22.935000 2.085000
Ni 120.930000 20.850000 4.170000
Ni 123.015000 22.935000 4.170000
Ni 123.015000 20.850000 6.255000
Ni 120.930000 22.935000 6.255000
Ni 120.930000 20.850000 8.340000
Ni 123.015000 22.935000 8.340000
Ni 123.015000 20.850000 10.425000
Ni 120.930000 22.935000 10.425000
Ni 120.930000 20.850000 12.510000
Ni 123.015000 22.935000 12.510000
Ni 123.015000 20.850000 14.595000
Ni 120.930000 22.935000 14.595000
Ni 120.930000 20.850000 16.680000
Ni 123.015000 22.935000 16.680000
Ni 123.015000 20.850000 18.765000
Ni 120.930000 22.935000 18.765000
Ni 120.930000 20.850000 20.850000
Ni 123.015000 22.935000 20.850000
Ni 123.015000 20.850000 22.935000
Ni 120.930000 22.935000 22.935000
Ni 120.930000 20.850000 25.020000
Ni 123.015000 22.935000 25.020000
Ni 120.930000 22.935000 27.105000
Ni 120.930000 25.020000 0.000000
Ni 123.015000 27.105000 0.000000
Ni 123.015000 25.020000 2.085000
Ni 120.930000 27.105000 2.085000
Ni 120.930000 25.020000 4.170000
Ni 123.015000 27.105000 4.170000
Ni 123.015000 25.020000 6.255000
Ni 120.930000 27.105000 6.255000
Ni 120.930000 25.020000 8.340000
Ni 123.015000 27.105000 8.340000
Ni 123.015000 25.020000 10.425000
Ni 120.930000 27.105000 10.425000
Ni 120.930000 25.020000 12.510000
Ni 123.015000 27.105000 12.510000
Ni 123.015000 25.020000 14.595000
Ni 120.930000 27.105000 14.595000
Ni 120.930000 25.020000 16.680000
Ni 123.015000 27.105000 16.680000
Ni 123.015000 25.020000 18.765000
Ni 120.930000 27.105000 18.765000
Ni 120.930000 25.020000 20.850000
Ni 123.015000 27.105000 20.850000
Ni 123.015000 25.020000 22.935000
Ni 120.930000 27.105000 22.935000
Ni 120.930000 25.020000 25.020000
Ni 123.015000 27.105000 25.020000
Ni 123.015000 25.020000 27.105000
Ni 120.930000 27.105000 27.105000
Ni 120.930000 25.020000 29.190000
Ni 123.015000 27.105000 29.190000
Ni 120.930000 27.105000 31.275000
Ni 120.930000 29.190000 0.000000
Ni 123.015000 31.275000 0.000000
Ni 123.015000 29.190000 2.085000
Ni 120.930000 31.275000 2.085000
Ni 120.930000 29.190000 4.170000
Ni 123.015000 31.275000 4.170000
Ni 123.015000 29.190000 6.255000
Ni 120.930000 31.275000 6.255000
Ni 120.930000 29.190000 8.340000
Ni 123.015000 31.275000 8.340000
Ni 123.015000 29.190000 10.425000
Ni 120.930000 31.275000 10.425000
Ni 120.930000 29.190000 12.510000
Ni 123.015000 31.275000 12.510000
Ni 123.015000 29.190000 14.595000
Ni 120.930000 31.275000 14.595000
Ni 120.930000 29.190000 16.680000
Ni 123.015000 31.275000 16.680000
Ni 123.015000 29.190000 18.765000
Ni 120.930000 31.275000 18.765000
Ni 120.930000 29.190000 20.850000
Ni 123.015000 31.275000 20.850000
Ni 123.015000 29.190000 22.935000
Ni 120.930000 31.275000 22.935000
Ni 120.930000 29.190000 25.020000
Ni 123.015000 31.275000 25.020000
Ni 123.015000 29.190000 27.105000
Ni 120.930000 31.275000 27.105000
Ni 120.930000 29.190000 29.190000
Ni 123.015000 31.275000 29.190000
Ni 123.015000 29.190000 31.275000
Ni 120.930000 31.275000 31.275000
Ni 120.930000 29.190000 33.360000
Ni 123.015000 31.275000 33.360000
Ni 120.930000 31.275000 35.445000
Ni 120.930000 33.360000 0.000000
Ni 123.015000 35.445000 0.000000
Ni 123.015000 33.360000 2.085000
Ni 120.930000 35.445000 2.085000
Ni 120.930000 33.360000 4.170000
Ni 123.015000 35.445000 4.170000
Ni 123.015000 33.360000 6.255000
Ni 120.930000 35.445000 6.255000
Ni 120.930000 33.360000 8.340000
Ni 123.015000 35.445000 8.340000
Ni 123.015000 33.360000 10.425000
Ni 120.930000 35.445000 10.425000
Ni 120.930000 33.360000 12.510000
Ni 123.015000 35.445000 12.510000
Ni 123.015000 33.360000 14.595000
Ni 120.930000 35.445000 14.595000
Ni 120.930000 33.360000 16.680000
Ni 123.015000 35.445000 16.680000
Ni 123.015000 33.360000 18.765000
Ni 120.930000 35.445000 18.765000
Ni 120.930000 33.360000 20.850000
Ni 123.015000 35.445000 20.850000
Ni 123.015000 33.360000 22.935000
Ni 120.930000 35.445000 22.935000
Ni 120.930000 33.360000 25.020000
Ni 123.015000 35.445000 25.020000
Ni 123.015000 33.360000 27.105000
Ni 120.930000 35.445000 27.105000
Ni 120.930000 33.360000 29.190000
Ni 123.015000 35.445000 29.190000
Ni 123.015000 33.360000 31.275000
Ni 120.930000 35.445000 31.275000
Ni 120.930000 33.360000 33.360000
Ni 123.015000 35.445000 33.360000
Ni 123.015000 33.360000 35.445000
Ni 120.930000 35.445000 35.445000
Ni 120.930000 33.360000 37.530000
Ni 123.015000 35.445000 37.530000
Ni 120.930000 35.445000 39.615000
Ni 120.930000 37.530000 0.000000
Ni 123.015000 39.615000 0.000000
Ni 123.015000 37.530000 2.085000
Ni 120.930000 39.615000 2.085000
Ni 120.930000 37.530000 4.170000
Ni 123.015000 39.615000 4.170000
Ni 123.015000 37.530000 6.255000
Ni 120.930000 39.615000 6.255000
Ni 120.930000 37.530000 8.340000
Ni 123.015000 39.615000 8.340000
Ni 123.015000 37.530000 10.425000
Ni 120.930000 39.615000 10.425000
Ni 120.930000 37.530000 12.510000
Ni 123.015000 39.615000 12.510000
Ni 123.015000 37.530000 14.595000
Ni 120.930000 39.615000 14.595000
Ni 120.930000 37.530000 16.680000
Ni 123.015000 39.615000 16.680000
Ni 123.015000 37.530000 18.765000
Ni 120.930000 39.615000 18.765000
Ni 120.930000 37.530000 20.850000
Ni 123.015000 39.615000 20.850000
Ni 123.015000 37.530000 22.935000
Ni 120.930000 39.615000 22.935000
Ni 120.930000 37.530000 25.020000
Ni 123.015000 39.615000 25.020000
Ni 123.015000 37.530000 27.105000
Ni 120.930000 39.615000 27.105000
Ni 120.930000 37.530000 29.190000
Ni 123.015000 39.615000 29.190000
Ni 123.015000 37.530000 31.275000
Ni 120.930000 39.615000 31.275000
Ni 120.930000 37.530000 33.360000
Ni 123.015000 39.615000 33.360000
Ni 123.015000 37.530000 35.445000
Ni 120.930000 39.615000 35.445000
Ni 120.930000 37.530000 37.530000
Ni 123.015000 39.615000 37.530000
Ni 123.015000 37.530000 39.615000
Ni 120.930000 39.615000 39.615000
O 2.085000 2.085000 2.085000
O 4.170000 2.085000 0.000000
O 2.085000 4.170000 0.000000
O 0.000000 0.000000 2.085000
O 2.085000 2.085000 6.255000
O 4.170000 2.085000 4.170000
O 2.085000 4.170000 4.170000
O 0.000000 0.000000 6.255000
O 2.085000 2.085000 10.425000
O 4.170000 2.085000 8.340000
O 2.085000 4.170000 8.340000
O 0.000000 0.000000 10.425000
O 2.085000 2.085000 14.595000
O 4.170000 2.085000 12.510000
O 2.085000 4.170000 12.510000
O 0.000000 0.000000 14.595000
O 2.085000 2.085000 18.765000
O 4.170000 2.085000 16.680000
O 2.085000 4.170000 16.680000
O 0.000000 0.000000 18.765000
O 2.085000 2.085000 22.935000
O 4.170000 2.085000 20.850000
O 2.085000 4.170000 20.850000
O 0.000000 0.000000 22.935000
O 2.085000 2.085000 27.105000
O 4.170000 2.085000 25.020000
O 2.085000 4.170000 25.020000
O 0.000000 0.000000 27.105000
O 2.085000 2.085000 31.275000
O 4.170000 2.085000 29.190000
O 2.085000 4.170000 29.190000
O 0.000000 0.000000 31.275000
O 2.085000 2.085000 35.445000
O 4.170000 2.085000 33.360000
O 2.085000 4.170000 33.360000
O 0.000000 0.000000 35.445000
O 2.085000 2.085000 39.615000
O 4.170000 2.085000 37.530000
O 2.085000 4.170000 37.530000
O 0.000000 0.000000 39.615000
O 2.085000 6.255000 2.085000
O 4.170000 6.255000 0.000000
O 2.085000 8.340000 0.000000
O 0.000000 4.170000 2.085000
O 2.085000 6.255000 6.255000
O 4.170000 6.255000 4.170000
O 2.085000 8.340000 4.170000
O 0.000000 4.170000 6.255000
O 2.085000 6.255000 10.425000
O 4.170000 6.255000 8.340000
O 2.085000 8.340000 8.340000
O 0.000000 4.170000 10.425000
O 2.085000 6.255000 14.595000
O 4.170000 6.255000 12.510000
O 2.085000 8.340000 12.510000
O 0.000000 4.170000 14.595000
O 2.085000 6.255000 18.765000
O 4.170000 6.255000 16.680000
O 2.085000 8.340000 16.680000
O 0.000000 4.170000 18.765000
O 2.085000 6.255000 22.935000
O 4.170000 6.255000 20.850000
O 2.085000 8.340000 20.850000
O 0.000000 4.170000 22.935000
O 2.085000 6.255000 27.105000
O 4.170000 6.255000 25.020000
O 2.085000 8.340000 25.020000
O 0.000000 4.170000 27.105000
O 2.085000 6.255000 31.275000
O 4.170000 6.255000 29.190000
O 2.085000 8.340000 29.190000
O 0.000000 4.170000 31.275000
O 2.085000 6.255000 35.445000
O 4.170000 6.255000 33.360000
O 2.085000 8.340000 33.360000
O 0.000000 4.170000 35.445000
O 2.085000 6.255000 39.615000
O 4.170000 6.255000 37.530000
O 2.085000 8.340000 37.530000
O 0.000000 4.170000 39.615000
O 2.085000 10.425000 2.085000
O 4.170000 10.425000 0.000000
O 2.085000 12.510000 0.000000
O 0.000000 8.340000 2.085000
O 2.085000 10.425000 6.255000
O 4.170000 10.425000 4.170000
O 2.085000 12.510000 4.170000
O 0.000000 8.340000 6.255000
O 2.085000 10.425000 10.425000
O 4.170000 10.425000 8.340000
O 2.085000 12.510000 8.340000
O 0.000000 8.340000 10.425000
O 2.085000 10.425000 14.595000
O 4.170000 10.425000 12.510000
O 2.085000 12.510000 12.510000
O 0.000000 8.340000 14.595000
O 2.085000 10.425000 18.765000
O 4.170000 10.425000 16.680000
O 2.085000 12.510000 16.680000
O 0.000000 8.340000 18.765000
O 2.085000 10.425000 22.935000
O 4.170000 10.425000 20.850000
O 2.085000 12.510000 20.850000
O 0.000000 8.340000 22.935000
O 2.085000 10.425000 27.105000
O 4.170000 10.425000 25.020000
O 2.085000 12.510000 25.020000
O 0.000000 8.340000 27.105000
O 2.085000 10.425000 31.275000
O 4.170000 10.425000 29.190000
O 2.085000 12.510000 29.190000
O 0.000000 8.340000 31.275000
O 2.085000 10.425000 35.445000
O 4.170000 10.425000 33.360000
O 2.085000 12.510000 33.360000
O 0.000000 8.340000 35.445000
O 2.085000 14.595000 2.085000
O 4.170000 14.595000 0.000000
O 2.085000 16.680000 0.000000
O 0.000000 12.510000 2.085000
O 2.085000 14.595000 6.255000
O 4.170000 14.595000 4.170000
O 2.085000 16.680000 4.170000
O 0.000000 12.510000 6.255000
O 2.085000 14.595000 10.425000
O 4.170000 14.595000 8.340000
O 2.085000 16.680000 8.340000
O 0.000000 12.510000 10.425000
O 2.085000 14.595000 14.595000
O 4.170000 14.595000 12.510000
O 2.085000 16.680000 12.510000
O 0.000000 12.510000 14.595000
O 2.085000 14.595000 18.765000
O 4.170000 14.595000 16.680000
O 2.085000 16.680000 16.680000
O 0.000000 12.510000 18.765000
O 2.085000 14.595000 22.935000
O 4.170000 14.595000 20.850000
O 2.085000 16.680000 20.850000
O 0.000000 12.510000 22.935000
O 2.085000 14.595000 27.105000
O 4.170000 14.595000 25.020000
O 2.085000 16.680000 25.020000
O 0.000000 12.510000 27.105000
O 2.085000 14.595000 31.275000
O 4.170000 14.595000 29.190000
O 2.085000 16.680000 29.190000
O 0.000000 12.510000 31.275000
O 2.085000 18.765000 2.085000
O 4.170000 18.765000 0.000000
O 2.085000 20.850000 0.000000
O 0.000000 16.680000 2.085000
O 2.085000 18.765000 6.255000
O 4.170000 18.765000 4.170000
O 2.085000 20.850000 4.170000
O 0.000000 16.680000 6.255000
O 2.085000 18.765000 10.425000
O 4.170000 18.765000 8.340000
O 2.085000 20.850000 8.340000
O 0.000000 16.680000 10.425000
O 2.085000 18.765000 14.595000
O 4.170000 18.765000 12.510000
O 2.085000 20.850000 12.510000
O 0.000000 16.680000 14.595000
O 2.085000 18.765000 18.765000
O 4.170000 18.765000 16.680000
O 2.085000 20.850000 16.680000
O 0.000000 16.680000 18.765000
O 2.085000 18.765000 22.935000
O 4.170000 18.765000 20.850000
O 2.085000 20.850000 20.850000
O 0.000000 16.680000 22.935000
O 2.085000 18.765000 27.105000
O 4.170000 18.765000 25.020000
O 2.085000 20.850000 25.020000
O 0.000000 16.680000 27.105000
O 2.085000 22.935000 2.085000
O 4.170000 22.935000 0.000000
O 2.085000 25.020000 0.000000
O 0.000000 20.850000 2.085000
O 2.085000 22.935000 6.255000
O 4.170000 22.935000 4.170000
O 2.085000 25.020000 4.170000
O 0.000000 20.850000 6.255000
O 2.085000 22.935000 10.425000
O 4.170000 22.935000 8.340000
O 2.085000 25.020000 8.340000
O 0.000000 20.850000 10.425000
O 2.085000 22.935000 14.595000
O 4.170000 22.935000 12.510000
O 2.085000 25.020000 12.510000
O 0.000000 20.850000 14.595000
O 2.085000 22.935000 18.765000
O 4.170000 22.935000 16.680000
O 2.085000 25.020000 16.680000
O 0.000000 20.850000 18.765000
O 2.085000 22.935000 22.935000
O 4.170000 22.935000 20.850000
O 2.085000 25.020000 20.850000
O 0.000000 20.850000 22.935000
O 2.085000 22.935000 27.105000
O 4.170000 22.935000 25.020000
O 2.085000 25.020000 25.020000
O 2.085000 25.020000 29.190000
O 2.085000 27.105000 2.085000
O 4.170000 27.105000 0.000000
O 2.085000 29.190000 0.000000
O 0.000000 25.020000 2.085000
O 2.085000 27.105000 6.255000
O 4.170000 27.105000 4.170000
O 2.085000 29.190000 4.170000
O 0.000000 25.020000 6.255000
O 2.085000 27.105000 10.425000
O 4.170000 27.105000 8.340000
O 2.085000 29.190000 8.340000
O 0.000000 25.020000 10.425000
O 2.085000 27.105000 14.595000
O 4.170000 27.105000 12.510000
O 2.085000 29.190000 12.510000
O 0.000000 25.020000 14.595000
O 2.085000 27.105000 18.765000
O 4.170000 27.105000 16.680000
O 2.085000 29.190000 16.680000
O 0.000000 25.020000 18.765000
O 2.085000 27.105000 22.935000
O 4.170000 27.105000 20.850000
O 2.085000 29.190000 20.850000
O 0.000000 25.020000 22.935000
O 2.085000 27.105000 27.105000
O 4.170000 27.105000 25.020000
O 2.085000 29.190000 25.020000
O 0.000000 25.020000 27.105000
O 2.085000 27.105000 31.275000
O 4.170000 27.105000 29.190000
O 2.085000 29.190000 29.190000
O 2.085000 29.190000 33.360000
O 2.085000 31.275000 2.085000
O 4.170000 31.275000 0.000000
O 2.085000 33.360000 0.000000
O 0.000000 29.190000 2.085000
O 2.085000 31.275000 6.255000
O 4.170000 31.275000 4.170000
O 2.085000 33.360000 4.170000
O 0.000000 29.190000 6.255000
O 2.085000 31.275000 10.425000
O 4.170000 31.275000 8.340000
O 2.085000 33.360000 8.340000
O 0.000000 29.190000 10.425000
O 2.085000 31.275000 14.595000
O 4.170000 31.275000 12.510000
O 2.085000 33.360000 12.510000
O 0.000000 29.190000 14.595000
O 2.085000 31.275000 18.765000
O 4.170000 31.275000 16.680000
O 2.085000 33.360000 16.680000
O 0.000000 29.190000 18.765000
O 2.085000 31.275000 22.935000
O 4.170000 31.275000 20.850000
O 2.085000 33.360000 20.850000
O 0.000000 29.190000 22.935000
O 2.085000 31.275000 27.105000
O 4.170000 31.275000 25.020000
O 2.085000 33.360000 25.020000
O 0.000000 29.190000 27.105000
O 2.085000 31.275000 31.275000
O 4.170000 31.275000 29.190000
O 2.085000 33.360000 29.190000
O 0.000000 29.190000 31.275000
O 2.085000 31.275000 35.445000
O 4.170000 31.275000 33.360000
O 2.085000 33.360000 33.360000
O 2.085000 33.360000 37.530000
O 2.085000 35.445000 2.085000
O 4.170000 35.445000 0.000000
O 2.085000 37.530000 0.000000
O 0.000000 33.360000 2.085000
O 2.085000 35.445000 6.255000
O 4.170000 35.445000 4.170000
O 2.085000 37.530000 4.170000
O 0.000000 33.360000 6.255000
O 2.085000 35.445000 10.425000
O 4.170000 35.445000 8.340000
O 2.085000 37.530000 8.340000
O 0.000000 33.360000 10.425000
O 2.085000 35.445000 14.595000
O 4.170000 35.445000 12.510000
O 2.085000 37.530000 12.510000
O 0.000000 33.360000 14.595000
O 2.085000 35.445000 18.765000
O 4.170000 35.445000 16.680000
O 2.085000 37.530000 16.680000
O 0.000000 33.360000 18.765000
O 2.085000 35.445000 22.935000
O 4.170000 35.445000 20.850000
O 2.085000 37.530000 20.850000
O 0.000000 33.360000 22.935000
O 2.085000 35.445000 27.105000
O 4.170000 35.445000 25.020000
O 2.085000 37.530000 25.020000
O 0.000000 33.360000 27.105000
O 2.085000 35.445000 31.275000
O 4.170000 35.445000 29.190000
O 2.085000 37.530000 29.190000
O 0.000000 33.360000 31.275000
O 2.085000 35.445000 35.445000
O 4.170000 35.445000 33.360000
O 2.085000 37.530000 33.360000
O 0.000000 33.360000 35.445000
O 2.085000 35.445000 39.615000
O 4.170000 35.445000 37.530000
O 2.085000 37.530000 37.530000
O 2.085000 39.615000 2.085000
O 4.170000 39.615000 0.000000
O 2.085000 0.000000 0.000000
O 0.000000 37.530000 2.085000
O 2.085000 39.615000 6.255000
O 4.170000 39.615000 4.170000
O 2.085000 0.000000 4.170000
O 0.000000 37.530000 6.255000
O 2.085000 39.615000 10.425000
O 4.170000 39.615000 8.340000
O 2.085000 0.000000 8.340000
O 0.000000 37.530000 10.425000
O 2.085000 39.615000 14.595000
O 4.170000 39.615000 12.510000
O 2.085000 0.000000 12.510000
O 0.000000 37.530000 14.595000
O 2.085000 39.615000 18.765000
O 4.170000 39.615000 16.680000
O 2.085000 0.000000 16.680000
O 0.000000 37.530000 18.765000
O 2.085000 39.615000 22.935000
O 4.170000 39.615000 20.850000
O 2.085000 0.000000 20.850000
O 0.000000 37.530000 22.935000
O 2.085000 39.615000 27.105000
O 4.170000 39.615000 25.020000
O 2.085000 0.000000 25.020000
O 0.000000 37.530000 27.105000
O 2.085000 39.615000 31.275000
O 4.170000 39.615000 29.190000
O 2.085000 0.000000 29.190000
O 0.000000 37.530000 31.275000
O 2.085000 39.615000 35.445000
O 4.170000 39.615000 33.360000
O 2.085000 0.000000 33.360000
O 0.000000 37.530000 35.445000
O 2.085000 39.615000 39.615000
O 4.170000 39.615000 37.530000
O 2.085000 0.000000 37.530000
O 0.000000 37.530000 39.615000
O 6.255000 2.085000 2.085000
O 8.340000 2.085000 0.000000
O 6.255000 4.170000 0.000000
O 4.170000 0.000000 2.085000
O 6.255000 2.085000 6.255000
O 8.340000 2.085000 4.170000
O 6.255000 4.170000 4.170000
O 4.170000 0.000000 6.255000
O 6.255000 2.085000 10.425000
O 8.340000 2.085000 8.340000
O 6.255000 4.170000 8.340000
O 4.170000 0.000000 10.425000
O 6.255000 2.085000 14.595000
O 8.340000 2.085000 12.510000
O 6.255000 4.170000 12.510000
O 4.170000 0.000000 14.595000
O 6.255000 2.085000 18.765000
O 8.340000 2.085000 16.680000
O 6.255000 4.170000 16.680000
O 4.170000 0.000000 18.765000
O 6.255000 2.085000 22.935000
O 8.340000 2.085000 20.850000
O 6.255000 4.170000 20.850000
O 4.170000 0.000000 22.935000
O 6.255000 2.085000 27.105000
O 8.340000 2.085000 25.020000
O 6.255000 4.170000 25.020000
O 4.170000 0.000000 27.105000
O 6.255000 2.085000 31.275000
O 8.340000 2.085000 29.190000
O 6.255000 4.170000 29.190000
O 4.170000 0.000000 31.275000
O 6.255000 2.085000 35.445000
O 8.340000 2.085000 33.360000
O 6.255000 4.170000 33.360000
O 4.170000 0.000000 35.445000
O 6.255000 2.085000 39.615000
O 8.340000 2.085000 37.530000
O 6.255000 4.170000 37.530000
O 4.170000 0.000000 39.615000
O 6.255000 6.255000 2.085000
O 8.340000 6.255000 0.000000
O 6.255000 8.340000 0.000000
O 4.170000 4.170000 2.085000
O 6.255000 6.255000 6.255000
O 8.340000 6.255000 4.170000
O 6.255000 8.340000 4.170000
O 4.170000 4.170000 6.255000
O 6.255000 6.255000 10.425000
O 8.340000 6.255000 8.340000
O 6.255000 8.340000 8.340000
O 4.170000 4.170000 10.425000
O 6.255000 6.255000 14.595000
O 8.340000 6.255000 12.510000
O 6.255000 8.340000 12.510000
O 4.170000 4.170000 14.595000
O 6.255000 6.255000 18.765000
O 8.340000 6.255000 16.680000
O 6.255000 8.340000 16.680000
O 4.170000 4.170000 18.765000
O 6.255000 6.255000 22.935000
O 8.340000 6.255000 20.850000
O 6.255000 8.340000 20.850000
O 4.170000 4.170000 22.935000
O 6.255000 6.255000 27.105000
O 8.340000 6.255000 25.020000
O 6.255000 8.340000 25.020000
O 4.170000 4.170000 27.105000
O 6.255000 6.255000 31.275000
O 8.340000 6.255000 29.190000
O 6.255000 8.340000 29.190000
O 4.170000 4.170000 31.275000
O 6.255000 6.255000 35.445000
O 8.340000 6.255000 33.360000
O 6.255000 8.340000 33.360000
O 4.170000 4.170000 35.445000
O 6.255000 6.255000 39.615000
O 8.340000 6.255000 37.530000
O 6.255000 8.340000 37.530000
O 4.170000 4.170000 39.615000
O 6.255000 10.425000 2.085000
O 8.340000 10.425000 0.000000
O 6.255000 12.510000 0.000000
O 4.170000 8.340000 2.085000
O 6.255000 10.425000 6.255000
O 8.340000 10.425000 4.170000
O 6.255000 12.510000 4.170000
O 4.170000 8.340000 6.255000
O 6.255000 10.425000 10.425000
O 8.340000 10.425000 8.340000
O 6.255000 12.510000 8.340000
O 4.170000 8.340000 10.425000
O 6.255000 10.425000 14.595000
O 8.340000 10.425000 12.510000
O 6.255000 12.510000 12.510000
O 4.170000 8.340000 14.595000
O 6.255000 10.425000 18.765000
O 8.340000 10.425000 16.680000
O 6.255000 12.510000 16.680000
O 4.170000 8.340000 18.765000
O 6.255000 10.425000 22.935000
O 8.340000 10.425000 20.850000
O 6.255000 12.510000 20.850000
O 4.170000 8.340000 22.935000
O 6.255000 10.425000 27.105000
O 8.340000 10.425000 25.020000
O 6.255000 12.510000 25.020000
O 4.170000 8.340000 27.105000
O 6.255000 10.425000 31.275000
O 8.340000 10.425000 29.190000
O 6.255000 12.510000 29.190000
O 4.170000 8.340000 31.275000
O 6.255000 10.425000 35.445000
O 8.340000 10.425000 33.360000
O 6.255000 12.510000 33.360000
O 4.170000 8.340000 35.445000
O 6.255000 14.595000 2.085000
O 8.340000 14.595000 0.000000
O 6.255000 16.680000 0.000000
O 4.170000 12.510000 2.085000
O 6.255000 14.595000 6.255000
O 8.340000 14.595000 4.170000
O 6.255000 16.680000 4.170000
O 4.170000 12.510000 6.255000
O 6.255000 14.595000 10.425000
O 8.340000 14.595000 8.340000
O 6.255000 16.680000 8.340000
O 4.170000 12.510000 10.425000
O 6.255000 14.595000 14.595000
O 8.340000 14.595000 12.510000
O 6.255000 16.680000 12.510000
O 4.170000 12.510000 14.595000
O 6.255000 14.595000 18.765000
O 8.340000 14.595000 16.680000
O 6.255000 16.680000 16.680000
O 4.170000 12.510000 18.765000
O 6.255000 14.595000 22.935000
O 8.340000 14.595000 20.850000
O 6.255000 16.680000 20.850000
O 4.170000 12.510000 22.935000
O 6.255000 14.595000 27.105000
O 8.340000 14.595000 25.020000
O 6.255000 16.680000 25.020000
O 4.170000 12.510000 27.105000
O 6.255000 14.595000 31.275000
O 8.340000 14.595000 29.190000
O 6.255000 16.680000 29.190000
O 4.170000 12.510000 31.275000
O 6.255000 18.765000 2.085000
O 8.340000 18.765000 0.000000
O 6.255000 20.850000 0.000000
O 4.170000 16.680000 2.085000
O 6.255000 18.765000 6.255000
O 8.340000 18.765000 4.170000
O 6.255000 20.850000 4.170000
O 4.170000 16.680000 6.255000
O 6.255000 18.765000 10.425000
O 8.340000 18.765000 8.340000
O 6.255000 20.850000 8.340000
O 4.170000 16.680000 10.425000
O 6.255000 18.765000 14.595000
O 8.340000 18.765000 12.510000
O 6.255000 20.850000 12.510000
O 4.170000 16.680000 14.595000
O 6.255000 18.765000 18.765000
O 8.340000 18.765000 16.680000
O 6.255000 20.850000 16.680000
O 4.170000 16.680000 18.765000
O 6.255000 18.765000 22.935000
O 8.340000 18.765000 20.850000
O 6.255000 20.850000 20.850000
O 4.170000 16.680000 22.935000
O 6.255000 18.765000 27.105000
O 8.340000 18.765000 25.020000
O 6.255000 20.850000 25.020000
O 4.170000 16.680000 27.105000
O 6.255000 22.935000 2.085000
O 8.340000 22.935000 0.000000
O 6.255000 25.020000 0.000000
O 4.170000 20.850000 2.085000
O 6.255000 22.935000 6.255000
O 8.340000 22.935000 4.170000
O 6.255000 25.020000 4.170000
O 4.170000 20.850000 6.255000
O 6.255000 22.935000 10.425000
O 8.340000 22.935000 8.340000
O 6.255000 25.020000 8.340000
O 4.170000 20.850000 10.425000
O 6.255000 22.935000 14.595000
O 8.340000 22.935000 12.510000
O 6.255000 25.020000 12.510000
O 4.170000 20.850000 14.595000
O 6.255000 22.935000 18.765000
O 8.340000 22.935000 16.680000
O 6.255000 25.020000 16.680000
O 4.170000 20.850000 18.765000
O 6.255000 22.935000 22.935000
O 8.340000 22.935000 20.850000
O 6.255000 25.020000 20.850000
O 4.170000 20.850000 22.935000
O 6.255000 22.935000 27.105000
O 8.340000 22.935000 25.020000
O 6.255000 25.020000 25.020000
O 6.255000 25.020000 29.190000
O 6.255000 27.105000 2.085000
O 8.340000 27.105000 0.000000
O 6.255000 29.190000 0.000000
O 4.170000 25.020000 2.085000
O 6.255000 27.105000 6.255000
O 8.340000 27.105000 4.170000
O 6.255000 29.190000 4.170000
O 4.170000 25.020000 6.255000
O 6.255000 27.105000 10.425000
O 8.340000 27.105000 8.340000
O 6.255000 29.190000 8.340000
O 4.170000 25.020000 10.425000
O 6.255000 27.105000 14.595000
O 8.340000 27.105000 12.510000
O 6.255000 29.190000 12.510000
O 4.170000 25.020000 14.595000
O 6.255000 27.105000 18.765000
O 8.340000 27.105000 16.680000
O 6.255000 29.190000 16.680000
O 4.170000 25.020000 18.765000
O 6.255000 27.105000 22.935000
O 8.340000 27.105000 20.850000
O 6.255000 29.190000 20.850000
O 4.170000 25.020000 22.935000
O 6.255000 27.105000 27.105000
O 8.340000 27.105000 25.020000
O 6.255000 29.190000 25.020000
O 4.170000 25.020000 27.105000
O 6.255000 27.105000 31.275000
O 8.340000 27.105000 29.190000
O 6.255000 29.190000 29.190000
O 6.255000 29.190000 33.360000
O 6.255000 31.275000 2.085000
O 8.340000 31.275000 0.000000
O 6.255000 33.360000 0.000000
O 4.170000 29.190000 2.085000
O 6.255000 31.275000 6.255000
O 8.340000 31.275000 4.170000
O 6.255000 33.360000 4.170000
O 4.170000 29.190000 6.255000
O 6.255000 31.275000 10.425000
O 8.340000 31.275000 8.340000
O 6.255000 33.360000 8.340000
O 4.170000 29.190000 10.425000
O 6.255000 31.275000 14.595000
O 8.340000 31.275000 12.510000
O 6.255000 33.360000 12.510000
O 4.170000 29.190000 14.595000
O 6.255000 31.275000 18.765000
O 8.340000 31.275000 16.680000
O 6.255000 33.360000 16.680000
O 4.170000 29.190000 18.765000
O 6.255000 31.275000 22.935000
O 8.340000 31.275000 20.850000
O 6.255000 33.360000 20.850000
O 4.170000 29.190000 22.935000
O 6.255000 31.275000 27.105000
O 8.340000 31.275000 25.020000
O 6.255000 33.360000 25.020000
O 4.170000 29.190000 27.105000
O 6.255000 31.275000 31.275000
O 8.340000 31.275000 29.190000
O 6.255000 33.360000 29.190000
O 4.170000 29.190000 31.275000
O 6.255000 31.275000 35.445000
O 8.340000 31.275000 33.360000
O 6.255000 33.360000 33.360000
O 6.255000 33.360000 37.530000
O 6.255000 35.445000 2.085000
O 8.340000 35.445000 0.000000
O 6.255000 37.530000 0.000000
O 4.170000 33.360000 2.085000
O 6.255000 35.445000 6.255000
O 8.340000 35.445000 4.170000
O 6.255000 37.530000 4.170000
O 4.170000 33.360000 6.255000
O 6.255000 35.445000 10.425000
O 8.340000 35.445000 8.340000
O 6.255000 37.530000 8.340000
O 4.170000 33.360000 10.425000
O 6.255000 35.445000 14.595000
O 8.340000 35.445000 12.510000
O 6.255000 37.530000 12.510000
O 4.170000 33.360000 14.595000
O 6.255000 35.445000 18.765000
O 8.340000 35.445000 16.680000
O 6.255000 37.530000 16.680000
O 4.170000 33.360000 18.765000
O 6.255000 35.445000 22.935000
O 8.340000 35.445000 20.850000
O 6.255000 37.530000 20.850000
O 4.170000 33.360000 22.935000
O 6.255000 35.445000 27.105000
O 8.340000 35.445000 25.020000
O 6.255000 37.530000 25.020000
O 4.170000 33.360000 27.105000
O 6.255000 35.445000 31.275000
O 8.340000 35.445000 29.190000
O 6.255000 37.530000 29.190000
O 4.170000 33.360000 31.275000
O 6.255000 35.445000 35.445000
O 8.340000 35.445000 33.360000
O 6.255000 37.530000 33.360000
O 4.170000 33.360000 35.445000
O 6.255000 35.445000 39.615000
O 8.340000 35.445000 37.530000
O 6.255000 37.530000 37.530000
O 6.255000 39.615000 2.085000
O 8.340000 39.615000 0.000000
O 6.255000 0.000000 0.000000
O 4.170000 37.530000 2.085000
O 6.255000 39.615000 6.255000
O 8.340000 39.615000 4.170000
O 6.255000 0.000000 4.170000
O 4.170000 37.530000 6.255000
O 6.255000 39.615000 10.425000
O 8.340000 39.615000 8.340000
O 6.255000 0.000000 8.340000
O 4.170000 37.530000 10.425000
O 6.255000 39.615000 14.595000
O 8.340000 39.615000 12.510000
O 6.255000 0.000000 12.510000
O 4.170000 37.530000 14.595000
O 6.255000 39.615000 18.765000
O 8.340000 39.615000 16.680000
O 6.255000 0.000000 16.680000
O 4.170000 37.530000 18.765000
O 6.255000 39.615000 22.935000
O 8.340000 39.615000 20.850000
O 6.255000 0.000000 20.850000
O 4.170000 37.530000 22.935000
O 6.255000 39.615000 27.105000
O 8.340000 39.615000 25.020000
O 6.255000 0.000000 25.020000
O 4.170000 37.530000 27.105000
O 6.255000 39.615000 31.275000
O 8.340000 39.615000 29.190000
O 6.255000 0.000000 29.190000
O 4.170000 37.530000 31.275000
O 6.255000 39.615000 35.445000
O 8.340000 39.615000 33.360000
O 6.255000 0.000000 33.360000
O 4.170000 37.530000 35.445000
O 6.255000 39.615000 39.615000
O 8.340000 39.615000 37.530000
O 6.255000 0.000000 37.530000
O 4.170000 37.530000 39.615000
O 10.425000 2.085000 2.085000
O 12.510000 2.085000 0.000000
O 10.425000 4.170000 0.000000
O 8.340000 0.000000 2.085000
O 10.425000 2.085000 6.255000
O 12.510000 2.085000 4.170000
O 10.425000 4.170000 4.170000
O 8.340000 0.000000 6.255000
O 10.425000 2.085000 10.425000
O 12.510000 2.085000 8.340000
O 10.425000 4.170000 8.340000
O 8.340000 0.000000 10.425000
O 10.425000 2.085000 14.595000
O 12.510000 2.085000 12.510000
O 10.425000 4.170000 12.510000
O 8.340000 0.000000 14.595000
O 10.425000 2.085000 18.765000
O 12.510000 2.085000 16.680000
O 10.425000 4.170000 16.680000
O 8.340000 0.000000 18.765000
O 10.425000 2.085000 22.935000
O 12.510000 2.085000 20.850000
O 10.425000 4.170000 20.850000
O 8.340000 0.000000 22.935000
O 10.425000 2.085000 27.105000
O 12.510000 2.085000 25.020000
O 10.425000 4.170000 25.020000
O 8.340000 0.000000 27.105000
O 10.425000 2.085000 31.275000
O 12.510000 2.085000 29.190000
O 10.425000 4.170000 29.190000
O 8.340000 0.000000 31.275000
O 10.425000 2.085000 35.445000
O 12.510000 2.085000 33.360000
O 10.425000 4.170000 33.360000
O 8.340000 0.000000 35.445000
O 10.425000 2.085000 39.615000
O 12.510000 2.085000 37.530000
O 10.425000 4.170000 37.530000
O 8.340000 0.000000 39.615000
O 10.425000 6.255000 2.085000
O 12.510000 6.255000 0.000000
O 10.425000 8.340000 0.000000
O 8.340000 4.170000 2.085000
O 10.425000 6.255000 6.255000
O 12.510000 6.255000 4.170000
O 10.425000 8.340000 4.170000
O 8.340000 4.170000 6.255000
O 10.425000 6.255000 10.425000
O 12.510000 6.255000 8.340000
O 10.425000 8.340000 8.340000
O 8.340000 4.170000 10.425000
O 10.425000 6.255000 14.595000
O 12.510000 6.255000 12.510000
O 10.425000 8.340000 12.510000
O 8.340000 4.170000 14.595000
O 10.425000 6.255000 18.765000
O 12.510000 6.255000 16.680000
O 10.425000 8.340000 16.680000
O 8.340000 4.170000 18.765000
O 10.425000 6.255000 22.935000
O 12.510000 6.255000 20.850000
O 10.425000 8.340000 20.850000
O 8.340000 4.170000 22.935000
O 10.425000 6.255000 27.105000
O 12.510000 6.255000 25.020000
O 10.425000 8.340000 25.020000
O 8.340000 4.170000 27.105000
O 10.425000 6.255000 31.275000
O 12.510000 6.255000 29.190000
O 10.425000 8.340000 29.190000
O 8.340000 4.170000 31.275000
O 10.425000 6.255000 35.445000
O 12.510000 6.255000 33.360000
O 10.425000 8.340000 33.360000
O 8.340000 4.170000 35.445000
O 10.425000 6.255000 39.615000
O 12.510000 6.255000 37.530000
O 10.425000 8.340000 37.530000
O 8.340000 4.170000 39.615000
O 10.425000 10.425000 2.085000
O 12.510000 10.425000 0.000000
O 10.425000 12.510000 0.000000
O 8.340000 8.340000 2.085000
O 10.425000 10.425000 6.255000
O 12.510000 10.425000 4.170000
O 10.425000 12.510000 4.170000
O 8.340000 8.340000 6.255000
O 10.425000 10.425000 10.425000
O 12.510000 10.425000 8.340000
O 10.425000 12.510000 8.340000
O 8.340000 8.340000 10.425000
O 10.425000 10.425000 14.595000
O 12.510000 10.425000 12.510000
O 10.425000 12.510000 12.510000
O 8.340000 8.340000 14.595000
O 10.425000 10.425000 18.765000
O 12.510000 10.425000 16.680000
O 10.425000 12.510000 16.680000
O 8.340000 8.340000 18.765000
O 10.425000 10.425000 22.935000
O 12.510000 10.425000 20.850000
O 10.425000 12.510000 20.850000
O 8.340000 8.340000 22.935000
O 10.425000 10.425000 27.105000
O 12.510000 10.425000 25.020000
O 10.425000 12.510000 25.020000
O 8.340000 8.340000 27.105000
O 10.425000 10.425000 31.275000
O 12.510000 10.425000 29.190000
O 10.425000 12.510000 29.190000
O 8.340000 8.340000 31.275000
O 10.425000 10.425000 35.445000
O 12.510000 10.425000 33.360000
O 10.425000 12.510000 33.360000
O 8.340000 8.340000 35.445000
O 10.425000 14.595000 2.085000
O 12.510000 14.595000 0.000000
O 10.425000 16.680000 0.000000
O 8.340000 12.510000 2.085000
O 10.425000 14.595000 6.255000
O 12.510000 14.595000 4.170000
O 10.425000 16.680000 4.170000
O 8.340000 12.510000 6.255000
O 10.425000 14.595000 10.425000
O 12.510000 14.595000 8.340000
O 10.425000 16.680000 8.340000
O 8.340000 12.510000 10.425000
O 10.425000 14.595000 14.595000
O 12.510000 14.595000 12.510000
O 10.425000 16.680000 12.510000
O 8.340000 12.510000 14.595000
O 10.425000 14.595000 18.765000
O 12.510000 14.595000 16.680000
O 10.425000 16.680000 16.680000
O 8.340000 12.510000 18.765000
O 10.425000 14.595000 22.935000
O 12.510000 14.595000 20.850000
O 10.425000 16.680000 20.850000
O 8.340000 12.510000 22.935000
O 10.425000 14.595000 27.105000
O 12.510000 14.595000 25.020000
O 10.425000 16.680000 25.020000
O 8.340000 12.510000 27.105000
O 10.425000 14.595000 31.275000
O 12.510000 14.595000 29.190000
O 10.425000 16.680000 29.190000
O 8.340000 12.510000 31.275000
O 10.425000 18.765000 2.085000
O 12.510000 18.765000 0.000000
O 10.425000 20.850000 0.000000
O 8.340000 16.680000 2.085000
O 10.425000 18.765000 6.255000
O 12.510000 18.765000 4.170000
O 10.425000 20.850000 4.170000
O 8.340000 16.680000 6.255000
O 10.425000 18.765000 10.425000
O 12.510000 18.765000 8.340000
O 10.425000 20.850000 8.340000
O 8.340000 16.680000 10.425000
O 10.425000 18.765000 14.595000
O 12.510000 18.765000 12.510000
O 10.425000 20.850000 12.510000
O 8.340000 16.680000 14.595000
O 10.425000 18.765000 18.765000
O 12.510000 18.765000 16.680000
O 10.425000 20.850000 16.680000
O 8.340000 16.680000 18.765000
O 10.425000 18.765000 22.935000
O 12.510000 18.765000 20.850000
O 10.425000 20.850000 20.850000
O 8.340000 16.680000 22.935000
O 10.425000 18.765000 27.105000
O 12.510000 18.765000 25.020000
O 10.425000 20.850000 25.020000
O 8.340000 16.680000 27.105000
O 10.425000 22.935000 2.085000
O 12.510000 22.935000 0.000000
O 10.425000 25.020000 0.000000
O 8.340000 20.850000 2.085000
O 10.425000 22.935000 6.255000
O 12.510000 22.935000 4.170000
O 10.425000 25.020000 4.170000
O 8.340000 20.850000 6.255000
O 10.425000 22.935000 10.425000
O 12.510000 22.935000 8.340000
O 10.425000 25.020000 8.340000
O 8.340000 20.850000 10.425000
O 10.425000 22.935000 14.595000
O 12.510000 22.935000 12.510000
O 10.425000 25.020000 12.510000
O 8.340000 20.850000 14.595000
O 10.425000 22.935000 18.765000
O 12.510000 22.935000 16.680000
O 10.425000 25.020000 16.680000
O 8.340000 20.850000 18.765000
O 10.425000 22.935000 22.935000
O 12.510000 22.935000 20.850000
O 10.425000 25.020000 20.850000
O 8.340000 20.850000 22.935000
O 10.425000 22.935000 27.105000
O 12.510000 22.935000 25.020000
O 10.425000 25.020000 25.020000
O 10.425000 25.020000 29.190000
O 10.425000 27.105000 2.085000
O 12.510000 27.105000 0.000000
O 10.425000 29.190000 0.000000
O 8.340000 25.020000 2.085000
O 10.425000 27.105000 6.255000
O 12.510000 27.105000 4.170000
O 10.425000 29.190000 4.170000
O 8.340000 25.020000 6.255000
O 10.425000 27.105000 10.425000
O 12.510000 27.105000 8.340000
O 10.425000 29.190000 8.340000
O 8.340000 25.020000 10.425000
O 10.425000 27.105000 14.595000
O 12.510000 27.105000 12.510000
O 10.425000 29.190000 12.510000
O 8.340000 25.020000 14.595000
O 10.425000 27.105000 18.765000
O 12.510000 27.105000 16.680000
O 10.425000 29.190000 16.680000
O 8.340000 25.020000 18.765000
O 10.425000 27.105000 22.935000
O 12.510000 27.105000 20.850000
O 10.425000 29.190000 20.850000
O 8.340000 25.020000 22.935000
O 10.425000 27.105000 27.105000
O 12.510000 27.105000 25.020000
O 10.425000 29.190000 25.020000
O 8.340000 25.020000 27.105000
O 10.425000 27.105000 31.275000
O 12.510000 27.105000 29.190000
O 10.425000 29.190000 29.190000
O 10.425000 29.190000 33.360000
O 10.425000 31.275000 2.085000
O 12.510000 31.275000 0.000000
O 10.425000 33.360000 0.000000
O 8.340000 29.190000 2.085000
O 10.425000 31.275000 6.255000
O 12.510000 31.275000 4.170000
O 10.425000 33.360000 4.170000
O 8.340000 29.190000 6.255000
O 10.425000 31.275000 10.425000
O 12.510000 31.275000 8.340000
O 10.425000 33.360000 8.340000
O 8.340000 29.190000 10.425000
O 10.425000 31.275000 14.595000
O 12.510000 31.275000 12.510000
O 10.425000 33.360000 12.510000
O 8.340000 29.190000 14.595000
O 10.425000 31.275000 18.765000
O 12.510000 31.275000 16.680000
O 10.425000 33.360000 16.680000
O 8.340000 29.190000 18.765000
O 10.425000 31.275000 22.935000
O 12.510000 31.275000 20.850000
O 10.425000 33.360000 20.850000
O 8.340000 29.190000 22.935000
O 10.425000 31.275000 27.105000
O 12.510000 31.275000 25.020000
O 10.425000 33.360000 25.020000
O 8.340000 29.190000 27.105000
O 10.425000 31.275000 31.275000
O 12.510000 31.275000 29.190000
O 10.425000 33.360000 29.190000
O 8.340000 29.190000 31.275000
O 10.425000 31.275000 35.445000
O 12.510000 31.275000 33.360000
O 10.425000 33.360000 33.360000
O 10.425000 33.360000 37.530000
O 10.425000 35.445000 2.085000
O 12.510000 35.445000 0.000000
O 10.425000 37.530000 0.000000
O 8.340000 33.360000 2.085000
O 10.425000 35.445000 6.255000
O 12.510000 35.445000 4.170000
O 10.425000 37.530000 4.170000
O 8.340000 33.360000 6.255000
O 10.425000 35.445000 10.425000
O 12.510000 35.445000 8.340000
O 10.425000 37.530000 8.340000
O 8.340000 33.360000 10.425000
O 10.425000 35.445000 14.595000
O 12.510000 35.445000 12.510000
O 10.425000 37.530000 12.510000
O 8.340000 33.360000 14.595000
O 10.425000 35.445000 18.765000
O 12.510000 35.445000 16.680000
O 10.425000 37.530000 16.680000
O 8.340000 33.360000 18.765000
O 10.425000 35.445000 22.935000
O 12.510000 35.445000 20.850000
O 10.425000 37.530000 20.850000
O 8.340000 33.360000 22.935000
O 10.425000 35.445000 27.105000
O 12.510000 35.445000 25.020000
O 10.425000 37.530000 25.020000
O 8.340000 33.360000 27.105000
O 10.425000 35.445000 31.275000
O 12.510000 35.445000 29.190000
O 10.425000 37.530000 29.190000
O 8.340000 33.360000 31.275000
O 10.425000 35.445000 35.445000
O 12.510000 35.445000 33.360000
O 10.425000 37.530000 33.360000
O 8.340000 33.360000 35.445000
O 10.425000 35.445000 39.615000
O 12.510000 35.445000 37.530000
O 10.425000 37.530000 37.530000
O 10.425000 39.615000 2.085000
O 12.510000 39.615000 0.000000
O 10.425000 0.000000 0.000000
O 8.340000 37.530000 2.085000
O 10.425000 39.615000 6.255000
O 12.510000 39.615000 4.170000
O 10.425000 0.000000 4.170000
O 8.340000 37.530000 6.255000
O 10.425000 39.615000 10.425000
O 12.510000 39.615000 8.340000
O 10.425000 0.000000 8.340000
O 8.340000 37.530000 10.425000
O 10.425000 39.615000 14.595000
O 12.510000 39.615000 12.510000
O 10.425000 0.000000 12.510000
O 8.340000 37.530000 14.595000
O 10.425000 39.615000 18.765000
O 12.510000 39.615000 16.680000
O 10.425000 0.000000 16.680000
O 8.340000 37.530000 18.765000
O 10.425000 39.615000 22.935000
O 12.510000 39.615000 20.850000
O 10.425000 0.000000 20.850000
O 8.340000 37.530000 22.935000
O 10.425000 39.615000 27.105000
O 12.510000 39.615000 25.020000
O 10.425000 0.000000 25.020000
O 8.340000 37.530000 27.105000
O 10.425000 39.615000 31.275000
O 12.510000 39.615000 29.190000
O 10.425000 0.000000 29.190000
O 8.340000 37.530000 31.275000
O 10.425000 39.615000 35.445000
O 12.510000 39.615000 33.360000
O 10.425000 0.000000 33.360000
O 8.340000 37.530000 35.445000
O 10.425000 39.615000 39.615000
O 12.510000 39.615000 37.530000
O 10.425000 0.000000 37.530000
O 8.340000 37.530000 39.615000
O 14.595000 2.085000 2.085000
O 16.680000 2.085000 0.000000
O 14.595000 4.170000 0.000000
O 12.510000 0.000000 2.085000
O 14.595000 2.085000 6.255000
O 16.680000 2.085000 4.170000
O 14.595000 4.170000 4.170000
O 12.510000 0.000000 6.255000
O 14.595000 2.085000 10.425000
O 16.680000 2.085000 8.340000
O 14.595000 4.170000 8.340000
O 12.510000 0.000000 10.425000
O 14.595000 2.085000 14.595000
O 16.680000 2.085000 12.510000
O 14.595000 4.170000 12.510000
O 12.510000 0.000000 14.595000
O 14.595000 2.085000 18.765000
O 16.680000 2.085000 16.680000
O 14.595000 4.170000 16.680000
O 12.510000 0.000000 18.765000
O 14.595000 2.085000 22.935000
O 16.680000 2.085000 20.850000
O 14.595000 4.170000 20.850000
O 12.510000 0.000000 22.935000
O 14.595000 2.085000 27.105000
O 16.680000 2.085000 25.020000
O 14.595000 4.170000 25.020000
O 12.510000 0.000000 27.105000
O 14.595000 2.085000 31.275000
O 16.680000 2.085000 29.190000
O 14.595000 4.170000 29.190000
O 12.510000 0.000000 31.275000
O 14.595000 2.085000 35.445000
O 16.680000 2.085000 33.360000
O 14.595000 4.170000 33.360000
O 12.510000 0.000000 35.445000
O 14.595000 2.085000 39.615000
O 16.680000 2.085000 37.530000
O 14.595000 4.170000 37.530000
O 12.510000 0.000000 39.615000
O 14.595000 6.255000 2.085000
O 16.680000 6.255000 0.000000
O 14.595000 8.340000 0.000000
O 12.510000 4.170000 2.085000
O 14.595000 6.255000 6.255000
O 16.680000 6.255000 4.170000
O 14.595000 8.340000 4.170000
O 12.510000 4.170000 6.255000
O 14.595000 6.255000 10.425000
O 16.680000 6.255000 8.340000
O 14.595000 8.340000 8.340000
O 12.510000 4.170000 10.425000
O 14.595000 6.255000 14.595000
O 16.680000 6.255000 12.510000
O 14.595000 8.340000 12.510000
O 12.510000 4.170000 14.595000
O 14.595000 6.255000 18.765000
O 16.680000 6.255000 16.680000
O 14.595000 8.340000 16.680000
O 12.510000 4.170000 18.765000
O 14.595000 6.255000 22.935000
O 16.680000 6.255000 20.850000
O 14.595000 8.340000 20.850000
O 12.510000 4.170000 22.935000
O 14.595000 6.255000 27.105000
O 16.680000 6.255000 25.020000
O 14.595000 8.340000 25.020000
O 12.510000 4.170000 27.105000
O 14.595000 6.255000 31.275000
O 16.680000 6.255000 29.190000
O 14.595000 8.340000 29.190000
O 12.510000 4.170000 31.275000
O 14.595000 6.255000 35.445000
O 16.680000 6.255000 33.360000
O 14.595000 8.340000 33.360000
O 12.510000 4.170000 35.445000
O 14.595000 6.255000 39.615000
O 16.680000 6.255000 37.530000
O 14.595000 8.340000 37.530000
O 12.510000 4.170000 39.615000
O 14.595000 10.425000 2.085000
O 16.680000 10.425000 0.000000
O 14.595000 12.510000 0.000000
O 12.510000 8.340000 2.085000
O 14.595000 10.425000 6.255000
O 16.680000 10.425000 4.170000
O 14.595000 12.510000 4.170000
O 12.510000 8.340000 6.255000
O 14.595000 10.425000 10.425000
O 16.680000 10.425000 8.340000
O 14.595000 12.510000 8.340000
O 12.510000 8.340000 10.425000
O 14.595000 10.425000 14.595000
O 16.680000 10.425000 12.510000
O 14.595000 12.510000 12.510000
O 12.510000 8.340000 14.595000
O 14.595000 10.425000 18.765000
O 16.680000 10.425000 16.680000
O 14.595000 12.510000 16.680000
O 12.510000 8.340000 18.765000
O 14.595000 10.425000 22.935000
O 16.680000 10.425000 20.850000
O 14.595000 12.510000 20.850000
O 12.510000 8.340000 22.935000
O 14.595000 10.425000 27.105000
O 16.680000 10.425000 25.020000
O 14.595000 12.510000 25.020000
O 12.510000 8.340000 27.105000
O 14.595000 10.425000 31.275000
O 16.680000 10.425000 29.190000
O 14.595000 12.510000 29.190000
O 12.510000 8.340000 31.275000
O 14.595000 10.425000 35.445000
O 16.680000 10.425000 33.360000
O 14.595000 12.510000 33.360000
O 12.510000 8.340000 35.445000
O 14.595000 14.595000 2.085000
O 16.680000 14.595000 0.000000
O 14.595000 16.680000 0.000000
O 12.510000 12.510000 2.085000
O 14.595000 14.595000 6.255000
O 16.680000 14.595000 4.170000
O 14.595000 16.680000 4.170000
O 12.510000 12.510000 6.255000
O 14.595000 14.595000 10.425000
O 16.680000 14.595000 8.340000
O 14.595000 16.680000 8.340000
O 12.510000 12.510000 10.425000
O 14.595000 14.595000 14.595000
O 16.680000 14.595000 12.510000
O 14.595000 16.680000 12.510000
O 12.510000 12.510000 14.595000
O 14.595000 14.595000 18.765000
O 16.680000 14.595000 16.680000
O 14.595000 16.680000 16.680000
O 12.510000 12.510000 18.765000
O 14.595000 14.595000 22.935000
O 16.680000 14.595000 20.850000
O 14.595000 16.680000 20.850000
O 12.510000 12.510000 22.935000
O 14.595000 14.595000 27.105000
O 16.680000 14.595000 25.020000
O 14.595000 16.680000 25.020000
O 12.510000 12.510000 27.105000
O 14.595000 14.595000 31.275000
O 16.680000 14.595000 29.190000
O 14.595000 16.680000 29.190000
O 12.510000 12.510000 31.275000
O 14.595000 18.765000 2.085000
O 16.680000 18.765000 0.000000
O 14.595000 20.850000 0.000000
O 12.510000 16.680000 2.085000
O 14.595000 18.765000 6.255000
O 16.680000 18.765000 4.170000
O 14.595000 20.850000 4.170000
O 12.510000 16.680000 6.255000
O 14.595000 18.765000 10.425000
O 16.680000 18.765000 8.340000
O 14.595000 20.850000 8.340000
O 12.510000 16.680000 10.425000
O 14.595000 18.765000 14.595000
O 16.680000 18.765000 12.510000
O 14.595000 20.850000 12.510000
O 12.510000 16.680000 14.595000
O 14.595000 18.765000 18.765000
O 16.680000 18.765000 16.680000
O 14.595000 20.850000 16.680000
O 12.510000 16.680000 18.765000
O 14.595000 18.765000 22.935000
O 16.680000 18.765000 20.850000
O 14.595000 20.850000 20.850000
O 12.510000 16.680000 22.935000
O 14.595000 18.765000 27.105000
O 16.680000 18.765000 25.020000
O 14.595000 20.850000 25.020000
O 12.510000 16.680000 27.105000
O 14.595000 22.935000 2.085000
O 16.680000 22.935000 0.000000
O 14.595000 25.020000 0.000000
O 12.510000 20.850000 2.085000
O 14.595000 22.935000 6.255000
O 16.680000 22.935000 4.170000
O 14.595000 25.020000 4.170000
O 12.510000 20.850000 6.255000
O 14.595000 22.935000 10.425000
O 16.680000 22.935000 8.340000
O 14.595000 25.020000 8.340000
O 12.510000 20.850000 10.425000
O 14.595000 22.935000 14.595000
O 16.680000 22.935000 12.510000
O 14.595000 25.020000 12.510000
O 12.510000 20.850000 14.595000
O 14.595000 22.935000 18.765000
O 16.680000 22.935000 16.680000
O 14.595000 25.020000 16.680000
O 12.510000 20.850000 18.765000
O 14.595000 22.935000 22.935000
O 16.680000 22.935000 20.850000
O 14.595000 25.020000 20.850000
O 12.510000 20.850000 22.935000
O 14.595000 22.935000 27.105000
O 16.680000 22.935000 25.020000
O 14.595000 25.020000 25.020000
O 14.595000 25.020000 29.190000
O 14.595000 27.105000 2.085000
O 16.680000 27.105000 0.000000
O 14.595000 29.190000 0.000000
O 12.510000 25.020000 2.085000
O 14.595000 27.105000 6.255000
O 16.680000 27.105000 4.170000
O 14.595000 29.190000 4.170000
O 12.510000 25.020000 6.255000
O 14.595000 27.105000 10.425000
O 16.680000 27.105000 8.340000
O 14.595000 29.190000 8.340000
O 12.510000 25.020000 10.425000
O 14.595000 27.105000 14.595000
O 16.680000 27.105000 12.510000
O 14.595000 29.190000 12.510000
O 12.510000 25.020000 14.595000
O 14.595000 27.105000 18.765000
O 16.680000 27.105000 16.680000
O 14.595000 29.190000 16.680000
O 12.510000 25.020000 18.765000
O 14.595000 27.105000 22.935000
O 16.680000 27.105000 20.850000
O 14.595000 29.190000 20.850000
O 12.510000 25.020000 22.935000
O 14.595000 27.105000 27.105000
O 16.680000 27.105000 25.020000
O 14.595000 29.190000 25.020000
O 12.510000 25.020000 27.105000
O 14.595000 27.105000 31.275000
O 16.680000 27.105000 29.190000
O 14.595000 29.190000 29.190000
O 14.595000 29.190000 33.360000
O 14.595000 31.275000 2.085000
O 16.680000 31.275000 0.000000
O 14.595000 33.360000 0.000000
O 12.510000 29.190000 2.085000
O 14.595000 31.275000 6.255000
O 16.680000 31.275000 4.170000
O 14.595000 33.360000 4.170000
O 12.510000 29.190000 6.255000
O 14.595000 31.275000 10.425000
O 16.680000 31.275000 8.340000
O 14.595000 33.360000 8.340000
O 12.510000 29.190000 10.425000
O 14.595000 31.275000 14.595000
O 16.680000 31.275000 12.510000
O 14.595000 33.360000 12.510000
O 12.510000 29.190000 14.595000
O 14.595000 31.275000 18.765000
O 16.680000 31.275000 16.680000
O 14.595000 33.360000 16.680000
O 12.510000 29.190000 18.765000
O 14.595000 31.275000 22.935000
O 16.680000 31.275000 20.850000
O 14.595000 33.360000 20.850000
O 12.510000 29.190000 22.935000
O 14.595000 31.275000 27.105000
O 16.680000 31.275000 25.020000
O 14.595000 33.360000 25.020000
O 12.510000 29.190000 27.105000
O 14.595000 31.275000 31.275000
O 16.680000 31.275000 29.190000
O 14.595000 33.360000 29.190000
O 12.510000 29.190000 31.275000
O 14.595000 31.275000 35.445000
O 16.680000 31.275000 33.360000
O 14.595000 33.360000 33.360000
O 14.595000 33.360000 37.530000
O 14.595000 35.445000 2.085000
O 16.680000 35.445000 0.000000
O 14.595000 37.530000 0.000000
O 12.510000 33.360000 2.085000
O 14.595000 35.445000 6.255000
O 16.680000 35.445000 4.170000
O 14.595000 37.530000 4.170000
O 12.510000 33.360000 6.255000
O 14.595000 35.445000 10.425000
O 16.680000 35.445000 8.340000
O 14.595000 37.530000 8.340000
O 12.510000 33.360000 10.425000
O 14.595000 35.445000 14.595000
O 16.680000 35.445000 12.510000
O 14.595000 37.530000 12.510000
O 12.510000 33.360000 14.595000
O 14.595000 35.445000 18.765000
O 16.680000 35.445000 16.680000
O 14.595000 37.530000 16.680000
O 12.510000 33.360000 18.765000
O 14.595000 35.445000 22.935000
O 16.680000 35.445000 20.850000
O 14.595000 37.530000 20.850000
O 12.510000 33.360000 22.935000
O 14.595000 35.445000 27.105000
O 16.680000 35.445000 25.020000
O 14.595000 37.530000 25.020000
O 12.510000 33.360000 27.105000
O 14.595000 35.445000 31.275000
O 16.680000 35.445000 29.190000
O 14.595000 37.530000 29.190000
O 12.510000 33.360000 31.275000
O 14.595000 35.445000 35.445000
O 16.680000 35.445000 33.360000
O 14.595000 37.530000 33.360000
O 12.510000 33.360000 35.445000
O 14.595000 35.445000 39.615000
O 16.680000 35.445000 37.530000
O 14.595000 37.530000 37.530000
O 14.595000 39.615000 2.085000
O 16.680000 39.615000 0.000000
O 14.595000 0.000000 0.000000
O 12.510000 37.530000 2.085000
O 14.595000 39.615000 6.255000
O 16.680000 39.615000 4.170000
O 14.595000 0.000000 4.170000
O 12.510000 37.530000 6.255000
O 14.595000 39.615000 10.425000
O 16.680000 39.615000 8.340000
O 14.595000 0.000000 8.340000
O 12.510000 37.530000 10.425000
O 14.595000 39.615000 14.595000
O 16.680000 39.615000 12.510000
O 14.595000 0.000000 12.510000
O 12.510000 37.530000 14.595000
O 14.595000 39.615000 18.765000
O 16.680000 39.615000 16.680000
O 14.595000 0.000000 16.680000
O 12.510000 37.530000 18.765000
O 14.595000 39.615000 22.935000
O 16.680000 39.615000 20.850000
O 14.595000 0.000000 20.850000
O 12.510000 37.530000 22.935000
O 14.595000 39.615000 27.105000
O 16.680000 39.615000 25.020000
O 14.595000 0.000000 25.020000
O 12.510000 37.530000 27.105000
O 14.595000 39.615000 31.275000
O 16.680000 39.615000 29.190000
O 14.595000 0.000000 29.190000
O 12.510000 37.530000 31.275000
O 14.595000 39.615000 35.445000
O 16.680000 39.615000 33.360000
O 14.595000 0.000000 33.360000
O 12.510000 37.530000 35.445000
O 14.595000 39.615000 39.615000
O 16.680000 39.615000 37.530000
O 14.595000 0.000000 37.530000
O 12.510000 37.530000 39.615000
O 18.765000 2.085000 2.085000
O 20.850000 2.085000 0.000000
O 18.765000 4.170000 0.000000
O 16.680000 0.000000 2.085000
O 18.765000 2.085000 6.255000
O 20.850000 2.085000 4.170000
O 18.765000 4.170000 4.170000
O 16.680000 0.000000 6.255000
O 18.765000 2.085000 10.425000
O 20.850000 2.085000 8.340000
O 18.765000 4.170000 8.340000
O 16.680000 0.000000 10.425000
O 18.765000 2.085000 14.595000
O 20.850000 2.085000 12.510000
O 18.765000 4.170000 12.510000
O 16.680000 0.000000 14.595000
O 18.765000 2.085000 18.765000
O 20.850000 2.085000 16.680000
O 18.765000 4.170000 16.680000
O 16.680000 0.000000 18.765000
O 18.765000 2.085000 22.935000
O 20.850000 2.085000 20.850000
O 18.765000 4.170000 20.850000
O 16.680000 0.000000 22.935000
O 18.765000 2.085000 27.105000
O 20.850000 2.085000 25.020000
O 18.765000 4.170000 25.020000
O 16.680000 0.000000 27.105000
O 18.765000 2.085000 31.275000
O 20.850000 2.085000 29.190000
O 18.765000 4.170000 29.190000
O 16.680000 0.000000 31.275000
O 18.765000 2.085000 35.445000
O 20.850000 2.085000 33.360000
O 18.765000 4.170000 33.360000
O 16.680000 0.000000 35.445000
O 18.765000 2.085000 39.615000
O 20.850000 2.085000 37.530000
O 18.765000 4.170000 37.530000
O 16.680000 0.000000 39.615000
O 18.765000 6.255000 2.085000
O 20.850000 6.255000 0.000000
O 18.765000 8.340000 0.000000
O 16.680000 4.170000 2.085000
O 18.765000 6.255000 6.255000
O 20.850000 6.255000 4.170000
O 18.765000 8.340000 4.170000
O 16.680000 4.170000 6.255000
O 18.765000 6.255000 10.425000
O 20.850000 6.255000 8.340000
O 18.765000 8.340000 8.340000
O 16.680000 4.170000 10.425000
O 18.765000 6.255000 14.595000
O 20.850000 6.255000 12.510000
O 18.765000 8.340000 12.510000
O 16.680000 4.170000 14.595000
O 18.765000 6.255000 18.765000
O 20.850000 6.255000 16.680000
O 18.765000 8.340000 16.680000
O 16.680000 4.170000 18.765000
O 18.765000 6.255000 22.935000
O 20.850000 6.255000 20.850000
O 18.765000 8.340000 20.850000
O 16.680000 4.170000 22.935000
O 18.765000 6.255000 27.105000
O 20.850000 6.255000 25.020000
O 18.765000 8.340000 25.020000
O 16.680000 4.170000 27.105000
O 18.765000 6.255000 31.275000
O 20.850000 6.255000 29.190000
O 18.765000 8.340000 29.190000
O 16.680000 4.170000 31.275000
O 18.765000 6.255000 35.445000
O 20.850000 6.255000 33.360000
O 18.765000 8.340000 33.360000
O 16.680000 4.170000 35.445000
O 18.765000 6.255000 39.615000
O 20.850000 6.255000 37.530000
O 18.765000 8.340000 37.530000
O 16.680000 4.170000 39.615000
O 18.765000 10.425000 2.085000
O 20.850000 10.425000 0.000000
O 18.765000 12.510000 0.000000
O 16.680000 8.340000 2.085000
O 18.765000 10.425000 6.255000
O 20.850000 10.425000 4.170000
O 18.765000 12.510000 4.170000
O 16.680000 8.340000 6.255000
O 18.765000 10.425000 10.425000
O 20.850000 10.425000 8.340000
O 18.765000 12.510000 8.340000
O 16.680000 8.340000 10.425000
O 18.765000 10.425000 14.595000
O 20.850000 10.425000 12.510000
O 18.765000 12.510000 12.510000
O 16.680000 8.340000 14.595000
O 18.765000 10.425000 18.765000
O 20.850000 10.425000 16.680000
O 18.765000 12.510000 16.680000
O 16.680000 8.340000 18.765000
O 18.765000 10.425000 22.935000
O 20.850000 10.425000 20.850000
O 18.765000 12.510000 20.850000
O 16.680000 8.340000 22.935000
O 18.765000 10.425000 27.105000
O 20.850000 10.425000 25.020000
O 18.765000 12.510000 25.020000
O 16.680000 8.340000 27.105000
O 18.765000 10.425000 31.275000
O 20.850000 10.425000 29.190000
O 18.765000 12.510000 29.190000
O 16.680000 8.340000 31.275000
O 18.765000 10.425000 35.445000
O 20.850000 10.425000 33.360000
O 18.765000 12.510000 33.360000
O 16.680000 8.340000 35.445000
O 18.765000 14.595000 2.085000
O 20.850000 14.595000 0.000000
O 18.765000 16.680000 0.000000
O 16.680000 12.510000 2.085000
O 18.765000 14.595000 6.255000
O 20.850000 14.595000 4.170000
O 18.765000 16.680000 4.170000
O 16.680000 12.510000 6.255000
O 18.765000 14.595000 10.425000
O 20.850000 14.595000 8.340000
O 18.765000 16.680000 8.340000
O 16.680000 12.510000 10.425000
O 18.765000 14.595000 14.595000
O 20.850000 14.595000 12.510000
O 18.765000 16.680000 12.510000
O 16.680000 12.510000 14.595000
O 18.765000 14.595000 18.765000
O 20.850000 14.595000 16.680000
O 18.765000 16.680000 16.680000
O 16.680000 12.510000 18.765000
O 18.765000 14.595000 22.935000
O 20.850000 14.595000 20.850000
O 18.765000 16.680000 20.850000
O 16.680000 12.510000 22.935000
O 18.765000 14.595000 27.105000
O 20.850000 14.595000 25.020000
O 18.765000 16.680000 25.020000
O 16.680000 12.510000 27.105000
O 18.765000 14.595000 31.275000
O 20.850000 14.595000 29.190000
O 18.765000 16.680000 29.190000
O 16.680000 12.510000 31.275000
O 18.765000 18.765000 2.085000
O 20.850000 18.765000 0.000000
O 18.765000 20.850000 0.000000
O 16.680000 16.680000 2.085000
O 18.765000 18.765000 6.255000
O 20.850000 18.765000 4.170000
O 18.765000 20.850000 4.170000
O 16.680000 16.680000 6.255000
O 18.765000 18.765000 10.425000
O 20.850000 18.765000 8.340000
O 18.765000 20.850000 8.340000
O 16.680000 16.680000 10.425000
O 18.765000 18.765000 14.595000
O 20.850000 18.765000 12.510000
O 18.765000 20.850000 12.510000
O 16.680000 16.680000 14.595000
O 18.765000 18.765000 18.765000
O 20.850000 18.765000 16.680000
O 18.765000 20.850000 16.680000
O 16.680000 16.680000 18.765000
O 18.765000 18.765000 22.935000
O 20.850000 18.765000 20.850000
O 18.765000 20.850000 20.850000
O 16.680000 16.680000 22.935000
O 18.765000 18.765000 27.105000
O 20.850000 18.765000 25.020000
O 18.765000 20.850000 25.020000
O 16.680000 16.680000 27.105000
O 18.765000 22.935000 2.085000
O 20.850000 22.935000 0.000000
O 18.765000 25.020000 0.000000
O 16.680000 20.850000 2.085000
O 18.765000 22.935000 6.255000
O 20.850000 22.935000 4.170000
O 18.765000 25.020000 4.170000
O 16.680000 20.850000 6.255000
O 18.765000 22.935000 10.425000
O 20.850000 22.935000 8.340000
O 18.765000 25.020000 8.340000
O 16.680000 20.850000 10.425000
O 18.765000 22.935000 14.595000
O 20.850000 22.935000 12.510000
O 18.765000 25.020000 12.510000
O 16.680000 20.850000 14.595000
O 18.765000 22.935000 18.765000
O 20.850000 22.935000 16.680000
O 18.765000 25.020000 16.680000
O 16.680000 20.850000 18.765000
O 18.765000 22.935000 22.935000
O 20.850000 22.935000 20.850000
O 18.765000 25.020000 20.850000
O 16.680000 20.850000 22.935000
O 18.765000 22.935000 27.105000
O 20.850000 22.935000 25.020000
O 18.765000 25.020000 25.020000
O 18.765000 25.020000 29.190000
O 18.765000 27.105000 2.085000
O 20.850000 27.105000 0.000000
O 18.765000 29.190000 0.000000
O 16.680000 25.020000 2.085000
O 18.765000 27.105000 6.255000
O 20.850000 27.105000 4.170000
O 18.765000 29.190000 4.170000
O 16.680000 25.020000 6.255000
O 18.765000 27.105000 10.425000
O 20.850000 27.105000 8.340000
O 18.765000 29.190000 8.340000
O 16.680000 25.020000 10.425000
O 18.765000 27.105000 14.595000
O 20.850000 27.105000 12.510000
O 18.765000 29.190000 12.510000
O 16.680000 25.020000 14.595000
O 18.765000 27.105000 18.765000
O 20.850000 27.105000 16.680000
O 18.765000 29.190000 16.680000
O 16.680000 25.020000 18.765000
O 18.765000 27.105000 22.935000
O 20.850000 27.105000 20.850000
O 18.765000 29.190000 20.850000
O 16.680000 25.020000 22.935000
O 18.765000 27.105000 27.105000
O 20.850000 27.105000 25.020000
O 18.765000 29.190000 25.020000
O 16.680000 25.020000 27.105000
O 18.765000 27.105000 31.275000
O 20.850000 27.105000 29.190000
O 18.765000 29.190000 29.190000
O 18.765000 29.190000 33.360000
O 18.765000 31.275000 2.085000
O 20.850000 31.275000 0.000000
O 18.765000 33.360000 0.000000
O 16.680000 29.190000 2.085000
O 18.765000 31.275000 6.255000
O 20.850000 31.275000 4.170000
O 18.765000 33.360000 4.170000
O 16.680000 29.190000 6.255000
O 18.765000 31.275000 10.425000
O 20.850000 31.275000 8.340000
O 18.765000 33.360000 8.340000
O 16.680000 29.190000 10.425000
O 18.765000 31.275000 14.595000
O 20.850000 31.275000 12.510000
O 18.765000 33.360000 12.510000
O 16.680000 29.190000 14.595000
O 18.765000 31.275000 18.765000
O 20.850000 31.275000 16.680000
O 18.765000 33.360000 16.680000
O 16.680000 29.190000 18.765000
O 18.765000 31.275000 22.935000
O 20.850000 31.275000 20.850000
O 18.765000 33.360000 20.850000
O 16.680000 29.190000 22.935000
O 18.765000 31.275000 27.105000
O 20.850000 31.275000 25.020000
O 18.765000 33.360000 25.020000
O 16.680000 29.190000 27.105000
O 18.765000 31.275000 31.275000
O 20.850000 31.275000 29.190000
O 18.765000 33.360000 29.190000
O 16.680000 29.190000 31.275000
O 18.765000 31.275000 35.445000
O 20.850000 31.275000 33.360000
O 18.765000 33.360000 33.360000
O 18.765000 33.360000 37.530000
O 18.765000 35.445000 2.085000
O 20.850000 35.445000 0.000000
O 18.765000 37.530000 0.000000
O 16.680000 33.360000 2.085000
O 18.765000 35.445000 6.255000
O 20.850000 35.445000 4.170000
O 18.765000 37.530000 4.170000
O 16.680000 33.360000 6.255000
O 18.765000 35.445000 10.425000
O 20.850000 35.445000 8.340000
O 18.765000 37.530000 8.340000
O 16.680000 33.360000 10.425000
O 18.765000 35.445000 14.595000
O 20.850000 35.445000 12.510000
O 18.765000 37.530000 12.510000
O 16.680000 33.360000 14.595000
O 18.765000 35.445000 18.765000
O 20.850000 35.445000 16.680000
O 18.765000 37.530000 16.680000
O 16.680000 33.360000 18.765000
O 18.765000 35.445000 22.935000
O 20.850000 35.445000 20.850000
O 18.765000 37.530000 20.850000
O 16.680000 33.360000 22.935000
O 18.765000 35.445000 27.105000
O 20.850000 35.445000 25.020000
O 18.765000 37.530000 25.020000
O 16.680000 33.360000 27.105000
O 18.765000 35.445000 31.275000
O 20.850000 35.445000 29.190000
O 18.765000 37.530000 29.190000
O 16.680000 33.360000 31.275000
O 18.765000 35.445000 35.445000
O 20.850000 35.445000 33.360000
O 18.765000 37.530000 33.360000
O 16.680000 33.360000 35.445000
O 18.765000 35.445000 39.615000
O 20.850000 35.445000 37.530000
O 18.765000 37.530000 37.530000
O 18.765000 39.615000 2.085000
O 20.850000 39.615000 0.000000
O 18.765000 0.000000 0.000000
O 16.680000 37.530000 2.085000
O 18.765000 39.615000 6.255000
O 20.850000 39.615000 4.170000
O 18.765000 0.000000 4.170000
O 16.680000 37.530000 6.255000
O 18.765000 39.615000 10.425000
O 20.850000 39.615000 8.340000
O 18.765000 0.000000 8.340000
O 16.680000 37.530000 10.425000
O 18.765000 39.615000 14.595000
O 20.850000 39.615000 12.510000
O 18.765000 0.000000 12.510000
O 16.680000 37.530000 14.595000
O 18.765000 39.615000 18.765000
O 20.850000 39.615000 16.680000
O 18.765000 0.000000 16.680000
O 16.680000 37.530000 18.765000
O 18.765000 39.615000 22.935000
O 20.850000 39.615000 20.850000
O 18.765000 0.000000 20.850000
O 16.680000 37.530000 22.935000
O 18.765000 39.615000 27.105000
O 20.850000 39.615000 25.020000
O 18.765000 0.000000 25.020000
O 16.680000 37.530000 27.105000
O 18.765000 39.615000 31.275000
O 20.850000 39.615000 29.190000
O 18.765000 0.000000 29.190000
O 16.680000 37.530000 31.275000
O 18.765000 39.615000 35.445000
O 20.850000 39.615000 33.360000
O 18.765000 0.000000 33.360000
O 16.680000 37.530000 35.445000
O 18.765000 39.615000 39.615000
O 20.850000 39.615000 37.530000
O 18.765000 0.000000 37.530000
O 16.680000 37.530000 39.615000
O 22.935000 2.085000 2.085000
O 25.020000 2.085000 0.000000
O 22.935000 4.170000 0.000000
O 20.850000 0.000000 2.085000
O 22.935000 2.085000 6.255000
O 25.020000 2.085000 4.170000
O 22.935000 4.170000 4.170000
O 20.850000 0.000000 6.255000
O 22.935000 2.085000 10.425000
O 25.020000 2.085000 8.340000
O 22.935000 4.170000 8.340000
O 20.850000 0.000000 10.425000
O 22.935000 2.085000 14.595000
O 25.020000 2.085000 12.510000
O 22.935000 4.170000 12.510000
O 20.850000 0.000000 14.595000
O 22.935000 2.085000 18.765000
O 25.020000 2.085000 16.680000
O 22.935000 4.170000 16.680000
O 20.850000 0.000000 18.765000
O 22.935000 2.085000 22.935000
O 25.020000 2.085000 20.850000
O 22.935000 4.170000 20.850000
O 20.850000 0.000000 22.935000
O 22.935000 2.085000 27.105000
O 25.020000 2.085000 25.020000
O 22.935000 4.170000 25.020000
O 20.850000 0.000000 27.105000
O 22.935000 2.085000 31.275000
O 25.020000 2.085000 29.190000
O 22.935000 4.170000 29.190000
O 20.850000 0.000000 31.275000
O 22.935000 2.085000 35.445000
O 25.020000 2.085000 33.360000
O 22.935000 4.170000 33.360000
O 20.850000 0.000000 35.445000
O 22.935000 2.085000 39.615000
O 25.020000 2.085000 37.530000
O 22.935000 4.170000 37.530000
O 20.850000 0.000000 39.615000
O 22.935000 6.255000 2.085000
O 25.020000 6.255000 0.000000
O 22.935000 8.340000 0.000000
O 20.850000 4.170000 2.085000
O 22.935000 6.255000 6.255000
O 25.020000 6.255000 4.170000
O 22.935000 8.340000 4.170000
O 20.850000 4.170000 6.255000
O 22.935000 6.255000 10.425000
O 25.020000 6.255000 8.340000
O 22.935000 8.340000 8.340000
O 20.850000 4.170000 10.425000
O 22.935000 6.255000 14.595000
O 25.020000 6.255000 12.510000
O 22.935000 8.340000 12.510000
O 20.850000 4.170000 14.595000
O 22.935000 6.255000 18.765000
O 25.020000 6.255000 16.680000
O 22.935000 8.340000 16.680000
O 20.850000 4.170000 18.765000
O 22.935000 6.255000 22.935000
O 25.020000 6.255000 20.850000
O 22.935000 8.340000 20.850000
O 20.850000 4.170000 22.935000
O 22.935000 6.255000 27.105000
O 25.020000 6.255000 25.020000
O 22.935000 8.340000 25.020000
O 20.850000 4.170000 27.105000
O 22.935000 6.255000 31.275000
O 25.020000 6.255000 29.190000
O 22.935000 8.340000 29.190000
O 20.850000 4.170000 31.275000
O 22.935000 6.255000 35.445000
O 25.020000 6.255000 33.360000
O 22.935000 8.340000 33.360000
O 20.850000 4.170000 35.445000
O 22.935000 6.255000 39.615000
O 25.020000 6.255000 37.530000
O 22.935000 8.340000 37.530000
O 20.850000 4.170000 39.615000
O 22.935000 10.425000 2.085000
O 25.020000 10.425000 0.000000
O 22.935000 12.510000 0.000000
O 20.850000 8.340000 2.085000
O 22.935000 10.425000 6.255000
O 25.020000 10.425000 4.170000
O 22.935000 12.510000 4.170000
O 20.850000 8.340000 6.255000
O 22.935000 10.425000 10.425000
O 25.020000 10.425000 8.340000
O 22.935000 12.510000 8.340000
O 20.850000 8.340000 10.425000
O 22.935000 10.425000 14.595000
O 25.020000 10.425000 12.510000
O 22.935000 12.510000 12.510000
O 20.850000 8.340000 14.595000
O 22.935000 10.425000 18.765000
O 25.020000 10.425000 16.680000
O 22.935000 12.510000 16.680000
O 20.850000 8.340000 18.765000
O 22.935000 10.425000 22.935000
O 25.020000 10.425000 20.850000
O 22.935000 12.510000 20.850000
O 20.850000 8.340000 22.935000
O 22.935000 10.425000 27.105000
O 25.020000 10.425000 25.020000
O 22.935000 12.510000 25.020000
O 20.850000 8.340000 27.105000
O 22.935000 10.425000 31.275000
O 25.020000 10.425000 29.190000
O 22.935000 12.510000 29.190000
O 20.850000 8.340000 31.275000
O 22.935000 10.425000 35.445000
O 25.020000 10.425000 33.360000
O 22.935000 12.510000 33.360000
O 20.850000 8.340000 35.445000
O 22.935000 14.595000 2.085000
O 25.020000 14.595000 0.000000
O 22.935000 16.680000 0.000000
O 20.850000 12.510000 2.085000
O 22.935000 14.595000 6.255000
O 25.020000 14.595000 4.170000
O 22.935000 16.680000 4.170000
O 20.850000 12.510000 6.255000
O 22.935000 14.595000 10.425000
O 25.020000 14.595000 8.340000
O 22.935000 16.680000 8.340000
O 20.850000 12.510000 10.425000
O 22.935000 14.595000 14.595000
O 25.020000 14.595000 12.510000
O 22.935000 16.680000 12.510000
O 20.850000 12.510000 14.595000
O 22.935000 14.595000 18.765000
O 25.020000 14.595000 16.680000
O 22.935000 16.680000 16.680000
O 20.850000 12.510000 18.765000
O 22.935000 14.595000 22.935000
O 25.020000 14.595000 20.850000
O 22.935000 16.680000 20.850000
O 20.850000 12.510000 22.935000
O 22.935000 14.595000 27.105000
O 25.020000 14.595000 25.020000
O 22.935000 16.680000 25.020000
O 20.850000 12.510000 27.105000
O 22.935000 14.595000 31.275000
O 25.020000 14.595000 29.190000
O 22.935000 16.680000 29.190000
O 20.850000 12.510000 31.275000
O 22.935000 18.765000 2.085000
O 25.020000 18.765000 0.000000
O 22.935000 20.850000 0.000000
O 20.850000 16.680000 2.085000
O 22.935000 18.765000 6.255000
O 25.020000 18.765000 4.170000
O 22.935000 20.850000 4.170000
O 20.850000 16.680000 6.255000
O 22.935000 18.765000 10.425000
O 25.020000 18.765000 8.340000
O 22.935000 20.850000 8.340000
O 20.850000 16.680000 10.425000
O 22.935000 18.765000 14.595000
O 25.020000 18.765000 12.510000
O 22.935000 20.850000 12.510000
O 20.850000 16.680000 14.595000
O 22.935000 18.765000 18.765000
O 25.020000 18.765000 16.680000
O 22.935000 20.850000 16.680000
O 20.850000 16.680000 18.765000
O 22.935000 18.765000 22.935000
O 25.020000 18.765000 20.850000
O 22.935000 20.850000 20.850000
O 20.850000 16.680000 22.935000
O 22.935000 18.765000 27.105000
O 25.020000 18.765000 25.020000
O 22.935000 20.850000 25.020000
O 20.850000 16.680000 27.105000
O 22.935000 22.935000 2.085000
O 25.020000 22.935000 0.000000
O 22.935000 25.020000 0.000000
O 20.850000 20.850000 2.085000
O 22.935000 22.935000 6.255000
O 25.020000 22.935000 4.170000
O 22.935000 25.020000 4.170000
O 20.850000 20.850000 6.255000
O 22.935000 22.935000 10.425000
O 25.020000 22.935000 8.340000
O 22.935000 25.020000 8.340000
O 20.850000 20.850000 10.425000
O 22.935000 22.935000 14.595000
O 25.020000 22.935000 12.510000
O 22.935000 25.020000 12.510000
O 20.850000 20.850000 14.595000
O 22.935000 22.935000 18.765000
O 25.020000 22.935000 16.680000
O 22.935000 25.020000 16.680000
O 20.850000 20.850000 18.765000
O 22.935000 22.935000 22.935000
O 25.020000 22.935000 20.850000
O 22.935000 25.020000 20.850000
O 20.850000 20.850000 22.935000
O 22.935000 22.935000 27.105000
O 25.020000 22.935000 25.020000
O 22.935000 25.020000 25.020000
O 22.935000 25.020000 29.190000
O 22.935000 27.105000 2.085000
O 25.020000 27.105000 0.000000
O 22.935000 29.190000 0.000000
O 20.850000 25.020000 2.085000
O 22.935000 27.105000 6.255000
O 25.020000 27.105000 4.170000
O 22.935000 29.190000 4.170000
O 20.850000 25.020000 6.255000
O 22.935000 27.105000 10.425000
O 25.020000 27.105000 8.340000
O 22.935000 29.190000 8.340000
O 20.850000 25.020000 10.425000
O 22.935000 27.105000 14.595000
O 25.020000 27.105000 12.510000
O 22.935000 29.190000 12.510000
O 20.850000 25.020000 14.595000
O 22.935000 27.105000 18.765000
O 25.020000 27.105000 16.680000
O 22.935000 29.190000 16.680000
O 20.850000 25.020000 18.765000
O 22.935000 27.105000 22.935000
O 25.020000 27.105000 20.850000
O 22.935000 29.190000 20.850000
O 20.850000 25.020000 22.935000
O 22.935000 27.105000 27.105000
O 25.020000 27.105000 25.020000
O 22.935000 29.190000 25.020000
O 20.850000 25.020000 27.105000
O 22.935000 27.105000 31.275000
O 25.020000 27.105000 29.190000
O 22.935000 29.190000 29.190000
O 22.935000 29.190000 33.360000
O 22.935000 31.275000 2.085000
O 25.020000 31.275000 0.000000
O 22.935000 33.360000 0.000000
O 20.850000 29.190000 2.085000
O 22.935000 31.275000 6.255000
O 25.020000 31.275000 4.170000
O 22.935000 33.360000 4.170000
O 20.850000 29.190000 6.255000
O 22.935000 31.275000 10.425000
O 25.020000 31.275000 8.340000
O 22.935000 33.360000 8.340000
O 20.850000 29.190000 10.425000
O 22.935000 31.275000 14.595000
O 25.020000 31.275000 12.510000
O 22.935000 33.360000 12.510000
O 20.850000 29.190000 14.595000
O 22.935000 31.275000 18.765000
O 25.020000 31.275000 16.680000
O 22.935000 33.360000 16.680000
O 20.850000 29.190000 18.765000
O 22.935000 31.275000 22.935000
O 25.020000 31.275000 20.850000
O 22.935000 33.360000 20.850000
O 20.850000 29.190000 22.935000
O 22.935000 31.275000 27.105000
O 25.020000 31.275000 25.020000
O 22.935000 33.360000 25.020000
O 20.850000 29.190000 27.105000
O 22.935000 31.275000 31.275000
O 25.020000 31.275000 29.190000
O 22.935000 33.360000 29.190000
O 20.850000 29.190000 31.275000
O 22.935000 31.275000 35.445000
O 25.020000 31.275000 33.360000
O 22.935000 33.360000 33.360000
O 22.935000 33.360000 37.530000
O 22.935000 35.445000 2.085000
O 25.020000 35.445000 0.000000
O 22.935000 37.530000 0.000000
O 20.850000 33.360000 2.085000
O 22.935000 35.445000 6.255000
O 25.020000 35.445000 4.170000
O 22.935000 37.530000 4.170000
O 20.850000 33.360000 6.255000
O 22.935000 35.445000 10.425000
O 25.020000 35.445000 8.340000
O 22.935000 37.530000 8.340000
O 20.850000 33.360000 10.425000
O 22.935000 35.445000 14.595000
O 25.020000 35.445000 12.510000
O 22.935000 37.530000 12.510000
O 20.850000 33.360000 14.595000
O 22.935000 35.445000 18.765000
O 25.020000 35.445000 16.680000
O 22.935000 37.530000 16.680000
O 20.850000 33.360000 18.765000
O 22.935000 35.445000 22.935000
O 25.020000 35.445000 20.850000
O 22.935000 37.530000 20.850000
O 20.850000 33.360000 22.935000
O 22.935000 35.445000 27.105000
O 25.020000 35.445000 25.020000
O 22.935000 37.530000 25.020000
O 20.850000 33.360000 27.105000
O 22.935000 35.445000 31.275000
O 25.020000 35.445000 29.190000
O 22.935000 37.530000 29.190000
O 20.850000 33.360000 31.275000
O 22.935000 35.445000 35.445000
O 25.020000 35.445000 33.360000
O 22.935000 37.530000 33.360000
O 20.850000 33.360000 35.445000
O 22.935000 35.445000 39.615000
O 25.020000 35.445000 37.530000
O 22.935000 37.530000 37.530000
O 22.935000 39.615000 2.085000
O 25.020000 39.615000 0.000000
O 22.935000 0.000000 0.000000
O 20.850000 37.530000 2.085000
O 22.935000 39.615000 6.255000
O 25.020000 39.615000 4.170000
O 22.935000 0.000000 4.170000
O 20.850000 37.530000 6.255000
O 22.935000 39.615000 10.425000
O 25.020000 39.615000 8.340000
O 22.935000 0.000000 8.340000
O 20.850000 37.530000 10.425000
O 22.935000 39.615000 14.595000
O 25.020000 39.615000 12.510000
O 22.935000 0.000000 12.510000
O 20.850000 37.530000 14.595000
O 22.935000 39.615000 18.765000
O 25.020000 39.615000 16.680000
O 22.935000 0.000000 16.680000
O 20.850000 37.530000 18.765000
O 22.935000 39.615000 22.935000
O 25.020000 39.615000 20.850000
O 22.935000 0.000000 20.850000
O 20.850000 37.530000 22.935000
O 22.935000 39.615000 27.105000
O 25.020000 39.615000 25.020000
O 22.935000 0.000000 25.020000
O 20.850000 37.530000 27.105000
O 22.935000 39.615000 31.275000
O 25.020000 39.615000 29.190000
O 22.935000 0.000000 29.190000
O 20.850000 37.530000 31.275000
O 22.935000 39.615000 35.445000
O 25.020000 39.615000 33.360000
O 22.935000 0.000000 33.360000
O 20.850000 37.530000 35.445000
O 22.935000 39.615000 39.615000
O 25.020000 39.615000 37.530000
O 22.935000 0.000000 37.530000
O 20.850000 37.530000 39.615000
O 27.105000 2.085000 2.085000
O 29.190000 2.085000 0.000000
O 27.105000 4.170000 0.000000
O 25.020000 0.000000 2.085000
O 27.105000 2.085000 6.255000
O 29.190000 2.085000 4.170000
O 27.105000 4.170000 4.170000
O 25.020000 0.000000 6.255000
O 27.105000 2.085000 10.425000
O 29.190000 2.085000 8.340000
O 27.105000 4.170000 8.340000
O 25.020000 0.000000 10.425000
O 27.105000 2.085000 14.595000
O 29.190000 2.085000 12.510000
O 27.105000 4.170000 12.510000
O 25.020000 0.000000 14.595000
O 27.105000 2.085000 18.765000
O 29.190000 2.085000 16.680000
O 27.105000 4.170000 16.680000
O 25.020000 0.000000 18.765000
O 27.105000 2.085000 22.935000
O 29.190000 2.085000 20.850000
O 27.105000 4.170000 20.850000
O 25.020000 0.000000 22.935000
O 27.105000 2.085000 27.105000
O 29.190000 2.085000 25.020000
O 27.105000 4.170000 25.020000
O 25.020000 0.000000 27.105000
O 27.105000 2.085000 31.275000
O 29.190000 2.085000 29.190000
O 27.105000 4.170000 29.190000
O 25.020000 0.000000 31.275000
O 27.105000 2.085000 35.445000
O 29.190000 2.085000 33.360000
O 27.105000 4.170000 33.360000
O 25.020000 0.000000 35.445000
O 27.105000 2.085000 39.615000
O 29.190000 2.085000 37.530000
O 27.105000 4.170000 37.530000
O 25.020000 0.000000 39.615000
O 27.105000 6.255000 2.085000
O 29.190000 6.255000 0.000000
O 27.105000 8.340000 0.000000
O 25.020000 4.170000 2.085000
O 27.105000 6.255000 6.255000
O 29.190000 6.255000 4.170000
O 27.105000 8.340000 4.170000
O 25.020000 4.170000 6.255000
O 27.105000 6.255000 10.425000
O 29.190000 6.255000 8.340000
O 27.105000 8.340000 8.340000
O 25.020000 4.170000 10.425000
O 27.105000 6.255000 14.595000
O 29.190000 6.255000 12.510000
O 27.105000 8.340000 12.510000
O 25.020000 4.170000 14.595000
O 27.105000 6.255000 18.765000
O 29.190000 6.255000 16.680000
O 27.105000 8.340000 16.680000
O 25.020000 4.170000 18.765000
O 27.105000 6.255000 22.935000
O 29.190000 6.255000 20.850000
O 27.105000 8.340000 20.850000
O 25.020000 4.170000 22.935000
O 27.105000 6.255000 27.105000
O 29.190000 6.255000 25.020000
O 27.105000 8.340000 25.020000
O 25.020000 4.170000 27.105000
O 27.105000 6.255000 31.275000
O 29.190000 6.255000 29.190000
O 27.105000 8.340000 29.190000
O 25.020000 4.170000 31.275000
O 27.105000 6.255000 35.445000
O 29.190000 6.255000 33.360000
O 27.105000 8.340000 33.360000
O 25.020000 4.170000 35.445000
O 27.105000 6.255000 39.615000
O 29.190000 6.255000 37.530000
O 27.105000 8.340000 37.530000
O 25.020000 4.170000 39.615000
O 27.105000 10.425000 2.085000
O 29.190000 10.425000 0.000000
O 27.105000 12.510000 0.000000
O 25.020000 8.340000 2.085000
O 27.105000 10.425000 6.255000
O 29.190000 10.425000 4.170000
O 27.105000 12.510000 4.170000
O 25.020000 8.340000 6.255000
O 27.105000 10.425000 10.425000
O 29.190000 10.425000 8.340000
O 27.105000 12.510000 8.340000
O 25.020000 8.340000 10.425000
O 27.105000 10.425000 14.595000
O 29.190000 10.425000 12.510000
O 27.105000 12.510000 12.510000
O 25.020000 8.340000 14.595000
O 27.105000 10.425000 18.765000
O 29.190000 10.425000 16.680000
O 27.105000 12.510000 16.680000
O 25.020000 8.340000 18.765000
O 27.105000 10.425000 22.935000
O 29.190000 10.425000 20.850000
O 27.105000 12.510000 20.850000
O 25.020000 8.340000 22.935000
O 27.105000 10.425000 27.105000
O 29.190000 10.425000 25.020000
O 27.105000 12.510000 25.020000
O 25.020000 8.340000 27.105000
O 27.105000 10.425000 31.275000
O 29.190000 10.425000 29.190000
O 27.105000 12.510000 29.190000
O 25.020000 8.340000 31.275000
O 27.105000 10.425000 35.445000
O 29.190000 10.425000 33.360000
O 27.105000 12.510000 33.360000
O 25.020000 8.340000 35.445000
O 27.105000 14.595000 2.085000
O 29.190000 14.595000 0.000000
O 27.105000 16.680000 0.000000
O 25.020000 12.510000 2.085000
O 27.105000 14.595000 6.255000
O 29.190000 14.595000 4.170000
O 27.105000 16.680000 4.170000
O 25.020000 12.510000 6.255000
O 27.105000 14.595000 10.425000
O 29.190000 14.595000 8.340000
O 27.105000 16.680000 8.340000
O 25.020000 12.510000 10.425000
O 27.105000 14.595000 14.595000
O 29.190000 14.595000 12.510000
O 27.105000 16.680000 12.510000
O 25.020000 12.510000 14.595000
O 27.105000 14.595000 18.765000
O 29.190000 14.595000 16.680000
O 27.105000 16.680000 16.680000
O 25.020000 12.510000 18.765000
O 27.105000 14.595000 22.935000
O 29.190000 14.595000 20.850000
O 27.105000 16.680000 20.850000
O 25.020000 12.510000 22.935000
O 27.105000 14.595000 27.105000
O 29.190000 14.595000 25.020000
O 27.105000 16.680000 25.020000
O 25.020000 12.510000 27.105000
O 27.105000 14.595000 31.275000
O 29.190000 14.595000 29.190000
O 27.105000 16.680000 29.190000
O 25.020000 12.510000 31.275000
O 27.105000 18.765000 2.085000
O 29.190000 18.765000 0.000000
O 27.105000 20.850000 0.000000
O 25.020000 16.680000 2.085000
O 27.105000 18.765000 6.255000
O 29.190000 18.765000 4.170000
O 27.105000 20.850000 4.170000
O 25.020000 16.680000 6.255000
O 27.105000 18.765000 10.425000
O 29.190000 18.765000 8.340000
O 27.105000 20.850000 8.340000
O 25.020000 16.680000 10.425000
O 27.105000 18.765000 14.595000
O 29.190000 18.765000 12.510000
O 27.105000 20.850000 12.510000
O 25.020000 16.680000 14.595000
O 27.105000 18.765000 18.765000
O 29.190000 18.765000 16.680000
O 27.105000 20.850000 16.680000
O 25.020000 16.680000 18.765000
O 27.105000 18.765000 22.935000
O 29.190000 18.765000 20.850000
O 27.105000 20.850000 20.850000
O 25.020000 16.680000 22.935000
O 27.105000 18.765000 27.105000
O 29.190000 18.765000 25.020000
O 27.105000 20.850000 25.020000
O 25.020000 16.680000 27.105000
O 27.105000 22.935000 2.085000
O 29.190000 22.935000 0.000000
O 27.105000 25.020000 0.000000
O 25.020000 20.850000 2.085000
O 27.105000 22.935000 6.255000
O 29.190000 22.935000 4.170000
O 27.105000 25.020000 4.170000
O 25.020000 20.850000 6.255000
O 27.105000 22.935000 10.425000
O 29.190000 22.935000 8.340000
O 27.105000 25.020000 8.340000
O 25.020000 20.850000 10.425000
O 27.105000 22.935000 14.595000
O 29.190000 22.935000 12.510000
O 27.105000 25.020000 12.510000
O 25.020000 20.850000 14.595000
O 27.105000 22.935000 18.765000
O 29.190000 22.935000 16.680000
O 27.105000 25.020000 16.680000
O 25.020000 20.850000 18.765000
O 27.105000 22.935000 22.935000
O 29.190000 22.935000 20.850000
O 27.105000 25.020000 20.850000
O 25.020000 20.850000 22.935000
O 27.105000 22.935000 27.105000
O 29.190000 22.935000 25.020000
O 27.105000 25.020000 25.020000
O 27.105000 25.020000 29.190000
O 27.105000 27.105000 2.085000
O 29.190000 27.105000 0.000000
O 27.105000 29.190000 0.000000
O 25.020000 25.020000 2.085000
O 27.105000 27.105000 6.255000
O 29.190000 27.105000 4.170000
O 27.105000 29.190000 4.170000
O 25.020000 25.020000 6.255000
O 27.105000 27.105000 10.425000
O 29.190000 27.105000 8.340000
O 27.105000 29.190000 8.340000
O 25.020000 25.020000 10.425000
O 27.105000 27.105000 14.595000
O 29.190000 27.105000 12.510000
O 27.105000 29.190000 12.510000
O 25.020000 25.020000 14.595000
O 27.105000 27.105000 18.765000
O 29.190000 27.105000 16.680000
O 27.105000 29.190000 16.680000
O 25.020000 25.020000 18.765000
O 27.105000 27.105000 22.935000
O 29.190000 27.105000 20.850000
O 27.105000 29.190000 20.850000
O 25.020000 25.020000 22.935000
O 27.105000 27.105000 27.105000
O 29.190000 27.105000 25.020000
O 27.105000 29.190000 25.020000
O 25.020000 25.020000 27.105000
O 27.105000 27.105000 31.275000
O 29.190000 27.105000 29.190000
O 27.105000 29.190000 29.190000
O 27.105000 29.190000 33.360000
O 27.105000 31.275000 2.085000
O 29.190000 31.275000 0.000000
O 27.105000 33.360000 0.000000
O 25.020000 29.190000 2.085000
O 27.105000 31.275000 6.255000
O 29.190000 31.275000 4.170000
O 27.105000 33.360000 4.170000
O 25.020000 29.190000 6.255000
O 27.105000 31.275000 10.425000
O 29.190000 31.275000 8.340000
O 27.105000 33.360000 8.340000
O 25.020000 29.190000 10.425000
O 27.105000 31.275000 14.595000
O 29.190000 31.275000 12.510000
O 27.105000 33.360000 12.510000
O 25.020000 29.190000 14.595000
O 27.105000 31.275000 18.765000
O 29.190000 31.275000 16.680000
O 27.105000 33.360000 16.680000
O 25.020000 29.190000 18.765000
O 27.105000 31.275000 22.935000
O 29.190000 31.275000 20.850000
O 27.105000 33.360000 20.850000
O 25.020000 29.190000 22.935000
O 27.105000 31.275000 27.105000
O 29.190000 31.275000 25.020000
O 27.105000 33.360000 25.020000
O 25.020000 29.190000 27.105000
O 27.105000 31.275000 31.275000
O 29.190000 31.275000 29.190000
O 27.105000 33.360000 29.190000
O 25.020000 29.190000 31.275000
O 27.105000 31.275000 35.445000
O 29.190000 31.275000 33.360000
O 27.105000 33.360000 33.360000
O 27.105000 33.360000 37.530000
O 27.105000 35.445000 2.085000
O 29.190000 35.445000 0.000000
O 27.105000 37.530000 0.000000
O 25.020000 33.360000 2.085000
O 27.105000 35.445000 6.255000
O 29.190000 35.445000 4.170000
O 27.105000 37.530000 4.170000
O 25.020000 33.360000 6.255000
O 27.105000 35.445000 10.425000
O 29.190000 35.445000 8.340000
O 27.105000 37.530000 8.340000
O 25.020000 33.360000 10.425000
O 27.105000 35.445000 14.595000
O 29.190000 35.445000 12.510000
O 27.105000 37.530000 12.510000
O 25.020000 33.360000 14.595000
O 27.105000 35.445000 18.765000
O 29.190000 35.445000 16.680000
O 27.105000 37.530000 16.680000
O 25.020000 33.360000 18.765000
O 27.105000 35.445000 22.935000
O 29.190000 35.445000 20.850000
O 27.105000 37.530000 20.850000
O 25.020000 33.360000 22.935000
O 27.105000 35.445000 27.105000
O 29.190000 35.445000 25.020000
O 27.105000 37.530000 25.020000
O 25.020000 33.360000 27.105000
O 27.105000 35.445000 31.275000
O 29.190000 35.445000 29.190000
O 27.105000 37.530000 29.190000
O 25.020000 33.360000 31.275000
O 27.105000 35.445000 35.445000
O 29.190000 35.445000 33.360000
O 27.105000 37.530000 33.360000
O 25.020000 33.360000 35.445000
O 27.105000 35.445000 39.615000
O 29.190000 35.445000 37.530000
O 27.105000 37.530000 37.530000
O 27.105000 39.615000 2.085000
O 29.190000 39.615000 0.000000
O 27.105000 0.000000 0.000000
O 25.020000 37.530000 2.085000
O 27.105000 39.615000 6.255000
O 29.190000 39.615000 4.170000
O 27.105000 0.000000 4.170000
O 25.020000 37.530000 6.255000
O 27.105000 39.615000 10.425000
O 29.190000 39.615000 8.340000
O 27.105000 0.000000 8.340000
O 25.020000 37.530000 10.425000
O 27.105000 39.615000 14.595000
O 29.190000 39.615000 12.510000
O 27.105000 0.000000 12.510000
O 25.020000 37.530000 14.595000
O 27.105000 39.615000 18.765000
O 29.190000 39.615000 16.680000
O 27.105000 0.000000 16.680000
O 25.020000 37.530000 18.765000
O 27.105000 39.615000 22.935000
O 29.190000 39.615000 20.850000
O 27.105000 0.000000 20.850000
O 25.020000 37.530000 22.935000
O 27.105000 39.615000 27.105000
O 29.190000 39.615000 25.020000
O 27.105000 0.000000 25.020000
O 25.020000 37.530000 27.105000
O 27.105000 39.615000 31.275000
O 29.190000 39.615000 29.190000
O 27.105000 0.000000 29.190000
O 25.020000 37.530000 31.275000
O 27.105000 39.615000 35.445000
O 29.190000 39.615000 33.360000
O 27.105000 0.000000 33.360000
O 25.020000 37.530000 35.445000
O 27.105000 39.615000 39.615000
O 29.190000 39.615000 37.530000
O 27.105000 0.000000 37.530000
O 25.020000 37.530000 39.615000
O 31.275000 2.085000 2.085000
O 33.360000 2.085000 0.000000
O 31.275000 4.170000 0.000000
O 29.190000 0.000000 2.085000
O 31.275000 2.085000 6.255000
O 33.360000 2.085000 4.170000
O 31.275000 4.170000 4.170000
O 29.190000 0.000000 6.255000
O 31.275000 2.085000 10.425000
O 33.360000 2.085000 8.340000
O 31.275000 4.170000 8.340000
O 29.190000 0.000000 10.425000
O 31.275000 2.085000 14.595000
O 33.360000 2.085000 12.510000
O 31.275000 4.170000 12.510000
O 29.190000 0.000000 14.595000
O 31.275000 2.085000 18.765000
O 33.360000 2.085000 16.680000
O 31.275000 4.170000 16.680000
O 29.190000 0.000000 18.765000
O 31.275000 2.085000 22.935000
O 33.360000 2.085000 20.850000
O 31.275000 4.170000 20.850000
O 29.190000 0.000000 22.935000
O 31.275000 2.085000 27.105000
O 33.360000 2.085000 25.020000
O 31.275000 4.170000 25.020000
O 29.190000 0.000000 27.105000
O 31.275000 2.085000 31.275000
O 33.360000 2.085000 29.190000
O 31.275000 4.170000 29.190000
O 29.190000 0.000000 31.275000
O 31.275000 2.085000 35.445000
O 33.360000 2.085000 33.360000
O 31.275000 4.170000 33.360000
O 29.190000 0.000000 35.445000
O 31.275000 2.085000 39.615000
O 33.360000 2.085000 37.530000
O 31.275000 4.170000 37.530000
O 29.190000 0.000000 39.615000
O 31.275000 6.255000 2.085000
O 33.360000 6.255000 0.000000
O 31.275000 8.340000 0.000000
O 29.190000 4.170000 2.085000
O 31.275000 6.255000 6.255000
O 33.360000 6.255000 4.170000
O 31.275000 8.340000 4.170000
O 29.190000 4.170000 6.255000
O 31.275000 6.255000 10.425000
O 33.360000 6.255000 8.340000
O 31.275000 8.340000 8.340000
O 29.190000 4.170000 10.425000
O 31.275000 6.255000 14.595000
O 33.360000 6.255000 12.510000
O 31.275000 8.340000 12.510000
O 29.190000 4.170000 14.595000
O 31.275000 6.255000 18.765000
O 33.360000 6.255000 16.680000
O 31.275000 8.340000 16.680000
O 29.190000 4.170000 18.765000
O 31.275000 6.255000 22.935000
O 33.360000 6.255000 20.850000
O 31.275000 8.340000 20.850000
O 29.190000 4.170000 22.935000
O 31.275000 6.255000 27.105000
O 33.360000 6.255000 25.020000
O 31.275000 8.340000 25.020000
O 29.190000 4.170000 27.105000
O 31.275000 6.255000 31.275000
O 33.360000 6.255000 29.190000
O 31.275000 8.340000 29.190000
O 29.190000 4.170000 31.275000
O 31.275000 6.255000 35.445000
O 33.360000 6.255000 33.360000
O 31.275000 8.340000 33.360000
O 29.190000 4.170000 35.445000
O 31.275000 6.255000 39.615000
O 33.360000 6.255000 37.530000
O 31.275000 8.340000 37.530000
O 29.190000 4.170000 39.615000
O 31.275000 10.425000 2.085000
O 33.360000 10.425000 0.000000
O 31.275000 12.510000 0.000000
O 29.190000 8.340000 2.085000
O 31.275000 10.425000 6.255000
O 33.360000 10.425000 4.170000
O 31.275000 12.510000 4.170000
O 29.190000 8.340000 6.255000
O 31.275000 10.425000 10.425000
O 33.360000 10.425000 8.340000
O 31.275000 12.510000 8.340000
O 29.190000 8.340000 10.425000
O 31.275000 10.425000 14.595000
O 33.360000 10.425000 12.510000
O 31.275000 12.510000 12.510000
O 29.190000 8.340000 14.595000
O 31.275000 10.425000 18.765000
O 33.360000 10.425000 16.680000
O 31.275000 12.510000 16.680000
O 29.190000 8.340000 18.765000
O 31.275000 10.425000 22.935000
O 33.360000 10.425000 20.850000
O 31.275000 12.510000 20.850000
O 29.190000 8.340000 22.935000
O 31.275000 10.425000 27.105000
O 33.360000 10.425000 25.020000
O 31.275000 12.510000 25.020000
O 29.190000 8.340000 27.105000
O 31.275000 10.425000 31.275000
O 33.360000 10.425000 29.190000
O 31.275000 12.510000 29.190000
O 29.190000 8.340000 31.275000
O 31.275000 10.425000 35.445000
O 33.360000 10.425000 33.360000
O 31.275000 12.510000 33.360000
O 29.190000 8.340000 35.445000
O 31.275000 14.595000 2.085000
O 33.360000 14.595000 0.000000
O 31.275000 16.680000 0.000000
O 29.190000 12.510000 2.085000
O 31.275000 14.595000 6.255000
O 33.360000 14.595000 4.170000
O 31.275000 16.680000 4.170000
O 29.190000 12.510000 6.255000
O 31.275000 14.595000 10.425000
O 33.360000 14.595000 8.340000
O 31.275000 16.680000 8.340000
O 29.190000 12.510000 10.425000
O 31.275000 14.595000 14.595000
O 33.360000 14.595000 12.510000
O 31.275000 16.680000 12.510000
O 29.190000 12.510000 14.595000
O 31.275000 14.595000 18.765000
O 33.360000 14.595000 16.680000
O 31.275000 16.680000 16.680000
O 29.190000 12.510000 18.765000
O 31.275000 14.595000 22.935000
O 33.360000 14.595000 20.850000
O 31.275000 16.680000 20.850000
O 29.190000 12.510000 22.935000
O 31.275000 14.595000 27.105000
O 33.360000 14.595000 25.020000
O 31.275000 16.680000 25.020000
O 29.190000 12.510000 27.105000
O 31.275000 14.595000 31.275000
O 33.360000 14.595000 29.190000
O 31.275000 16.680000 29.190000
O 29.190000 12.510000 31.275000
O 31.275000 18.765000 2.085000
O 33.360000 18.765000 0.000000
O 31.275000 20.850000 0.000000
O 29.190000 16.680000 2.085000
O 31.275000 18.765000 6.255000
O 33.360000 18.765000 4.170000
O 31.275000 20.850000 4.170000
O 29.190000 16.680000 6.255000
O 31.275000 18.765000 10.425000
O 33.360000 18.765000 8.340000
O 31.275000 20.850000 8.340000
O 29.190000 16.680000 10.425000
O 31.275000 18.765000 14.595000
O 33.360000 18.765000 12.510000
O 31.275000 20.850000 12.510000
O 29.190000 16.680000 14.595000
O 31.275000 18.765000 18.765000
O 33.360000 18.765000 16.680000
O 31.275000 20.850000 16.680000
O 29.190000 16.680000 18.765000
O 31.275000 18.765000 22.935000
O 33.360000 18.765000 20.850000
O 31.275000 20.850000 20.850000
O 29.190000 16.680000 22.935000
O 31.275000 18.765000 27.105000
O 33.360000 18.765000 25.020000
O 31.275000 20.850000 25.020000
O 29.190000 16.680000 27.105000
O 31.275000 22.935000 2.085000
O 33.360000 22.935000 0.000000
O 31.275000 25.020000 0.000000
O 29.190000 20.850000 2.085000
O 31.275000 22.935000 6.255000
O 33.360000 22.935000 4.170000
O 31.275000 25.020000 4.170000
O 29.190000 20.850000 6.255000
O 31.275000 22.935000 10.425000
O 33.360000 22.935000 8.340000
O 31.275000 25.020000 8.340000
O 29.190000 20.850000 10.425000
O 31.275000 22.935000 14.595000
O 33.360000 22.935000 12.510000
O 31.275000 25.020000 12.510000
O 29.190000 20.850000 14.595000
O 31.275000 22.935000 18.765000
O 33.360000 22.935000 16.680000
O 31.275000 25.020000 16.680000
O 29.190000 20.850000 18.765000
O 31.275000 22.935000 22.935000
O 33.360000 22.935000 20.850000
O 31.275000 25.020000 20.850000
O 29.190000 20.850000 22.935000
O 31.275000 22.935000 27.105000
O 33.360000 22.935000 25.020000
O 31.275000 25.020000 25.020000
O 31.275000 25.020000 29.190000
O 31.275000 27.105000 2.085000
O 33.360000 27.105000 0.000000
O 31.275000 29.190000 0.000000
O 29.190000 25.020000 2.085000
O 31.275000 27.105000 6.255000
O 33.360000 27.105000 4.170000
O 31.275000 29.190000 4.170000
O 29.190000 25.020000 6.255000
O 31.275000 27.105000 10.425000
O 33.360000 27.105000 8.340000
O 31.275000 29.190000 8.340000
O 29.190000 25.020000 10.425000
O 31.275000 27.105000 14.595000
O 33.360000 27.105000 12.510000
O 31.275000 29.190000 12.510000
O 29.190000 25.020000 14.595000
O 31.275000 27.105000 18.765000
O 33.360000 27.105000 16.680000
O 31.275000 29.190000 16.680000
O 29.190000 25.020000 18.765000
O 31.275000 27.105000 22.935000
O 33.360000 27.105000 20.850000
O 31.275000 29.190000 20.850000
O 29.190000 25.020000 22.935000
O 31.275000 27.105000 27.105000
O 33.360000 27.105000 25.020000
O 31.275000 29.190000 25.020000
O 29.190000 25.020000 27.105000
O 31.275000 27.105000 31.275000
O 33.360000 27.105000 29.190000
O 31.275000 29.190000 29.190000
O 31.275000 29.190000 33.360000
O 31.275000 31.275000 2.085000
O 33.360000 31.275000 0.000000
O 31.275000 33.360000 0.000000
O 29.190000 29.190000 2.085000
O 31.275000 31.275000 6.255000
O 33.360000 31.275000 4.170000
O 31.275000 33.360000 4.170000
O 29.190000 29.190000 6.255000
O 31.275000 31.275000 10.425000
O 33.360000 31.275000 8.340000
O 31.275000 33.360000 8.340000
O 29.190000 29.190000 10.425000
O 31.275000 31.275000 14.595000
O 33.360000 31.275000 12.510000
O 31.275000 33.360000 12.510000
O 29.190000 29.190000 14.595000
O 31.275000 31.275000 18.765000
O 33.360000 31.275000 16.680000
O 31.275000 33.360000 16.680000
O 29.190000 29.190000 18.765000
O 31.275000 31.275000 22.935000
O 33.360000 31.275000 20.850000
O 31.275000 33.360000 20.850000
O 29.190000 29.190000 22.935000
O 31.275000 31.275000 27.105000
O 33.360000 31.275000 25.020000
O 31.275000 33.360000 25.020000
O 29.190000 29.190000 27.105000
O 31.275000 31.275000 31.275000
O 33.360000 31.275000 29.190000
O 31.275000 33.360000 29.190000
O 29.190000 29.190000 31.275000
O 31.275000 31.275000 35.445000
O 33.360000 31.275000 33.360000
O 31.275000 33.360000 33.360000
O 31.275000 33.360000 37.530000
O 31.275000 35.445000 2.085000
O 33.360000 35.445000 0.000000
O 31.275000 37.530000 0.000000
O 29.190000 33.360000 2.085000
O 31.275000 35.445000 6.255000
O 33.360000 35.445000 4.170000
O 31.275000 37.530000 4.170000
O 29.190000 33.360000 6.255000
O 31.275000 35.445000 10.425000
O 33.360000 35.445000 8.340000
O 31.275000 37.530000 8.340000
O 29.190000 33.360000 10.425000
O 31.275000 35.445000 14.595000
O 33.360000 35.445000 12.510000
O 31.275000 37.530000 12.510000
O 29.190000 33.360000 14.595000
O 31.275000 35.445000 18.765000
O 33.360000 35.445000 16.680000
O 31.275000 37.530000 16.680000
O 29.190000 33.360000 18.765000
O 31.275000 35.445000 22.935000
O 33.360000 35.445000 20.850000
O 31.275000 37.530000 20.850000
O 29.190000 33.360000 22.935000
O 31.275000 35.445000 27.105000
O 33.360000 35.445000 25.020000
O 31.275000 37.530000 25.020000
O 29.190000 33.360000 27.105000
O 31.275000 35.445000 31.275000
O 33.360000 35.445000 29.190000
O 31.275000 37.530000 29.190000
O 29.190000 33.360000 31.275000
O 31.275000 35.445000 35.445000
O 33.360000 35.445000 33.360000
O 31.275000 37.530000 33.360000
O 29.190000 33.360000 35.445000
O 31.275000 35.445000 39.615000
O 33.360000 35.445000 37.530000
O 31.275000 37.530000 37.530000
O 31.275000 39.615000 2.085000
O 33.360000 39.615000 0.000000
O 31.275000 0.000000 0.000000
O 29.190000 37.530000 2.085000
O 31.275000 39.615000 6.255000
O 33.360000 39.615000 4.170000
O 31.275000 0.000000 4.170000
O 29.190000 37.530000 6.255000
O 31.275000 39.615000 10.425000
O 33.360000 39.615000 8.340000
O 31.275000 0.000000 8.340000
O 29.190000 37.530000 10.425000
O 31.275000 39.615000 14.595000
O 33.360000 39.615000 12.510000
O 31.275000 0.000000 12.510000
O 29.190000 37.530000 14.595000
O 31.275000 39.615000 18.765000
O 33.360000 39.615000 16.680000
O 31.275000 0.000000 16.680000
O 29.190000 37.530000 18.765000
O 31.275000 39.615000 22.935000
O 33.360000 39.615000 20.850000
O 31.275000 0.000000 20.850000
O 29.190000 37.530000 22.935000
O 31.275000 39.615000 27.105000
O 33.360000 39.615000 25.020000
O 31.275000 0.000000 25.020000
O 29.190000 37.530000 27.105000
O 31.275000 39.615000 31.275000
O 33.360000 39.615000 29.190000
O 31.275000 0.000000 29.190000
O 29.190000 37.530000 31.275000
O 31.275000 39.615000 35.445000
O 33.360000 39.615000 33.360000
O 31.275000 0.000000 33.360000
O 29.190000 37.530000 35.445000
O 31.275000 39.615000 39.615000
O 33.360000 39.615000 37.530000
O 31.275000 0.000000 37.530000
O 29.190000 37.530000 39.615000
O 35.445000 2.085000 2.085000
O 37.530000 2.085000 0.000000
O 35.445000 4.170000 0.000000
O 33.360000 0.000000 2.085000
O 35.445000 2.085000 6.255000
O 37.530000 2.085000 4.170000
O 35.445000 4.170000 4.170000
O 33.360000 0.000000 6.255000
O 35.445000 2.085000 10.425000
O 37.530000 2.085000 8.340000
O 35.445000 4.170000 8.340000
O 33.360000 0.000000 10.425000
O 35.445000 2.085000 14.595000
O 37.530000 2.085000 12.510000
O 35.445000 4.170000 12.510000
O 33.360000 0.000000 14.595000
O 35.445000 2.085000 18.765000
O 37.530000 2.085000 16.680000
O 35.445000 4.170000 16.680000
O 33.360000 0.000000 18.765000
O 35.445000 2.085000 22.935000
O 37.530000 2.085000 20.850000
O 35.445000 4.170000 20.850000
O 33.360000 0.000000 22.935000
O 35.445000 2.085000 27.105000
O 37.530000 2.085000 25.020000
O 35.445000 4.170000 25.020000
O 33.360000 0.000000 27.105000
O 35.445000 2.085000 31.275000
O 37.530000 2.085000 29.190000
O 35.445000 4.170000 29.190000
O 33.360000 0.000000 31.275000
O 35.445000 2.085000 35.445000
O 37.530000 2.085000 33.360000
O 35.445000 4.170000 33.360000
O 33.360000 0.000000 35.445000
O 35.445000 2.085000 39.615000
O 37.530000 2.085000 37.530000
O 35.445000 4.170000 37.530000
O 33.360000 0.000000 39.615000
O 35.445000 6.255000 2.085000
O 37.530000 6.255000 0.000000
O 35.445000 8.340000 0.000000
O 33.360000 4.170000 2.085000
O 35.445000 6.255000 6.255000
O 37.530000 6.255000 4.170000
O 35.445000 8.340000 4.170000
O 33.360000 4.170000 6.255000
O 35.445000 6.255000 10.425000
O 37.530000 6.255000 8.340000
O 35.445000 8.340000 8.340000
O 33.360000 4.170000 10.425000
O 35.445000 6.255000 14.595000
O 37.530000 6.255000 12.510000
O 35.445000 8.340000 12.510000
O 33.360000 4.170000 14.595000
O 35.445000 6.255000 18.765000
O 37.530000 6.255000 16.680000
O 35.445000 8.340000 16.680000
O 33.360000 4.170000 18.765000
O 35.445000 6.255000 22.935000
O 37.530000 6.255000 20.850000
O 35.445000 8.340000 20.850000
O 33.360000 4.170000 22.935000
O 35.445000 6.255000 27.105000
O 37.530000 6.255000 25.020000
O 35.445000 8.340000 25.020000
O 33.360000 4.170000 27.105000
O 35.445000 6.255000 31.275000
O 37.530000 6.255000 29.190000
O 35.445000 8.340000 29.190000
O 33.360000 4.170000 31.275000
O 35.445000 6.255000 35.445000
O 37.530000 6.255000 33.360000
O 35.445000 8.340000 33.360000
O 33.360000 4.170000 35.445000
O 35.445000 6.255000 39.615000
O 37.530000 6.255000 37.530000
O 35.445000 8.340000 37.530000
O 33.360000 4.170000 39.615000
O 35.445000 10.425000 2.085000
O 37.530000 10.425000 0.000000
O 35.445000 12.510000 0.000000
O 33.360000 8.340000 2.085000
O 35.445000 10.425000 6.255000
O 37.530000 10.425000 4.170000
O 35.445000 12.510000 4.170000
O 33.360000 8.340000 6.255000
O 35.445000 10.425000 10.425000
O 37.530000 10.425000 8.340000
O 35.445000 12.510000 8.340000
O 33.360000 8.340000 10.425000
O 35.445000 10.425000 14.595000
O 37.530000 10.425000 12.510000
O 35.445000 12.510000 12.510000
O 33.360000 8.340000 14.595000
O 35.445000 10.425000 18.765000
O 37.530000 10.425000 16.680000
O 35.445000 12.510000 16.680000
O 33.360000 8.340000 18.765000
O 35.445000 10.425000 22.935000
O 37.530000 10.425000 20.850000
O 35.445000 12.510000 20.850000
O 33.360000 8.340000 22.935000
O 35.445000 10.425000 27.105000
O 37.530000 10.425000 25.020000
O 35.445000 12.510000 25.020000
O 33.360000 8.340000 27.105000
O 35.445000 10.425000 31.275000
O 37.530000 10.425000 29.190000
O 35.445000 12.510000 29.190000
O 33.360000 8.340000 31.275000
O 35.445000 10.425000 35.445000
O 37.530000 10.425000 33.360000
O 35.445000 12.510000 33.360000
O 33.360000 8.340000 35.445000
O 35.445000 14.595000 2.085000
O 37.530000 14.595000 0.000000
O 35.445000 16.680000 0.000000
O 33.360000 12.510000 2.085000
O 35.445000 14.595000 6.255000
O 37.530000 14.595000 4.170000
O 35.445000 16.680000 4.170000
O 33.360000 12.510000 6.255000
O 35.445000 14.595000 10.425000
O 37.530000 14.595000 8.340000
O 35.445000 16.680000 8.340000
O 33.360000 12.510000 10.425000
O 35.445000 14.595000 14.595000
O 37.530000 14.595000 12.510000
O 35.445000 16.680000 12.510000
O 33.360000 12.510000 14.595000
O 35.445000 14.595000 18.765000
O 37.530000 14.595000 16.680000
O 35.445000 16.680000 16.680000
O 33.360000 12.510000 18.765000
O 35.445000 14.595000 22.935000
O 37.530000 14.595000 20.850000
O 35.445000 16.680000 20.850000
O 33.360000 12.510000 22.935000
O 35.445000 14.595000 27.105000
O 37.530000 14.595000 25.020000
O 35.445000 16.680000 25.020000
O 33.360000 12.510000 27.105000
O 35.445000 14.595000 31.275000
O 37.530000 14.595000 29.190000
O 35.445000 16.680000 29.190000
O 33.360000 12.510000 31.275000
O 35.445000 18.765000 2.085000
O 37.530000 18.765000 0.000000
O 35.445000 20.850000 0.000000
O 33.360000 16.680000 2.085000
O 35.445000 18.765000 6.255000
O 37.530000 18.765000 4.170000
O 35.445000 20.850000 4.170000
O 33.360000 16.680000 6.255000
O 35.445000 18.765000 10.425000
O 37.530000 18.765000 8.340000
O 35.445000 20.850000 8.340000
O 33.360000 16.680000 10.425000
O 35.445000 18.765000 14.595000
O 37.530000 18.765000 12.510000
O 35.445000 20.850000 12.510000
O 33.360000 16.680000 14.595000
O 35.445000 18.765000 18.765000
O 37.530000 18.765000 16.680000
O 35.445000 20.850000 16.680000
O 33.360000 16.680000 18.765000
O 35.445000 18.765000 22.935000
O 37.530000 18.765000 20.850000
O 35.445000 20.850000 20.850000
O 33.360000 16.680000 22.935000
O 35.445000 18.765000 27.105000
O 37.530000 18.765000 25.020000
O 35.445000 20.850000 25.020000
O 33.360000 16.680000 27.105000
O 35.445000 22.935000 2.085000
O 37.530000 22.935000 0.000000
O 35.445000 25.020000 0.000000
O 33.360000 20.850000 2.085000
O 35.445000 22.935000 6.255000
O 37.530000 22.935000 4.170000
O 35.445000 25.020000 4.170000
O 33.360000 20.850000 6.255000
O 35.445000 22.935000 10.425000
O 37.530000 22.935000 8.340000
O 35.445000 25.020000 8.340000
O 33.360000 20.850000 10.425000
O 35.445000 22.935000 14.595000
O 37.530000 22.935000 12.510000
O 35.445000 25.020000 12.510000
O 33.360000 20.850000 14.595000
O 35.445000 22.935000 18.765000
O 37.530000 22.935000 16.680000
O 35.445000 25.020000 16.680000
O 33.360000 20.850000 18.765000
O 35.445000 22.935000 22.935000
O 37.530000 22.935000 20.850000
O 35.445000 25.020000 20.850000
O 33.360000 20.850000 22.935000
O 35.445000 22.935000 27.105000
O 37.530000 22.935000 25.020000
O 35.445000 25.020000 25.020000
O 35.445000 25.020000 29.190000
O 35.445000 27.105000 2.085000
O 37.530000 27.105000 0.000000
O 35.445000 29.190000 0.000000
O 33.360000 25.020000 2.085000
O 35.445000 27.105000 6.255000
O 37.530000 27.105000 4.170000
O 35.445000 29.190000 4.170000
O 33.360000 25.020000 6.255000
O 35.445000 27.105000 10.425000
O 37.530000 27.105000 8.340000
O 35.445000 29.190000 8.340000
O 33.360000 25.020000 10.425000
O 35.445000 27.105000 14.595000
O 37.530000 27.105000 12.510000
O 35.445000 29.190000 12.510000
O 33.360000 25.020000 14.595000
O 35.445000 27.105000 18.765000
O 37.530000 27.105000 16.680000
O 35.445000 29.190000 16.680000
O 33.360000 25.020000 18.765000
O 35.445000 27.105000 22.935000
O 37.530000 27.105000 20.850000
O 35.445000 29.190000 20.850000
O 33.360000 25.020000 22.935000
O 35.445000 27.105000 27.105000
O 37.530000 27.105000 25.020000
O 35.445000 29.190000 25.020000
O 33.360000 25.020000 27.105000
O 35.445000 27.105000 31.275000
O 37.530000 27.105000 29.190000
O 35.445000 29.190000 29.190000
O 35.445000 29.190000 33.360000
O 35.445000 31.275000 2.085000
O 37.530000 31.275000 0.000000
O 35.445000 33.360000 0.000000
O 33.360000 29.190000 2.085000
O 35.445000 31.275000 6.255000
O 37.530000 31.275000 4.170000
O 35.445000 33.360000 4.170000
O 33.360000 29.190000 6.255000
O 35.445000 31.275000 10.425000
O 37.530000 31.275000 8.340000
O 35.445000 33.360000 8.340000
O 33.360000 29.190000 10.425000
O 35.445000 31.275000 14.595000
O 37.530000 31.275000 12.510000
O 35.445000 33.360000 12.510000
O 33.360000 29.190000 14.595000
O 35.445000 31.275000 18.765000
O 37.530000 31.275000 16.680000
O 35.445000 33.360000 16.680000
O 33.360000 29.190000 18.765000
O 35.445000 31.275000 22.935000
O 37.530000 31.275000 20.850000
O 35.445000 33.360000 20.850000
O 33.360000 29.190000 22.935000
O 35.445000 31.275000 27.105000
O 37.530000 31.275000 25.020000
O 35.445000 33.360000 25.020000
O 33.360000 29.190000 27.105000
O 35.445000 31.275000 31.275000
O 37.530000 31.275000 29.190000
O 35.445000 33.360000 29.190000
O 33.360000 29.190000 31.275000
O 35.445000 31.275000 35.445000
O 37.530000 31.275000 33.360000
O 35.445000 33.360000 33.360000
O 35.445000 33.360000 37.530000
O 35.445000 35.445000 2.085000
O 37.530000 35.445000 0.000000
O 35.445000 37.530000 0.000000
O 33.360000 33.360000 2.085000
O 35.445000 35.445000 6.255000
O 37.530000 35.445000 4.170000
O 35.445000 37.530000 4.170000
O 33.360000 33.360000 6.255000
O 35.445000 35.445000 10.425000
O 37.530000 35.445000 8.340000
O 35.445000 37.530000 8.340000
O 33.360000 33.360000 10.425000
O 35.445000 35.445000 14.595000
O 37.530000 35.445000 12.510000
O 35.445000 37.530000 12.510000
O 33.360000 33.360000 14.595000
O 35.445000 35.445000 18.765000
O 37.530000 35.445000 16.680000
O 35.445000 37.530000 16.680000
O 33.360000 33.360000 18.765000
O 35.445000 35.445000 22.935000
O 37.530000 35.445000 20.850000
O 35.445000 37.530000 20.850000
O 33.360000 33.360000 22.935000
O 35.445000 35.445000 27.105000
O 37.530000 35.445000 25.020000
O 35.445000 37.530000 25.020000
O 33.360000 33.360000 27.105000
O 35.445000 35.445000 31.275000
O 37.530000 35.445000 29.190000
O 35.445000 37.530000 29.190000
O 33.360000 33.360000 31.275000
O 35.445000 35.445000 35.445000
O 37.530000 35.445000 33.360000
O 35.445000 37.530000 33.360000
O 33.360000 33.360000 35.445000
O 35.445000 35.445000 39.615000
O 37.530000 35.445000 37.530000
O 35.445000 37.530000 37.530000
O 35.445000 39.615000 2.085000
O 37.530000 39.615000 0.000000
O 35.445000 0.000000 0.000000
O 33.360000 37.530000 2.085000
O 35.445000 39.615000 6.255000
O 37.530000 39.615000 4.170000
O 35.445000 0.000000 4.170000
O 33.360000 37.530000 6.255000
O 35.445000 39.615000 10.425000
O 37.530000 39.615000 8.340000
O 35.445000 0.000000 8.340000
O 33.360000 37.530000 10.425000
O 35.445000 39.615000 14.595000
O 37.530000 39.615000 12.510000
O 35.445000 0.000000 12.510000
O 33.360000 37.530000 14.595000
O 35.445000 39.615000 18.765000
O 37.530000 39.615000 16.680000
O 35.445000 0.000000 16.680000
O 33.360000 37.530000 18.765000
O 35.445000 39.615000 22.935000
O 37.530000 39.615000 20.850000
O 35.445000 0.000000 20.850000
O 33.360000 37.530000 22.935000
O 35.445000 39.615000 27.105000
O 37.530000 39.615000 25.020000
O 35.445000 0.000000 25.020000
O 33.360000 37.530000 27.105000
O 35.445000 39.615000 31.275000
O 37.530000 39.615000 29.190000
O 35.445000 0.000000 29.190000
O 33.360000 37.530000 31.275000
O 35.445000 39.615000 35.445000
O 37.530000 39.615000 33.360000
O 35.445000 0.000000 33.360000
O 33.360000 37.530000 35.445000
O 35.445000 39.615000 39.615000
O 37.530000 39.615000 37.530000
O 35.445000 0.000000 37.530000
O 33.360000 37.530000 39.615000
O 39.615000 2.085000 2.085000
O 41.700000 2.085000 0.000000
O 39.615000 4.170000 0.000000
O 37.530000 0.000000 2.085000
O 39.615000 2.085000 6.255000
O 41.700000 2.085000 4.170000
O 39.615000 4.170000 4.170000
O 37.530000 0.000000 6.255000
O 39.615000 2.085000 10.425000
O 41.700000 2.085000 8.340000
O 39.615000 4.170000 8.340000
O 37.530000 0.000000 10.425000
O 39.615000 2.085000 14.595000
O 41.700000 2.085000 12.510000
O 39.615000 4.170000 12.510000
O 37.530000 0.000000 14.595000
O 39.615000 2.085000 18.765000
O 41.700000 2.085000 16.680000
O 39.615000 4.170000 16.680000
O 37.530000 0.000000 18.765000
O 39.615000 2.085000 22.935000
O 41.700000 2.085000 20.850000
O 39.615000 4.170000 20.850000
O 37.530000 0.000000 22.935000
O 39.615000 2.085000 27.105000
O 41.700000 2.085000 25.020000
O 39.615000 4.170000 25.020000
O 37.530000 0.000000 27.105000
O 39.615000 2.085000 31.275000
O 41.700000 2.085000 29.190000
O 39.615000 4.170000 29.190000
O 37.530000 0.000000 31.275000
O 39.615000 2.085000 35.445000
O 41.700000 2.085000 33.360000
O 39.615000 4.170000 33.360000
O 37.530000 0.000000 35.445000
O 39.615000 2.085000 39.615000
O 41.700000 2.085000 37.530000
O 39.615000 4.170000 37.530000
O 37.530000 0.000000 39.615000
O 39.615000 6.255000 2.085000
O 41.700000 6.255000 0.000000
O 39.615000 8.340000 0.000000
O 37.530000 4.170000 2.085000
O 39.615000 6.255000 6.255000
O 41.700000 6.255000 4.170000
O 39.615000 8.340000 4.170000
O 37.530000 4.170000 6.255000
O 39.615000 6.255000 10.425000
O 41.700000 6.255000 8.340000
O 39.615000 8.340000 8.340000
O 37.530000 4.170000 10.425000
O 39.615000 6.255000 14.595000
O 41.700000 6.255000 12.510000
O 39.615000 8.340000 12.510000
O 37.530000 4.170000 14.595000
O 39.615000 6.255000 18.765000
O 41.700000 6.255000 16.680000
O 39.615000 8.340000 16.680000
O 37.530000 4.170000 18.765000
O 39.615000 6.255000 22.935000
O 41.700000 6.255000 20.850000
O 39.615000 8.340000 20.850000
O 37.530000 4.170000 22.935000
O 39.615000 6.255000 27.105000
O 41.700000 6.255000 25.020000
O 39.615000 8.340000 25.020000
O 37.530000 4.170000 27.105000
O 39.615000 6.255000 31.275000
O 41.700000 6.255000 29.190000
O 39.615000 8.340000 29.190000
O 37.530000 4.170000 31.275000
O 39.615000 6.255000 35.445000
O 41.700000 6.255000 33.360000
O 39.615000 8.340000 33.360000
O 37.530000 4.170000 35.445000
O 39.615000 6.255000 39.615000
O 41.700000 6.255000 37.530000
O 39.615000 8.340000 37.530000
O 37.530000 4.170000 39.615000
O 39.615000 10.425000 2.085000
O 41.700000 10.425000 0.000000
O 39.615000 12.510000 0.000000
O 37.530000 8.340000 2.085000
O 39.615000 10.425000 6.255000
O 41.700000 10.425000 4.170000
O 39.615000 12.510000 4.170000
O 37.530000 8.340000 6.255000
O 39.615000 10.425000 10.425000
O 41.700000 10.425000 8.340000
O 39.615000 12.510000 8.340000
O 37.530000 8.340000 10.425000
O 39.615000 10.425000 14.595000
O 41.700000 10.425000 12.510000
O 39.615000 12.510000 12.510000
O 37.530000 8.340000 14.595000
O 39.615000 10.425000 18.765000
O 41.700000 10.425000 16.680000
O 39.615000 12.510000 16.680000
O 37.530000 8.340000 18.765000
O 39.615000 10.425000 22.935000
O 41.700000 10.425000 20.850000
O 39.615000 12.510000 20.850000
O 37.530000 8.340000 22.935000
O 39.615000 10.425000 27.105000
O 41.700000 10.425000 25.020000
O 39.615000 12.510000 25.020000
O 37.530000 8.340000 27.105000
O 39.615000 10.425000 31.275000
O 41.700000 10.425000 29.190000
O 39.615000 12.510000 29.190000
O 37.530000 8.340000 31.275000
O 39.615000 10.425000 35.445000
O 41.700000 10.425000 33.360000
O 39.615000 12.510000 33.360000
O 37.530000 8.340000 35.445000
O 39.615000 14.595000 2.085000
O 41.700000 14.595000 0.000000
O 39.615000 16.680000 0.000000
O 37.530000 12.510000 2.085000
O 39.615000 14.595000 6.255000
O 41.700000 14.595000 4.170000
O 39.615000 16.680000 4.170000
O 37.530000 12.510000 6.255000
O 39.615000 14.595000 10.425000
O 41.700000 14.595000 8.340000
O 39.615000 16.680000 8.340000
O 37.530000 12.510000 10.425000
O 39.615000 14.595000 14.595000
O 41.700000 14.595000 12.510000
O 39.615000 16.680000 12.510000
O 37.530000 12.510000 14.595000
O 39.615000 14.595000 18.765000
O 41.700000 14.595000 16.680000
O 39.615000 16.680000 16.680000
O 37.530000 12.510000 18.765000
O 39.615000 14.595000 22.935000
O 41.700000 14.595000 20.850000
O 39.615000 16.680000 20.850000
O 37.530000 12.510000 22.935000
O 39.615000 14.595000 27.105000
O 41.700000 14.595000 25.020000
O 39.615000 16.680000 25.020000
O 37.530000 12.510000 27.105000
O 39.615000 14.595000 31.275000
O 41.700000 14.595000 29.190000
O 39.615000 16.680000 29.190000
O 37.530000 12.510000 31.275000
O 39.615000 18.765000 2.085000
O 41.700000 18.765000 0.000000
O 39.615000 20.850000 0.000000
O 37.530000 16.680000 2.085000
O 39.615000 18.765000 6.255000
O 41.700000 18.765000 4.170000
O 39.615000 20.850000 4.170000
O 37.530000 16.680000 6.255000
O 39.615000 18.765000 10.425000
O 41.700000 18.765000 8.340000
O 39.615000 20.850000 8.340000
O 37.530000 16.680000 10.425000
O 39.615000 18.765000 14.595000
O 41.700000 18.765000 12.510000
O 39.615000 20.850000 12.510000
O 37.530000 16.680000 14.595000
O 39.615000 18.765000 18.765000
O 41.700000 18.765000 16.680000
O 39.615000 20.850000 16.680000
O 37.530000 16.680000 18.765000
O 39.615000 18.765000 22.935000
O 41.700000 18.765000 20.850000
O 39.615000 20.850000 20.850000
O 37.530000 16.680000 22.935000
O 39.615000 18.765000 27.105000
O 41.700000 18.765000 25.020000
O 39.615000 20.850000 25.020000
O 37.530000 16.680000 27.105000
O 39.615000 22.935000 2.085000
O 41.700000 22.935000 0.000000
O 39.615000 25.020000 0.000000
O 37.530000 20.850000 2.085000
O 39.615000 22.935000 6.255000
O 41.700000 22.935000 4.170000
O 39.615000 25.020000 4.170000
O 37.530000 20.850000 6.255000
O 39.615000 22.935000 10.425000
O 41.700000 22.935000 8.340000
O 39.615000 25.020000 8.340000
O 37.530000 20.850000 10.425000
O 39.615000 22.935000 14.595000
O 41.700000 22.935000 12.510000
O 39.615000 25.020000 12.510000
O 37.530000 20.850000 14.595000
O 39.615000 22.935000 18.765000
O 41.700000 22.935000 16.680000
O 39.615000 25.020000 16.680000
O 37.530000 20.850000 18.765000
O 39.615000 22.935000 22.935000
O 41.700000 22.935000 20.850000
O 39.615000 25.020000 20.850000
O 37.530000 20.850000 22.935000
O 39.615000 22.935000 27.105000
O 41.700000 22.935000 25.020000
O 39.615000 25.020000 25.020000
O 39.615000 25.020000 29.190000
O 39.615000 27.105000 2.085000
O 41.700000 27.105000 0.000000
O 39.615000 29.190000 0.000000
O 37.530000 25.020000 2.085000
O 39.615000 27.105000 6.255000
O 41.700000 27.105000 4.170000
O 39.615000 29.190000 4.170000
O 37.530000 25.020000 6.255000
O 39.615000 27.105000 10.425000
O 41.700000 27.105000 8.340000
O 39.615000 29.190000 8.340000
O 37.530000 25.020000 10.425000
O 39.615000 27.105000 14.595000
O 41.700000 27.105000 12.510000
O 39.615000 29.190000 12.510000
O 37.530000 25.020000 14.595000
O 39.615000 27.105000 18.765000
O 41.700000 27.105000 16.680000
O 39.615000 29.190000 16.680000
O 37.530000 25.020000 18.765000
O 39.615000 27.105000 22.935000
O 41.700000 27.105000 20.850000
O 39.615000 29.190000 20.850000
O 37.530000 25.020000 22.935000
O 39.615000 27.105000 27.105000
O 41.700000 27.105000 25.020000
O 39.615000 29.190000 25.020000
O 37.530000 25.020000 27.105000
O 39.615000 27.105000 31.275000
O 41.700000 27.105000 29.190000
O 39.615000 29.190000 29.190000
O 39.615000 29.190000 33.360000
O 39.615000 31.275000 2.085000
O 41.700000 31.275000 0.000000
O 39.615000 33.360000 0.000000
O 37.530000 29.190000 2.085000
O 39.615000 31.275000 6.255000
O 41.700000 31.275000 4.170000
O 39.615000 33.360000 4.170000
O 37.530000 29.190000 6.255000
O 39.615000 31.275000 10.425000
O 41.700000 31.275000 8.340000
O 39.615000 33.360000 8.340000
O 37.530000 29.190000 10.425000
O 39.615000 31.275000 14.595000
O 41.700000 31.275000 12.510000
O 39.615000 33.360000 12.510000
O 37.530000 29.190000 14.595000
O 39.615000 31.275000 18.765000
O 41.700000 31.275000 16.680000
O 39.615000 33.360000 16.680000
O 37.530000 29.190000 18.765000
O 39.615000 31.275000 22.935000
O 41.700000 31.275000 20.850000
O 39.615000 33.360000 20.850000
O 37.530000 29.190000 22.935000
O 39.615000 31.275000 27.105000
O 41.700000 31.275000 25.020000
O 39.615000 33.360000 25.020000
O 37.530000 29.190000 27.105000
O 39.615000 31.275000 31.275000
O 41.700000 31.275000 29.190000
O 39.615000 33.360000 29.190000
O 37.530000 29.190000 31.275000
O 39.615000 31.275000 35.445000
O 41.700000 31.275000 33.360000
O 39.615000 33.360000 33.360000
O 39.615000 33.360000 37.530000
O 39.615000 35.445000 2.085000
O 41.700000 35.445000 0.000000
O 39.615000 37.530000 0.000000
O 37.530000 33.360000 2.085000
O 39.615000 35.445000 6.255000
O 41.700000 35.445000 4.170000
O 39.615000 37.530000 4.170000
O 37.530000 33.360000 6.255000
O 39.615000 35.445000 10.425000
O 41.700000 35.445000 8.340000
O 39.615000 37.530000 8.340000
O 37.530000 33.360000 10.425000
O 39.615000 35.445000 14.595000
O 41.700000 35.445000 12.510000
O 39.615000 37.530000 12.510000
O 37.530000 33.360000 14.595000
O 39.615000 35.445000 18.765000
O 41.700000 35.445000 16.680000
O 39.615000 37.530000 16.680000
O 37.530000 33.360000 18.765000
O 39.615000 35.445000 22.935000
O 41.700000 35.445000 20.850000
O 39.615000 37.530000 20.850000
O 37.530000 33.360000 22.935000
O 39.615000 35.445000 27.105000
O 41.700000 35.445000 25.020000
O 39.615000 37.530000 25.020000
O 37.530000 33.360000 27.105000
O 39.615000 35.445000 31.275000
O 41.700000 35.445000 29.190000
O 39.615000 37.530000 29.190000
O 37.530000 33.360000 31.275000
O 39.615000 35.445000 35.445000
O 41.700000 35.445000 33.360000
O 39.615000 37.530000 33.360000
O 37.530000 33.360000 35.445000
O 39.615000 35.445000 39.615000
O 41.700000 35.445000 37.530000
O 39.615000 37.530000 37.530000
O 39.615000 39.615000 2.085000
O 41.700000 39.615000 0.000000
O 39.615000 0.000000 0.000000
O 37.530000 37.530000 2.085000
O 39.615000 39.615000 6.255000
O 41.700000 39.615000 4.170000
O 39.615000 0.000000 4.170000
O 37.530000 37.530000 6.255000
O 39.615000 39.615000 10.425000
O 41.700000 39.615000 8.340000
O 39.615000 0.000000 8.340000
O 37.530000 37.530000 10.425000
O 39.615000 39.615000 14.595000
O 41.700000 39.615000 12.510000
O 39.615000 0.000000 12.510000
O 37.530000 37.530000 14.595000
O 39.615000 39.615000 18.765000
O 41.700000 39.615000 16.680000
O 39.615000 0.000000 16.680000
O 37.530000 37.530000 18.765000
O 39.615000 39.615000 22.935000
O 41.700000 39.615000 20.850000
O 39.615000 0.000000 20.850000
O 37.530000 37.530000 22.935000
O 39.615000 39.615000 27.105000
O 41.700000 39.615000 25.020000
O 39.615000 0.000000 25.020000
O 37.530000 37.530000 27.105000
O 39.615000 39.615000 31.275000
O 41.700000 39.615000 29.190000
O 39.615000 0.000000 29.190000
O 37.530000 37.530000 31.275000
O 39.615000 39.615000 35.445000
O 41.700000 39.615000 33.360000
O 39.615000 0.000000 33.360000
O 37.530000 37.530000 35.445000
O 39.615000 39.615000 39.615000
O 41.700000 39.615000 37.530000
O 39.615000 0.000000 37.530000
O 37.530000 37.530000 39.615000
O 43.785000 2.085000 2.085000
O 45.870000 2.085000 0.000000
O 43.785000 4.170000 0.000000
O 41.700000 0.000000 2.085000
O 43.785000 2.085000 6.255000
O 45.870000 2.085000 4.170000
O 43.785000 4.170000 4.170000
O 41.700000 0.000000 6.255000
O 43.785000 2.085000 10.425000
O 45.870000 2.085000 8.340000
O 43.785000 4.170000 8.340000
O 41.700000 0.000000 10.425000
O 43.785000 2.085000 14.595000
O 45.870000 2.085000 12.510000
O 43.785000 4.170000 12.510000
O 41.700000 0.000000 14.595000
O 43.785000 2.085000 18.765000
O 45.870000 2.085000 16.680000
O 43.785000 4.170000 16.680000
O 41.700000 0.000000 18.765000
O 43.785000 2.085000 22.935000
O 45.870000 2.085000 20.850000
O 43.785000 4.170000 20.850000
O 41.700000 0.000000 22.935000
O 43.785000 2.085000 27.105000
O 45.870000 2.085000 25.020000
O 43.785000 4.170000 25.020000
O 41.700000 0.000000 27.105000
O 43.785000 2.085000 31.275000
O 45.870000 2.085000 29.190000
O 43.785000 4.170000 29.190000
O 41.700000 0.000000 31.275000
O 43.785000 2.085000 35.445000
O 45.870000 2.085000 33.360000
O 43.785000 4.170000 33.360000
O 41.700000 0.000000 35.445000
O 43.785000 2.085000 39.615000
O 45.870000 2.085000 37.530000
O 43.785000 4.170000 37.530000
O 41.700000 0.000000 39.615000
O 43.785000 6.255000 2.085000
O 45.870000 6.255000 0.000000
O 43.785000 8.340000 0.000000
O 41.700000 4.170000 2.085000
O 43.785000 6.255000 6.255000
O 45.870000 6.255000 4.170000
O 43.785000 8.340000 4.170000
O 41.700000 4.170000 6.255000
O 43.785000 6.255000 10.425000
O 45.870000 6.255000 8.340000
O 43.785000 8.340000 8.340000
O 41.700000 4.170000 10.425000
O 43.785000 6.255000 14.595000
O 45.870000 6.255000 12.510000
O 43.785000 8.340000 12.510000
O 41.700000 4.170000 14.595000
O 43.785000 6.255000 18.765000
O 45.870000 6.255000 16.680000
O 43.785000 8.340000 16.680000
O 41.700000 4.170000 18.765000
O 43.785000 6.255000 22.935000
O 45.870000 6.255000 20.850000
O 43.785000 8.340000 20.850000
O 41.700000 4.170000 22.935000
O 43.785000 6.255000 27.105000
O 45.870000 6.255000 25.020000
O 43.785000 8.340000 25.020000
O 41.700000 4.170000 27.105000
O 43.785000 6.255000 31.275000
O 45.870000 6.255000 29.190000
O 43.785000 8.340000 29.190000
O 41.700000 4.170000 31.275000
O 43.785000 6.255000 35.445000
O 45.870000 6.255000 33.360000
O 43.785000 8.340000 33.360000
O 41.700000 4.170000 35.445000
O 43.785000 6.255000 39.615000
O 45.870000 6.255000 37.530000
O 43.785000 8.340000 37.530000
O 41.700000 4.170000 39.615000
O 43.785000 10.425000 2.085000
O 45.870000 10.425000 0.000000
O 43.785000 12.510000 0.000000
O 41.700000 8.340000 2.085000
O 43.785000 10.425000 6.255000
O 45.870000 10.425000 4.170000
O 43.785000 12.510000 4.170000
O 41.700000 8.340000 6.255000
O 43.785000 10.425000 10.425000
O 45.870000 10.425000 8.340000
O 43.785000 12.510000 8.340000
O 41.700000 8.340000 10.425000
O 43.785000 10.425000 14.595000
O 45.870000 10.425000 12.510000
O 43.785000 12.510000 12.510000
O 41.700000 8.340000 14.595000
O 43.785000 10.425000 18.765000
O 45.870000 10.425000 16.680000
O 43.785000 12.510000 16.680000
O 41.700000 8.340000 18.765000
O 43.785000 10.425000 22.935000
O 45.870000 10.425000 20.850000
O 43.785000 12.510000 20.850000
O 41.700000 8.340000 22.935000
O 43.785000 10.425000 27.105000
O 45.870000 10.425000 25.020000
O 43.785000 12.510000 25.020000
O 41.700000 8.340000 27.105000
O 43.785000 10.425000 31.275000
O 45.870000 10.425000 29.190000
O 43.785000 12.510000 29.190000
O 41.700000 8.340000 31.275000
O 43.785000 10.425000 35.445000
O 45.870000 10.425000 33.360000
O 43.785000 12.510000 33.360000
O 41.700000 8.340000 35.445000
O 43.785000 14.595000 2.085000
O 45.870000 14.595000 0.000000
O 43.785000 16.680000 0.000000
O 41.700000 12.510000 2.085000
O 43.785000 14.595000 6.255000
O 45.870000 14.595000 4.170000
O 43.785000 16.680000 4.170000
O 41.700000 12.510000 6.255000
O 43.785000 14.595000 10.425000
O 45.870000 14.595000 8.340000
O 43.785000 16.680000 8.340000
O 41.700000 12.510000 10.425000
O 43.785000 14.595000 14.595000
O 45.870000 14.595000 12.510000
O 43.785000 16.680000 12.510000
O 41.700000 12.510000 14.595000
O 43.785000 14.595000 18.765000
O 45.870000 14.595000 16.680000
O 43.785000 16.680000 16.680000
O 41.700000 12.510000 18.765000
O 43.785000 14.595000 22.935000
O 45.870000 14.595000 20.850000
O 43.785000 16.680000 20.850000
O 41.700000 12.510000 22.935000
O 43.785000 14.595000 27.105000
O 45.870000 14.595000 25.020000
O 43.785000 16.680000 25.020000
O 41.700000 12.510000 27.105000
O 43.785000 14.595000 31.275000
O 45.870000 14.595000 29.190000
O 43.785000 16.680000 29.190000
O 41.700000 12.510000 31.275000
O 43.785000 18.765000 2.085000
O 45.870000 18.765000 0.000000
O 43.785000 20.850000 0.000000
O 41.700000 16.680000 2.085000
O 43.785000 18.765000 6.255000
O 45.870000 18.765000 4.170000
O 43.785000 20.850000 4.170000
O 41.700000 16.680000 6.255000
O 43.785000 18.765000 10.425000
O 45.870000 18.765000 8.340000
O 43.785000 20.850000 8.340000
O 41.700000 16.680000 10.425000
O 43.785000 18.765000 14.595000
O 45.870000 18.765000 12.510000
O 43.785000 20.850000 12.510000
O 41.700000 16.680000 14.595000
O 43.785000 18.765000 18.765000
O 45.870000 18.765000 16.680000
O 43.785000 20.850000 16.680000
O 41.700000 16.680000 18.765000
O 43.785000 18.765000 22.935000
O 45.870000 18.765000 20.850000
O 43.785000 20.850000 20.850000
O 41.700000 16.680000 22.935000
O 43.785000 18.765000 27.105000
O 45.870000 18.765000 25.020000
O 43.785000 20.850000 25.020000
O 41.700000 16.680000 27.105000
O 43.785000 22.935000 2.085000
O 45.870000 22.935000 0.000000
O 43.785000 25.020000 0.000000
O 41.700000 20.850000 2.085000
O 43.785000 22.935000 6.255000
O 45.870000 22.935000 4.170000
O 43.785000 25.020000 4.170000
O 41.700000 20.850000 6.255000
O 43.785000 22.935000 10.425000
O 45.870000 22.935000 8.340000
O 43.785000 25.020000 8.340000
O 41.700000 20.850000 10.425000
O 43.785000 22.935000 14.595000
O 45.870000 22.935000 12.510000
O 43.785000 25.020000 12.510000
O 41.700000 20.850000 14.595000
O 43.785000 22.935000 18.765000
O 45.870000 22.935000 16.680000
O 43.785000 25.020000 16.680000
O 41.700000 20.850000 18.765000
O 43.785000 22.935000 22.935000
O 45.870000 22.935000 20.850000
O 43.785000 25.020000 20.850000
O 41.700000 20.850000 22.935000
O 43.785000 22.935000 27.105000
O 45.870000 22.935000 25.020000
O 43.785000 25.020000 25.020000
O 43.785000 25.020000 29.190000
O 43.785000 27.105000 2.085000
O 45.870000 27.105000 0.000000
O 43.785000 29.190000 0.000000
O 41.700000 25.020000 2.085000
O 43.785000 27.105000 6.255000
O 45.870000 27.105000 4.170000
O 43.785000 29.190000 4.170000
O 41.700000 25.020000 6.255000
O 43.785000 27.105000 10.425000
O 45.870000 27.105000 8.340000
O 43.785000 29.190000 8.340000
O 41.700000 25.020000 10.425000
O 43.785000 27.105000 14.595000
O 45.870000 27.105000 12.510000
O 43.785000 29.190000 12.510000
O 41.700000 25.020000 14.595000
O 43.785000 27.105000 18.765000
O 45.870000 27.105000 16.680000
O 43.785000 29.190000 16.680000
O 41.700000 25.020000 18.765000
O 43.785000 27.105000 22.935000
O 45.870000 27.105000 20.850000
O 43.785000 29.190000 20.850000
O 41.700000 25.020000 22.935000
O 43.785000 27.105000 27.105000
O 45.870000 27.105000 25.020000
O 43.785000 29.190000 25.020000
O 41.700000 25.020000 27.105000
O 43.785000 27.105000 31.275000
O 45.870000 27.105000 29.190000
O 43.785000 29.190000 29.190000
O 43.785000 29.190000 33.360000
O 43.785000 31.275000 2.085000
O 45.870000 31.275000 0.000000
O 43.785000 33.360000 0.000000
O 41.700000 29.190000 2.085000
O 43.785000 31.275000 6.255000
O 45.870000 31.275000 4.170000
O 43.785000 33.360000 4.170000
O 41.700000 29.190000 6.255000
O 43.785000 31.275000 10.425000
O 45.870000 31.275000 8.340000
O 43.785000 33.360000 8.340000
O 41.700000 29.190000 10.425000
O 43.785000 31.275000 14.595000
O 45.870000 31.275000 12.510000
O 43.785000 33.360000 12.510000
O 41.700000 29.190000 14.595000
O 43.785000 31.275000 18.765000
O 45.870000 31.275000 16.680000
O 43.785000 33.360000 16.680000
O 41.700000 29.190000 18.765000
O 43.785000 31.275000 22.935000
O 45.870000 31.275000 20.850000
O 43.785000 33.360000 20.850000
O 41.700000 29.190000 22.935000
O 43.785000 31.275000 27.105000
O 45.870000 31.275000 25.020000
O 43.785000 33.360000 25.020000
O 41.700000 29.190000 27.105000
O 43.785000 31.275000 31.275000
O 45.870000 31.275000 29.190000
O 43.785000 33.360000 29.190000
O 41.700000 29.190000 31.275000
O 43.785000 31.275000 35.445000
O 45.870000 31.275000 33.360000
O 43.785000 33.360000 33.360000
O 43.785000 33.360000 37.530000
O 43.785000 35.445000 2.085000
O 45.870000 35.445000 0.000000
O 43.785000 37.530000 0.000000
O 41.700000 33.360000 2.085000
O 43.785000 35.445000 6.255000
O 45.870000 35.445000 4.170000
O 43.785000 37.530000 4.170000
O 41.700000 33.360000 6.255000
O 43.785000 35.445000 10.425000
O 45.870000 35.445000 8.340000
O 43.785000 37.530000 8.340000
O 41.700000 33.360000 10.425000
O 43.785000 35.445000 14.595000
O 45.870000 35.445000 12.510000
O 43.785000 37.530000 12.510000
O 41.700000 33.360000 14.595000
O 43.785000 35.445000 18.765000
O 45.870000 35.445000 16.680000
O 43.785000 37.530000 16.680000
O 41.700000 33.360000 18.765000
O 43.785000 35.445000 22.935000
O 45.870000 35.445000 20.850000
O 43.785000 37.530000 20.850000
O 41.700000 33.360000 22.935000
O 43.785000 35.445000 27.105000
O 45.870000 35.445000 25.020000
O 43.785000 37.530000 25.020000
O 41.700000 33.360000 27.105000
O 43.785000 35.445000 31.275000
O 45.870000 35.445000 29.190000
O 43.785000 37.530000 29.190000
O 41.700000 33.360000 31.275000
O 43.785000 35.445000 35.445000
O 45.870000 35.445000 33.360000
O 43.785000 37.530000 33.360000
O 41.700000 33.360000 35.445000
O 43.785000 35.445000 39.615000
O 45.870000 35.445000 37.530000
O 43.785000 37.530000 37.530000
O 43.785000 39.615000 2.085000
O 45.870000 39.615000 0.000000
O 43.785000 0.000000 0.000000
O 41.700000 37.530000 2.085000
O 43.785000 39.615000 6.255000
O 45.870000 39.615000 4.170000
O 43.785000 0.000000 4.170000
O 41.700000 37.530000 6.255000
O 43.785000 39.615000 10.425000
O 45.870000 39.615000 8.340000
O 43.785000 0.000000 8.340000
O 41.700000 37.530000 10.425000
O 43.785000 39.615000 14.595000
O 45.870000 39.615000 12.510000
O 43.785000 0.000000 12.510000
O 41.700000 37.530000 14.595000
O 43.785000 39.615000 18.765000
O 45.870000 39.615000 16.680000
O 43.785000 0.000000 16.680000
O 41.700000 37.530000 18.765000
O 43.785000 39.615000 22.935000
O 45.870000 39.615000 20.850000
O 43.785000 0.000000 20.850000
O 41.700000 37.530000 22.935000
O 43.785000 39.615000 27.105000
O 45.870000 39.615000 25.020000
O 43.785000 0.000000 25.020000
O 41.700000 37.530000 27.105000
O 43.785000 39.615000 31.275000
O 45.870000 39.615000 29.190000
O 43.785000 0.000000 29.190000
O 41.700000 37.530000 31.275000
O 43.785000 39.615000 35.445000
O 45.870000 39.615000 33.360000
O 43.785000 0.000000 33.360000
O 41.700000 37.530000 35.445000
O 43.785000 39.615000 39.615000
O 45.870000 39.615000 37.530000
O 43.785000 0.000000 37.530000
O 41.700000 37.530000 39.615000
O 47.955000 2.085000 2.085000
O 50.040000 2.085000 0.000000
O 47.955000 4.170000 0.000000
O 45.870000 0.000000 2.085000
O 47.955000 2.085000 6.255000
O 50.040000 2.085000 4.170000
O 47.955000 4.170000 4.170000
O 45.870000 0.000000 6.255000
O 47.955000 2.085000 10.425000
O 50.040000 2.085000 8.340000
O 47.955000 4.170000 8.340000
O 45.870000 0.000000 10.425000
O 47.955000 2.085000 14.595000
O 50.040000 2.085000 12.510000
O 47.955000 4.170000 12.510000
O 45.870000 0.000000 14.595000
O 47.955000 2.085000 18.765000
O 50.040000 2.085000 16.680000
O 47.955000 4.170000 16.680000
O 45.870000 0.000000 18.765000
O 47.955000 2.085000 22.935000
O 50.040000 2.085000 20.850000
O 47.955000 4.170000 20.850000
O 45.870000 0.000000 22.935000
O 47.955000 2.085000 27.105000
O 50.040000 2.085000 25.020000
O 47.955000 4.170000 25.020000
O 45.870000 0.000000 27.105000
O 47.955000 2.085000 31.275000
O 50.040000 2.085000 29.190000
O 47.955000 4.170000 29.190000
O 45.870000 0.000000 31.275000
O 47.955000 2.085000 35.445000
O 50.040000 2.085000 33.360000
O 47.955000 4.170000 33.360000
O 45.870000 0.000000 35.445000
O 47.955000 2.085000 39.615000
O 50.040000 2.085000 37.530000
O 47.955000 4.170000 37.530000
O 45.870000 0.000000 39.615000
O 47.955000 6.255000 2.085000
O 50.040000 6.255000 0.000000
O 47.955000 8.340000 0.000000
O 45.870000 4.170000 2.085000
O 47.955000 6.255000 6.255000
O 50.040000 6.255000 4.170000
O 47.955000 8.340000 4.170000
O 45.870000 4.170000 6.255000
O 47.955000 6.255000 10.425000
O 50.040000 6.255000 8.340000
O 47.955000 8.340000 8.340000
O 45.870000 4.170000 10.425000
O 47.955000 6.255000 14.595000
O 50.040000 6.255000 12.510000
O 47.955000 8.340000 12.510000
O 45.870000 4.170000 14.595000
O 47.955000 6.255000 18.765000
O 50.040000 6.255000 16.680000
O 47.955000 8.340000 16.680000
O 45.870000 4.170000 18.765000
O 47.955000 6.255000 22.935000
O 50.040000 6.255000 20.850000
O 47.955000 8.340000 20.850000
O 45.870000 4.170000 22.935000
O 47.955000 6.255000 27.105000
O 50.040000 6.255000 25.020000
O 47.955000 8.340000 25.020000
O 45.870000 4.170000 27.105000
O 47.955000 6.255000 31.275000
O 50.040000 6.255000 29.190000
O 47.955000 8.340000 29.190000
O 45.870000 4.170000 31.275000
O 47.955000 6.255000 35.445000
O 50.040000 6.255000 33.360000
O 47.955000 8.340000 33.360000
O 45.870000 4.170000 35.445000
O 47.955000 6.255000 39.615000
O 50.040000 6.255000 37.530000
O 47.955000 8.340000 37.530000
O 45.870000 4.170000 39.615000
O 47.955000 10.425000 2.085000
O 50.040000 10.425000 0.000000
O 47.955000 12.510000 0.000000
O 45.870000 8.340000 2.085000
O 47.955000 10.425000 6.255000
O 50.040000 10.425000 4.170000
O 47.955000 12.510000 4.170000
O 45.870000 8.340000 6.255000
O 47.955000 10.425000 10.425000
O 50.040000 10.425000 8.340000
O 47.955000 12.510000 8.340000
O 45.870000 8.340000 10.425000
O 47.955000 10.425000 14.595000
O 50.040000 10.425000 12.510000
O 47.955000 12.510000 12.510000
O 45.870000 8.340000 14.595000
O 47.955000 10.425000 18.765000
O 50.040000 10.425000 16.680000
O 47.955000 12.510000 16.680000
O 45.870000 8.340000 18.765000
O 47.955000 10.425000 22.935000
O 50.040000 10.425000 20.850000
O 47.955000 12.510000 20.850000
O 45.870000 8.340000 22.935000
O 47.955000 10.425000 27.105000
O 50.040000 10.425000 25.020000
O 47.955000 12.510000 25.020000
O 45.870000 8.340000 27.105000
O 47.955000 10.425000 31.275000
O 50.040000 10.425000 29.190000
O 47.955000 12.510000 29.190000
O 45.870000 8.340000 31.275000
O 47.955000 10.425000 35.445000
O 50.040000 10.425000 33.360000
O 47.955000 12.510000 33.360000
O 45.870000 8.340000 35.445000
O 47.955000 14.595000 2.085000
O 50.040000 14.595000 0.000000
O 47.955000 16.680000 0.000000
O 45.870000 12.510000 2.085000
O 47.955000 14.595000 6.255000
O 50.040000 14.595000 4.170000
O 47.955000 16.680000 4.170000
O 45.870000 12.510000 6.255000
O 47.955000 14.595000 10.425000
O 50.040000 14.595000 8.340000
O 47.955000 16.680000 8.340000
O 45.870000 12.510000 10.425000
O 47.955000 14.595000 14.595000
O 50.040000 14.595000 12.510000
O 47.955000 16.680000 12.510000
O 45.870000 12.510000 14.595000
O 47.955000 14.595000 18.765000
O 50.040000 14.595000 16.680000
O 47.955000 16.680000 16.680000
O 45.870000 12.510000 18.765000
O 47.955000 14.595000 22.935000
O 50.040000 14.595000 20.850000
O 47.955000 16.680000 20.850000
O 45.870000 12.510000 22.935000
O 47.955000 14.595000 27.105000
O 50.040000 14.595000 25.020000
O 47.955000 16.680000 25.020000
O 45.870000 12.510000 27.105000
O 47.955000 14.595000 31.275000
O 50.040000 14.595000 29.190000
O 47.955000 16.680000 29.190000
O 45.870000 12.510000 31.275000
O 47.955000 18.765000 2.085000
O 50.040000 18.765000 0.000000
O 47.955000 20.850000 0.000000
O 45.870000 16.680000 2.085000
O 47.955000 18.765000 6.255000
O 50.040000 18.765000 4.170000
O 47.955000 20.850000 4.170000
O 45.870000 16.680000 6.255000
O 47.955000 18.765000 10.425000
O 50.040000 18.765000 8.340000
O 47.955000 20.850000 8.340000
O 45.870000 16.680000 10.425000
O 47.955000 18.765000 14.595000
O 50.040000 18.765000 12.510000
O 47.955000 20.850000 12.510000
O 45.870000 16.680000 14.595000
O 47.955000 18.765000 18.765000
O 50.040000 18.765000 16.680000
O 47.955000 20.850000 16.680000
O 45.870000 16.680000 18.765000
O 47.955000 18.765000 22.935000
O 50.040000 18.765000 20.850000
O 47.955000 20.850000 20.850000
O 45.870000 16.680000 22.935000
O 47.955000 18.765000 27.105000
O 50.040000 18.765000 25.020000
O 47.955000 20.850000 25.020000
O 45.870000 16.680000 27.105000
O 47.955000 22.935000 2.085000
O 50.040000 22.935000 0.000000
O 47.955000 25.020000 0.000000
O 45.870000 20.850000 2.085000
O 47.955000 22.935000 6.255000
O 50.040000 22.935000 4.170000
O 47.955000 25.020000 4.170000
O 45.870000 20.850000 6.255000
O 47.955000 22.935000 10.425000
O 50.040000 22.935000 8.340000
O 47.955000 25.020000 8.340000
O 45.870000 20.850000 10.425000
O 47.955000 22.935000 14.595000
O 50.040000 22.935000 12.510000
O 47.955000 25.020000 12.510000
O 45.870000 20.850000 14.595000
O 47.955000 22.935000 18.765000
O 50.040000 22.935000 16.680000
O 47.955000 25.020000 16.680000
O 45.870000 20.850000 18.765000
O 47.955000 22.935000 22.935000
O 50.040000 22.935000 20.850000
O 47.955000 25.020000 20.850000
O 45.870000 20.850000 22.935000
O 47.955000 22.935000 27.105000
O 50.040000 22.935000 25.020000
O 47.955000 25.020000 25.020000
O 47.955000 25.020000 29.190000
O 47.955000 27.105000 2.085000
O 50.040000 27.105000 0.000000
O 47.955000 29.190000 0.000000
O 45.870000 25.020000 2.085000
O 47.955000 27.105000 6.255000
O 50.040000 27.105000 4.170000
O 47.955000 29.190000 4.170000
O 45.870000 25.020000 6.255000
O 47.955000 27.105000 10.425000
O 50.040000 27.105000 8.340000
O 47.955000 29.190000 8.340000
O 45.870000 25.020000 10.425000
O 47.955000 27.105000 14.595000
O 50.040000 27.105000 12.510000
O 47.955000 29.190000 12.510000
O 45.870000 25.020000 14.595000
O 47.955000 27.105000 18.765000
O 50.040000 27.105000 16.680000
O 47.955000 29.190000 16.680000
O 45.870000 25.020000 18.765000
O 47.955000 27.105000 22.935000
O 50.040000 27.105000 20.850000
O 47.955000 29.190000 20.850000
O 45.870000 25.020000 22.935000
O 47.955000 27.105000 27.105000
O 50.040000 27.105000 25.020000
O 47.955000 29.190000 25.020000
O 45.870000 25.020000 27.105000
O 47.955000 27.105000 31.275000
O 50.040000 27.105000 29.190000
O 47.955000 29.190000 29.190000
O 47.955000 29.190000 33.360000
O 47.955000 31.275000 2.085000
O 50.040000 31.275000 0.000000
O 47.955000 33.360000 0.000000
O 45.870000 29.190000 2.085000
O 47.955000 31.275000 6.255000
O 50.040000 31.275000 4.170000
O 47.955000 33.360000 4.170000
O 45.870000 29.190000 6.255000
O 47.955000 31.275000 10.425000
O 50.040000 31.275000 8.340000
O 47.955000 33.360000 8.340000
O 45.870000 29.190000 10.425000
O 47.955000 31.275000 14.595000
O 50.040000 31.275000 12.510000
O 47.955000 33.360000 12.510000
O 45.870000 29.190000 14.595000
O 47.955000 31.275000 18.765000
O 50.040000 31.275000 16.680000
O 47.955000 33.360000 16.680000
O 45.870000 29.190000 18.765000
O 47.955000 31.275000 22.935000
O 50.040000 31.275000 20.850000
O 47.955000 33.360000 20.850000
O 45.870000 29.190000 22.935000
O 47.955000 31.275000 27.105000
O 50.040000 31.275000 25.020000
O 47.955000 33.360000 25.020000
O 45.870000 29.190000 27.105000
O 47.955000 31.275000 31.275000
O 50.040000 31.275000 29.190000
O 47.955000 33.360000 29.190000
O 45.870000 29.190000 31.275000
O 47.955000 31.275000 35.445000
O 50.040000 31.275000 33.360000
O 47.955000 33.360000 33.360000
O 47.955000 33.360000 37.530000
O 47.955000 35.445000 2.085000
O 50.040000 35.445000 0.000000
O 47.955000 37.530000 0.000000
O 45.870000 33.360000 2.085000
O 47.955000 35.445000 6.255000
O 50.040000 35.445000 4.170000
O 47.955000 37.530000 4.170000
O 45.870000 33.360000 6.255000
O 47.955000 35.445000 10.425000
O 50.040000 35.445000 8.340000
O 47.955000 37.530000 8.340000
O 45.870000 33.360000 10.425000
O 47.955000 35.445000 14.595000
O 50.040000 35.445000 12.510000
O 47.955000 37.530000 12.510000
O 45.870000 33.360000 14.595000
O 47.955000 35.445000 18.765000
O 50.040000 35.445000 16.680000
O 47.955000 37.530000 16.680000
O 45.870000 33.360000 18.765000
O 47.955000 35.445000 22.935000
O 50.040000 35.445000 20.850000
O 47.955000 37.530000 20.850000
O 45.870000 33.360000 22.935000
O 47.955000 35.445000 27.105000
O 50.040000 35.445000 25.020000
O 47.955000 37.530000 25.020000
O 45.870000 33.360000 27.105000
O 47.955000 35.445000 31.275000
O 50.040000 35.445000 29.190000
O 47.955000 37.530000 29.190000
O 45.870000 33.360000 31.275000
O 47.955000 35.445000 35.445000
O 50.040000 35.445000 33.360000
O 47.955000 37.530000 33.360000
O 45.870000 33.360000 35.445000
O 47.955000 35.445000 39.615000
O 50.040000 35.445000 37.530000
O 47.955000 37.530000 37.530000
O 47.955000 39.615000 2.085000
O 50.040000 39.615000 0.000000
O 47.955000 0.000000 0.000000
O 45.870000 37.530000 2.085000
O 47.955000 39.615000 6.255000
O 50.040000 39.615000 4.170000
O 47.955000 0.000000 4.170000
O 45.870000 37.530000 6.255000
O 47.955000 39.615000 10.425000
O 50.040000 39.615000 8.340000
O 47.955000 0.000000 8.340000
O 45.870000 37.530000 10.425000
O 47.955000 39.615000 14.595000
O 50.040000 39.615000 12.510000
O 47.955000 0.000000 12.510000
O 45.870000 37.530000 14.595000
O 47.955000 39.615000 18.765000
O 50.040000 39.615000 16.680000
O 47.955000 0.000000 16.680000
O 45.870000 37.530000 18.765000
O 47.955000 39.615000 22.935000
O 50.040000 39.615000 20.850000
O 47.955000 0.000000 20.850000
O 45.870000 37.530000 22.935000
O 47.955000 39.615000 27.105000
O 50.040000 39.615000 25.020000
O 47.955000 0.000000 25.020000
O 45.870000 37.530000 27.105000
O 47.955000 39.615000 31.275000
O 50.040000 39.615000 29.190000
O 47.955000 0.000000 29.190000
O 45.870000 37.530000 31.275000
O 47.955000 39.615000 35.445000
O 50.040000 39.615000 33.360000
O 47.955000 0.000000 33.360000
O 45.870000 37.530000 35.445000
O 47.955000 39.615000 39.615000
O 50.040000 39.615000 37.530000
O 47.955000 0.000000 37.530000
O 45.870000 37.530000 39.615000
O 52.125000 2.085000 2.085000
O 54.210000 2.085000 0.000000
O 52.125000 4.170000 0.000000
O 50.040000 0.000000 2.085000
O 52.125000 2.085000 6.255000
O 54.210000 2.085000 4.170000
O 52.125000 4.170000 4.170000
O 50.040000 0.000000 6.255000
O 52.125000 2.085000 10.425000
O 54.210000 2.085000 8.340000
O 52.125000 4.170000 8.340000
O 50.040000 0.000000 10.425000
O 52.125000 2.085000 14.595000
O 54.210000 2.085000 12.510000
O 52.125000 4.170000 12.510000
O 50.040000 0.000000 14.595000
O 52.125000 2.085000 18.765000
O 54.210000 2.085000 16.680000
O 52.125000 4.170000 16.680000
O 50.040000 0.000000 18.765000
O 52.125000 2.085000 22.935000
O 54.210000 2.085000 20.850000
O 52.125000 4.170000 20.850000
O 50.040000 0.000000 22.935000
O 52.125000 2.085000 27.105000
O 54.210000 2.085000 25.020000
O 52.125000 4.170000 25.020000
O 50.040000 0.000000 27.105000
O 52.125000 2.085000 31.275000
O 54.210000 2.085000 29.190000
O 52.125000 4.170000 29.190000
O 50.040000 0.000000 31.275000
O 52.125000 2.085000 35.445000
O 54.210000 2.085000 33.360000
O 52.125000 4.170000 33.360000
O 50.040000 0.000000 35.445000
O 52.125000 2.085000 39.615000
O 54.210000 2.085000 37.530000
O 52.125000 4.170000 37.530000
O 50.040000 0.000000 39.615000
O 52.125000 6.255000 2.085000
O 54.210000 6.255000 0.000000
O 52.125000 8.340000 0.000000
O 50.040000 4.170000 2.085000
O 52.125000 6.255000 6.255000
O 54.210000 6.255000 4.170000
O 52.125000 8.340000 4.170000
O 50.040000 4.170000 6.255000
O 52.125000 6.255000 10.425000
O 54.210000 6.255000 8.340000
O 52.125000 8.340000 8.340000
O 50.040000 4.170000 10.425000
O 52.125000 6.255000 14.595000
O 54.210000 6.255000 12.510000
O 52.125000 8.340000 12.510000
O 50.040000 4.170000 14.595000
O 52.125000 6.255000 18.765000
O 54.210000 6.255000 16.680000
O 52.125000 8.340000 16.680000
O 50.040000 4.170000 18.765000
O 52.125000 6.255000 22.935000
O 54.210000 6.255000 20.850000
O 52.125000 8.340000 20.850000
O 50.040000 4.170000 22.935000
O 52.125000 6.255000 27.105000
O 54.210000 6.255000 25.020000
O 52.125000 8.340000 25.020000
O 50.040000 4.170000 27.105000
O 52.125000 6.255000 31.275000
O 54.210000 6.255000 29.190000
O 52.125000 8.340000 29.190000
O 50.040000 4.170000 31.275000
O 52.125000 6.255000 35.445000
O 54.210000 6.255000 33.360000
O 52.125000 8.340000 33.360000
O 50.040000 4.170000 35.445000
O 52.125000 6.255000 39.615000
O 54.210000 6.255000 37.530000
O 52.125000 8.340000 37.530000
O 50.040000 4.170000 39.615000
O 52.125000 10.425000 2.085000
O 54.210000 10.425000 0.000000
O 52.125000 12.510000 0.000000
O 50.040000 8.340000 2.085000
O 52.125000 10.425000 6.255000
O 54.210000 10.425000 4.170000
O 52.125000 12.510000 4.170000
O 50.040000 8.340000 6.255000
O 52.125000 10.425000 10.425000
O 54.210000 10.425000 8.340000
O 52.125000 12.510000 8.340000
O 50.040000 8.340000 10.425000
O 52.125000 10.425000 14.595000
O 54.210000 10.425000 12.510000
O 52.125000 12.510000 12.510000
O 50.040000 8.340000 14.595000
O 52.125000 10.425000 18.765000
O 54.210000 10.425000 16.680000
O 52.125000 12.510000 16.680000
O 50.040000 8.340000 18.765000
O 52.125000 10.425000 22.935000
O 54.210000 10.425000 20.850000
O 52.125000 12.510000 20.850000
O 50.040000 8.340000 22.935000
O 52.125000 10.425000 27.105000
O 54.210000 10.425000 25.020000
O 52.125000 12.510000 25.020000
O 50.040000 8.340000 27.105000
O 52.125000 10.425000 31.275000
O 54.210000 10.425000 29.190000
O 52.125000 12.510000 29.190000
O 50.040000 8.340000 31.275000
O 52.125000 10.425000 35.445000
O 54.210000 10.425000 33.360000
O 52.125000 12.510000 33.360000
O 50.040000 8.340000 35.445000
O 52.125000 14.595000 2.085000
O 54.210000 14.595000 0.000000
O 52.125000 16.680000 0.000000
O 50.040000 12.510000 2.085000
O 52.125000 14.595000 6.255000
O 54.210000 14.595000 4.170000
O 52.125000 16.680000 4.170000
O 50.040000 12.510000 6.255000
O 52.125000 14.595000 10.425000
O 54.210000 14.595000 8.340000
O 52.125000 16.680000 8.340000
O 50.040000 12.510000 10.425000
O 52.125000 14.595000 14.595000
O 54.210000 14.595000 12.510000
O 52.125000 16.680000 12.510000
O 50.040000 12.510000 14.595000
O 52.125000 14.595000 18.765000
O 54.210000 14.595000 16.680000
O 52.125000 16.680000 16.680000
O 50.040000 12.510000 18.765000
O 52.125000 14.595000 22.935000
O 54.210000 14.595000 20.850000
O 52.125000 16.680000 20.850000
O 50.040000 12.510000 22.935000
O 52.125000 14.595000 27.105000
O 54.210000 14.595000 25.020000
O 52.125000 16.680000 25.020000
O 50.040000 12.510000 27.105000
O 52.125000 14.595000 31.275000
O 54.210000 14.595000 29.190000
O 52.125000 16.680000 29.190000
O 50.040000 12.510000 31.275000
O 52.125000 18.765000 2.085000
O 54.210000 18.765000 0.000000
O 52.125000 20.850000 0.000000
O 50.040000 16.680000 2.085000
O 52.125000 18.765000 6.255000
O 54.210000 18.765000 4.170000
O 52.125000 20.850000 4.170000
O 50.040000 16.680000 6.255000
O 52.125000 18.765000 10.425000
O 54.210000 18.765000 8.340000
O 52.125000 20.850000 8.340000
O 50.040000 16.680000 10.425000
O 52.125000 18.765000 14.595000
O 54.210000 18.765000 12.510000
O 52.125000 20.850000 12.510000
O 50.040000 16.680000 14.595000
O 52.125000 18.765000 18.765000
O 54.210000 18.765000 16.680000
O 52.125000 20.850000 16.680000
O 50.040000 16.680000 18.765000
O 52.125000 18.765000 22.935000
O 54.210000 18.765000 20.850000
O 52.125000 20.850000 20.850000
O 50.040000 16.680000 22.935000
O 52.125000 18.765000 27.105000
O 54.210000 18.765000 25.020000
O 52.125000 20.850000 25.020000
O 50.040000 16.680000 27.105000
O 52.125000 22.935000 2.085000
O 54.210000 22.935000 0.000000
O 52.125000 25.020000 0.000000
O 50.040000 20.850000 2.085000
O 52.125000 22.935000 6.255000
O 54.210000 22.935000 4.170000
O 52.125000 25.020000 4.170000
O 50.040000 20.850000 6.255000
O 52.125000 22.935000 10.425000
O 54.210000 22.935000 8.340000
O 52.125000 25.020000 8.340000
O 50.040000 20.850000 10.425000
O 52.125000 22.935000 14.595000
O 54.210000 22.935000 12.510000
O 52.125000 25.020000 12.510000
O 50.040000 20.850000 14.595000
O 52.125000 22.935000 18.765000
O 54.210000 22.935000 16.680000
O 52.125000 25.020000 16.680000
O 50.040000 20.850000 18.765000
O 52.125000 22.935000 22.935000
O 54.210000 22.935000 20.850000
O 52.125000 25.020000 20.850000
O 50.040000 20.850000 22.935000
O 52.125000 22.935000 27.105000
O 54.210000 22.935000 25.020000
O 52.125000 25.020000 25.020000
O 52.125000 25.020000 29.190000
O 52.125000 27.105000 2.085000
O 54.210000 27.105000 0.000000
O 52.125000 29.190000 0.000000
O 50.040000 25.020000 2.085000
O 52.125000 27.105000 6.255000
O 54.210000 27.105000 4.170000
O 52.125000 29.190000 4.170000
O 50.040000 25.020000 6.255000
O 52.125000 27.105000 10.425000
O 54.210000 27.105000 8.340000
O 52.125000 29.190000 8.340000
O 50.040000 25.020000 10.425000
O 52.125000 27.105000 14.595000
O 54.210000 27.105000 12.510000
O 52.125000 29.190000 12.510000
O 50.040000 25.020000 14.595000
O 52.125000 27.105000 18.765000
O 54.210000 27.105000 16.680000
O 52.125000 29.190000 16.680000
O 50.040000 25.020000 18.765000
O 52.125000 27.105000 22.935000
O 54.210000 27.105000 20.850000
O 52.125000 29.190000 20.850000
O 50.040000 25.020000 22.935000
O 52.125000 27.105000 27.105000
O 54.210000 27.105000 25.020000
O 52.125000 29.190000 25.020000
O 50.040000 25.020000 27.105000
O 52.125000 27.105000 31.275000
O 54.210000 27.105000 29.190000
O 52.125000 29.190000 29.190000
O 52.125000 29.190000 33.360000
O 52.125000 31.275000 2.085000
O 54.210000 31.275000 0.000000
O 52.125000 33.360000 0.000000
O 50.040000 29.190000 2.085000
O 52.125000 31.275000 6.255000
O 54.210000 31.275000 4.170000
O 52.125000 33.360000 4.170000
O 50.040000 29.190000 6.255000
O 52.125000 31.275000 10.425000
O 54.210000 31.275000 8.340000
O 52.125000 33.360000 8.340000
O 50.040000 29.190000 10.425000
O 52.125000 31.275000 14.595000
O 54.210000 31.275000 12.510000
O 52.125000 33.360000 12.510000
O 50.040000 29.190000 14.595000
O 52.125000 31.275000 18.765000
O 54.210000 31.275000 16.680000
O 52.125000 33.360000 16.680000
O 50.040000 29.190000 18.765000
O 52.125000 31.275000 22.935000
O 54.210000 31.275000 20.850000
O 52.125000 33.360000 20.850000
O 50.040000 29.190000 22.935000
O 52.125000 31.275000 27.105000
O 54.210000 31.275000 25.020000
O 52.125000 33.360000 25.020000
O 50.040000 29.190000 27.105000
O 52.125000 31.275000 31.275000
O 54.210000 31.275000 29.190000
O 52.125000 33.360000 29.190000
O 50.040000 29.190000 31.275000
O 52.125000 31.275000 35.445000
O 54.210000 31.275000 33.360000
O 52.125000 33.360000 33.360000
O 52.125000 33.360000 37.530000
O 52.125000 35.445000 2.085000
O 54.210000 35.445000 0.000000
O 52.125000 37.530000 0.000000
O 50.040000 33.360000 2.085000
O 52.125000 35.445000 6.255000
O 54.210000 35.445000 4.170000
O 52.125000 37.530000 4.170000
O 50.040000 33.360000 6.255000
O 52.125000 35.445000 10.425000
O 54.210000 35.445000 8.340000
O 52.125000 37.530000 8.340000
O 50.040000 33.360000 10.425000
O 52.125000 35.445000 14.595000
O 54.210000 35.445000 12.510000
O 52.125000 37.530000 12.510000
O 50.040000 33.360000 14.595000
O 52.125000 35.445000 18.765000
O 54.210000 35.445000 16.680000
O 52.125000 37.530000 16.680000
O 50.040000 33.360000 18.765000
O 52.125000 35.445000 22.935000
O 54.210000 35.445000 20.850000
O 52.125000 37.530000 20.850000
O 50.040000 33.360000 22.935000
O 52.125000 35.445000 27.105000
O 54.210000 35.445000 25.020000
O 52.125000 37.530000 25.020000
O 50.040000 33.360000 27.105000
O 52.125000 35.445000 31.275000
O 54.210000 35.445000 29.190000
O 52.125000 37.530000 29.190000
O 50.040000 33.360000 31.275000
O 52.125000 35.445000 35.445000
O 54.210000 35.445000 33.360000
O 52.125000 37.530000 33.360000
O 50.040000 33.360000 35.445000
O 52.125000 35.445000 39.615000
O 54.210000 35.445000 37.530000
O 52.125000 37.530000 37.530000
O 52.125000 39.615000 2.085000
O 54.210000 39.615000 0.000000
O 52.125000 0.000000 0.000000
O 50.040000 37.530000 2.085000
O 52.125000 39.615000 6.255000
O 54.210000 39.615000 4.170000
O 52.125000 0.000000 4.170000
O 50.040000 37.530000 6.255000
O 52.125000 39.615000 10.425000
O 54.210000 39.615000 8.340000
O 52.125000 0.000000 8.340000
O 50.040000 37.530000 10.425000
O 52.125000 39.615000 14.595000
O 54.210000 39.615000 12.510000
O 52.125000 0.000000 12.510000
O 50.040000 37.530000 14.595000
O 52.125000 39.615000 18.765000
O 54.210000 39.615000 16.680000
O 52.125000 0.000000 16.680000
O 50.040000 37.530000 18.765000
O 52.125000 39.615000 22.935000
O 54.210000 39.615000 20.850000
O 52.125000 0.000000 20.850000
O 50.040000 37.530000 22.935000
O 52.125000 39.615000 27.105000
O 54.210000 39.615000 25.020000
O 52.125000 0.000000 25.020000
O 50.040000 37.530000 27.105000
O 52.125000 39.615000 31.275000
O 54.210000 39.615000 29.190000
O 52.125000 0.000000 29.190000
O 50.040000 37.530000 31.275000
O 52.125000 39.615000 35.445000
O 54.210000 39.615000 33.360000
O 52.125000 0.000000 33.360000
O 50.040000 37.530000 35.445000
O 52.125000 39.615000 39.615000
O 54.210000 39.615000 37.530000
O 52.125000 0.000000 37.530000
O 50.040000 37.530000 39.615000
O 56.295000 2.085000 2.085000
O 58.380000 2.085000 0.000000
O 56.295000 4.170000 0.000000
O 54.210000 0.000000 2.085000
O 56.295000 2.085000 6.255000
O 58.380000 2.085000 4.170000
O 56.295000 4.170000 4.170000
O 54.210000 0.000000 6.255000
O 56.295000 2.085000 10.425000
O 58.380000 2.085000 8.340000
O 56.295000 4.170000 8.340000
O 54.210000 0.000000 10.425000
O 56.295000 2.085000 14.595000
O 58.380000 2.085000 12.510000
O 56.295000 4.170000 12.510000
O 54.210000 0.000000 14.595000
O 56.295000 2.085000 18.765000
O 58.380000 2.085000 16.680000
O 56.295000 4.170000 16.680000
O 54.210000 0.000000 18.765000
O 56.295000 2.085000 22.935000
O 58.380000 2.085000 20.850000
O 56.295000 4.170000 20.850000
O 54.210000 0.000000 22.935000
O 56.295000 2.085000 27.105000
O 58.380000 2.085000 25.020000
O 56.295000 4.170000 25.020000
O 54.210000 0.000000 27.105000
O 56.295000 2.085000 31.275000
O 58.380000 2.085000 29.190000
O 56.295000 4.170000 29.190000
O 54.210000 0.000000 31.275000
O 56.295000 2.085000 35.445000
O 58.380000 2.085000 33.360000
O 56.295000 4.170000 33.360000
O 54.210000 0.000000 35.445000
O 56.295000 2.085000 39.615000
O 58.380000 2.085000 37.530000
O 56.295000 4.170000 37.530000
O 54.210000 0.000000 39.615000
O 56.295000 6.255000 2.085000
O 58.380000 6.255000 0.000000
O 56.295000 8.340000 0.000000
O 54.210000 4.170000 2.085000
O 56.295000 6.255000 6.255000
O 58.380000 6.255000 4.170000
O 56.295000 8.340000 4.170000
O 54.210000 4.170000 6.255000
O 56.295000 6.255000 10.425000
O 58.380000 6.255000 8.340000
O 56.295000 8.340000 8.340000
O 54.210000 4.170000 10.425000
O 56.295000 6.255000 14.595000
O 58.380000 6.255000 12.510000
O 56.295000 8.340000 12.510000
O 54.210000 4.170000 14.595000
O 56.295000 6.255000 18.765000
O 58.380000 6.255000 16.680000
O 56.295000 8.340000 16.680000
O 54.210000 4.170000 18.765000
O 56.295000 6.255000 22.935000
O 58.380000 6.255000 20.850000
O 56.295000 8.340000 20.850000
O 54.210000 4.170000 22.935000
O 56.295000 6.255000 27.105000
O 58.380000 6.255000 25.020000
O 56.295000 8.340000 25.020000
O 54.210000 4.170000 27.105000
O 56.295000 6.255000 31.275000
O 58.380000 6.255000 29.190000
O 56.295000 8.340000 29.190000
O 54.210000 4.170000 31.275000
O 56.295000 6.255000 35.445000
O 58.380000 6.255000 33.360000
O 56.295000 8.340000 33.360000
O 54.210000 4.170000 35.445000
O 56.295000 6.255000 39.615000
O 58.380000 6.255000 37.530000
O 56.295000 8.340000 37.530000
O 54.210000 4.170000 39.615000
O 56.295000 10.425000 2.085000
O 58.380000 10.425000 0.000000
O 56.295000 12.510000 0.000000
O 54.210000 8.340000 2.085000
O 56.295000 10.425000 6.255000
O 58.380000 10.425000 4.170000
O 56.295000 12.510000 4.170000
O 54.210000 8.340000 6.255000
O 56.295000 10.425000 10.425000
O 58.380000 10.425000 8.340000
O 56.295000 12.510000 8.340000
O 54.210000 8.340000 10.425000
O 56.295000 10.425000 14.595000
O 58.380000 10.425000 12.510000
O 56.295000 12.510000 12.510000
O 54.210000 8.340000 14.595000
O 56.295000 10.425000 18.765000
O 58.380000 10.425000 16.680000
O 56.295000 12.510000 16.680000
O 54.210000 8.340000 18.765000
O 56.295000 10.425000 22.935000
O 58.380000 10.425000 20.850000
O 56.295000 12.510000 20.850000
O 54.210000 8.340000 22.935000
O 56.295000 10.425000 27.105000
O 58.380000 10.425000 25.020000
O 56.295000 12.510000 25.020000
O 54.210000 8.340000 27.105000
O 56.295000 10.425000 31.275000
O 58.380000 10.425000 29.190000
O 56.295000 12.510000 29.190000
O 54.210000 8.340000 31.275000
O 56.295000 10.425000 35.445000
O 58.380000 10.425000 33.360000
O 56.295000 12.510000 33.360000
O 54.210000 8.340000 35.445000
O 56.295000 14.595000 2.085000
O 58.380000 14.595000 0.000000
O 56.295000 16.680000 0.000000
O 54.210000 12.510000 2.085000
O 56.295000 14.595000 6.255000
O 58.380000 14.595000 4.170000
O 56.295000 16.680000 4.170000
O 54.210000 12.510000 6.255000
O 56.295000 14.595000 10.425000
O 58.380000 14.595000 8.340000
O 56.295000 16.680000 8.340000
O 54.210000 12.510000 10.425000
O 56.295000 14.595000 14.595000
O 58.380000 14.595000 12.510000
O 56.295000 16.680000 12.510000
O 54.210000 12.510000 14.595000
O 56.295000 14.595000 18.765000
O 58.380000 14.595000 16.680000
O 56.295000 16.680000 16.680000
O 54.210000 12.510000 18.765000
O 56.295000 14.595000 22.935000
O 58.380000 14.595000 20.850000
O 56.295000 16.680000 20.850000
O 54.210000 12.510000 22.935000
O 56.295000 14.595000 27.105000
O 58.380000 14.595000 25.020000
O 56.295000 16.680000 25.020000
O 54.210000 12.510000 27.105000
O 56.295000 14.595000 31.275000
O 58.380000 14.595000 29.190000
O 56.295000 16.680000 29.190000
O 54.210000 12.510000 31.275000
O 56.295000 18.765000 2.085000
O 58.380000 18.765000 0.000000
O 56.295000 20.850000 0.000000
O 54.210000 16.680000 2.085000
O 56.295000 18.765000 6.255000
O 58.380000 18.765000 4.170000
O 56.295000 20.850000 4.170000
O 54.210000 16.680000 6.255000
O 56.295000 18.765000 10.425000
O 58.380000 18.765000 8.340000
O 56.295000 20.850000 8.340000
O 54.210000 16.680000 10.425000
O 56.295000 18.765000 14.595000
O 58.380000 18.765000 12.510000
O 56.295000 20.850000 12.510000
O 54.210000 16.680000 14.595000
O 56.295000 18.765000 18.765000
O 58.380000 18.765000 16.680000
O 56.295000 20.850000 16.680000
O 54.210000 16.680000 18.765000
O 56.295000 18.765000 22.935000
O 58.380000 18.765000 20.850000
O 56.295000 20.850000 20.850000
O 54.210000 16.680000 22.935000
O 56.295000 18.765000 27.105000
O 58.380000 18.765000 25.020000
O 56.295000 20.850000 25.020000
O 54.210000 16.680000 27.105000
O 56.295000 22.935000 2.085000
O 58.380000 22.935000 0.000000
O 56.295000 25.020000 0.000000
O 54.210000 20.850000 2.085000
O 56.295000 22.935000 6.255000
O 58.380000 22.935000 4.170000
O 56.295000 25.020000 4.170000
O 54.210000 20.850000 6.255000
O 56.295000 22.935000 10.425000
O 58.380000 22.935000 8.340000
O 56.295000 25.020000 8.340000
O 54.210000 20.850000 10.425000
O 56.295000 22.935000 14.595000
O 58.380000 22.935000 12.510000
O 56.295000 25.020000 12.510000
O 54.210000 20.850000 14.595000
O 56.295000 22.935000 18.765000
O 58.380000 22.935000 16.680000
O 56.295000 25.020000 16.680000
O 54.210000 20.850000 18.765000
O 56.295000 22.935000 22.935000
O 58.380000 22.935000 20.850000
O 56.295000 25.020000 20.850000
O 54.210000 20.850000 22.935000
O 56.295000 22.935000 27.105000
O 58.380000 22.935000 25.020000
O 56.295000 25.020000 25.020000
O 56.295000 25.020000 29.190000
O 56.295000 27.105000 2.085000
O 58.380000 27.105000 0.000000
O 56.295000 29.190000 0.000000
O 54.210000 25.020000 2.085000
O 56.295000 27.105000 6.255000
O 58.380000 27.105000 4.170000
O 56.295000 29.190000 4.170000
O 54.210000 25.020000 6.255000
O 56.295000 27.105000 10.425000
O 58.380000 27.105000 8.340000
O 56.295000 29.190000 8.340000
O 54.210000 25.020000 10.425000
O 56.295000 27.105000 14.595000
O 58.380000 27.105000 12.510000
O 56.295000 29.190000 12.510000
O 54.210000 25.020000 14.595000
O 56.295000 27.105000 18.765000
O 58.380000 27.105000 16.680000
O 56.295000 29.190000 16.680000
O 54.210000 25.020000 18.765000
O 56.295000 27.105000 22.935000
O 58.380000 27.105000 20.850000
O 56.295000 29.190000 20.850000
O 54.210000 25.020000 22.935000
O 56.295000 27.105000 27.105000
O 58.380000 27.105000 25.020000
O 56.295000 29.190000 25.020000
O 54.210000 25.020000 27.105000
O 56.295000 27.105000 31.275000
O 58.380000 27.105000 29.190000
O 56.295000 29.190000 29.190000
O 56.295000 29.190000 33.360000
O 56.295000 31.275000 2.085000
O 58.380000 31.275000 0.000000
O 56.295000 33.360000 0.000000
O 54.210000 29.190000 2.085000
O 56.295000 31.275000 6.255000
O 58.380000 31.275000 4.170000
O 56.295000 33.360000 4.170000
O 54.210000 29.190000 6.255000
O 56.295000 31.275000 10.425000
O 58.380000 31.275000 8.340000
O 56.295000 33.360000 8.340000
O 54.210000 29.190000 10.425000
O 56.295000 31.275000 14.595000
O 58.380000 31.275000 12.510000
O 56.295000 33.360000 12.510000
O 54.210000 29.190000 14.595000
O 56.295000 31.275000 18.765000
O 58.380000 31.275000 16.680000
O 56.295000 33.360000 16.680000
O 54.210000 29.190000 18.765000
O 56.295000 31.275000 22.935000
O 58.380000 31.275000 20.850000
O 56.295000 33.360000 20.850000
O 54.210000 29.190000 22.935000
O 56.295000 31.275000 27.105000
O 58.380000 31.275000 25.020000
O 56.295000 33.360000 25.020000
O 54.210000 29.190000 27.105000
O 56.295000 31.275000 31.275000
O 58.380000 31.275000 29.190000
O 56.295000 33.360000 29.190000
O 54.210000 29.190000 31.275000
O 56.295000 31.275000 35.445000
O 58.380000 31.275000 33.360000
O 56.295000 33.360000 33.360000
O 56.295000 33.360000 37.530000
O 56.295000 35.445000 2.085000
O 58.380000 35.445000 0.000000
O 56.295000 37.530000 0.000000
O 54.210000 33.360000 2.085000
O 56.295000 35.445000 6.255000
O 58.380000 35.445000 4.170000
O 56.295000 37.530000 4.170000
O 54.210000 33.360000 6.255000
O 56.295000 35.445000 10.425000
O 58.380000 35.445000 8.340000
O 56.295000 37.530000 8.340000
O 54.210000 33.360000 10.425000
O 56.295000 35.445000 14.595000
O 58.380000 35.445000 12.510000
O 56.295000 37.530000 12.510000
O 54.210000 33.360000 14.595000
O 56.295000 35.445000 18.765000
O 58.380000 35.445000 16.680000
O 56.295000 37.530000 16.680000
O 54.210000 33.360000 18.765000
O 56.295000 35.445000 22.935000
O 58.380000 35.445000 20.850000
O 56.295000 37.530000 20.850000
O 54.210000 33.360000 22.935000
O 56.295000 35.445000 27.105000
O 58.380000 35.445000 25.020000
O 56.295000 37.530000 25.020000
O 54.210000 33.360000 27.105000
O 56.295000 35.445000 31.275000
O 58.380000 35.445000 29.190000
O 56.295000 37.530000 29.190000
O 54.210000 33.360000 31.275000
O 56.295000 35.445000 35.445000
O 58.380000 35.445000 33.360000
O 56.295000 37.530000 33.360000
O 54.210000 33.360000 35.445000
O 56.295000 35.445000 39.615000
O 58.380000 35.445000 37.530000
O 56.295000 37.530000 37.530000
O 56.295000 39.615000 2.085000
O 58.380000 39.615000 0.000000
O 56.295000 0.000000 0.000000
O 54.210000 37.530000 2.085000
O 56.295000 39.615000 6.255000
O 58.380000 39.615000 4.170000
O 56.295000 0.000000 4.170000
O 54.210000 37.530000 6.255000
O 56.295000 39.615000 10.425000
O 58.380000 39.615000 8.340000
O 56.295000 0.000000 8.340000
O 54.210000 37.530000 10.425000
O 56.295000 39.615000 14.595000
O 58.380000 39.615000 12.510000
O 56.295000 0.000000 12.510000
O 54.210000 37.530000 14.595000
O 56.295000 39.615000 18.765000
O 58.380000 39.615000 16.680000
O 56.295000 0.000000 16.680000
O 54.210000 37.530000 18.765000
O 56.295000 39.615000 22.935000
O 58.380000 39.615000 20.850000
O 56.295000 0.000000 20.850000
O 54.210000 37.530000 22.935000
O 56.295000 39.615000 27.105000
O 58.380000 39.615000 25.020000
O 56.295000 0.000000 25.020000
O 54.210000 37.530000 27.105000
O 56.295000 39.615000 31.275000
O 58.380000 39.615000 29.190000
O 56.295000 0.000000 29.190000
O 54.210000 37.530000 31.275000
O 56.295000 39.615000 35.445000
O 58.380000 39.615000 33.360000
O 56.295000 0.000000 33.360000
O 54.210000 37.530000 35.445000
O 56.295000 39.615000 39.615000
O 58.380000 39.615000 37.530000
O 56.295000 0.000000 37.530000
O 54.210000 37.530000 39.615000
O 60.465000 2.085000 2.085000
O 62.550000 2.085000 0.000000
O 60.465000 4.170000 0.000000
O 58.380000 0.000000 2.085000
O 60.465000 2.085000 6.255000
O 62.550000 2.085000 4.170000
O 60.465000 4.170000 4.170000
O 58.380000 0.000000 6.255000
O 60.465000 2.085000 10.425000
O 62.550000 2.085000 8.340000
O 60.465000 4.170000 8.340000
O 58.380000 0.000000 10.425000
O 60.465000 2.085000 14.595000
O 62.550000 2.085000 12.510000
O 60.465000 4.170000 12.510000
O 58.380000 0.000000 14.595000
O 60.465000 2.085000 18.765000
O 62.550000 2.085000 16.680000
O 60.465000 4.170000 16.680000
O 58.380000 0.000000 18.765000
O 60.465000 2.085000 22.935000
O 62.550000 2.085000 20.850000
O 60.465000 4.170000 20.850000
O 58.380000 0.000000 22.935000
O 60.465000 2.085000 27.105000
O 62.550000 2.085000 25.020000
O 60.465000 4.170000 25.020000
O 58.380000 0.000000 27.105000
O 60.465000 2.085000 31.275000
O 62.550000 2.085000 29.190000
O 60.465000 4.170000 29.190000
O 58.380000 0.000000 31.275000
O 60.465000 2.085000 35.445000
O 62.550000 2.085000 33.360000
O 60.465000 4.170000 33.360000
O 58.380000 0.000000 35.445000
O 60.465000 2.085000 39.615000
O 62.550000 2.085000 37.530000
O 60.465000 4.170000 37.530000
O 58.380000 0.000000 39.615000
O 60.465000 6.255000 2.085000
O 62.550000 6.255000 0.000000
O 60.465000 8.340000 0.000000
O 58.380000 4.170000 2.085000
O 60.465000 6.255000 6.255000
O 62.550000 6.255000 4.170000
O 60.465000 8.340000 4.170000
O 58.380000 4.170000 6.255000
O 60.465000 6.255000 10.425000
O 62.550000 6.255000 8.340000
O 60.465000 8.340000 8.340000
O 58.380000 4.170000 10.425000
O 60.465000 6.255000 14.595000
O 62.550000 6.255000 12.510000
O 60.465000 8.340000 12.510000
O 58.380000 4.170000 14.595000
O 60.465000 6.255000 18.765000
O 62.550000 6.255000 16.680000
O 60.465000 8.340000 16.680000
O 58.380000 4.170000 18.765000
O 60.465000 6.255000 22.935000
O 62.550000 6.255000 20.850000
O 60.465000 8.340000 20.850000
O 58.380000 4.170000 22.935000
O 60.465000 6.255000 27.105000
O 62.550000 6.255000 25.020000
O 60.465000 8.340000 25.020000
O 58.380000 4.170000 27.105000
O 60.465000 6.255000 31.275000
O 62.550000 6.255000 29.190000
O 60.465000 8.340000 29.190000
O 58.380000 4.170000 31.275000
O 60.465000 6.255000 35.445000
O 62.550000 6.255000 33.360000
O 60.465000 8.340000 33.360000
O 58.380000 4.170000 35.445000
O 60.465000 6.255000 39.615000
O 62.550000 6.255000 37.530000
O 60.465000 8.340000 37.530000
O 58.380000 4.170000 39.615000
O 60.465000 10.425000 2.085000
O 62.550000 10.425000 0.000000
O 60.465000 12.510000 0.000000
O 58.380000 8.340000 2.085000
O 60.465000 10.425000 6.255000
O 62.550000 10.425000 4.170000
O 60.465000 12.510000 4.170000
O 58.380000 8.340000 6.255000
O 60.465000 10.425000 10.425000
O 62.550000 10.425000 8.340000
O 60.465000 12.510000 8.340000
O 58.380000 8.340000 10.425000
O 60.465000 10.425000 14.595000
O 62.550000 10.425000 12.510000
O 60.465000 12.510000 12.510000
O 58.380000 8.340000 14.595000
O 60.465000 10.425000 18.765000
O 62.550000 10.425000 16.680000
O 60.465000 12.510000 16.680000
O 58.380000 8.340000 18.765000
O 60.465000 10.425000 22.935000
O 62.550000 10.425000 20.850000
O 60.465000 12.510000 20.850000
O 58.380000 8.340000 22.935000
O 60.465000 10.425000 27.105000
O 62.550000 10.425000 25.020000
O 60.465000 12.510000 25.020000
O 58.380000 8.340000 27.105000
O 60.465000 10.425000 31.275000
O 62.550000 10.425000 29.190000
O 60.465000 12.510000 29.190000
O 58.380000 8.340000 31.275000
O 60.465000 10.425000 35.445000
O 62.550000 10.425000 33.360000
O 60.465000 12.510000 33.360000
O 58.380000 8.340000 35.445000
O 60.465000 14.595000 2.085000
O 62.550000 14.595000 0.000000
O 60.465000 16.680000 0.000000
O 58.380000 12.510000 2.085000
O 60.465000 14.595000 6.255000
O 62.550000 14.595000 4.170000
O 60.465000 16.680000 4.170000
O 58.380000 12.510000 6.255000
O 60.465000 14.595000 10.425000
O 62.550000 14.595000 8.340000
O 60.465000 16.680000 8.340000
O 58.380000 12.510000 10.425000
O 60.465000 14.595000 14.595000
O 62.550000 14.595000 12.510000
O 60.465000 16.680000 12.510000
O 58.380000 12.510000 14.595000
O 60.465000 14.595000 18.765000
O 62.550000 14.595000 16.680000
O 60.465000 16.680000 16.680000
O 58.380000 12.510000 18.765000
O 60.465000 14.595000 22.935000
O 62.550000 14.595000 20.850000
O 60.465000 16.680000 20.850000
O 58.380000 12.510000 22.935000
O 60.465000 14.595000 27.105000
O 62.550000 14.595000 25.020000
O 60.465000 16.680000 25.020000
O 58.380000 12.510000 27.105000
O 60.465000 14.595000 31.275000
O 62.550000 14.595000 29.190000
O 60.465000 16.680000 29.190000
O 58.380000 12.510000 31.275000
O 60.465000 18.765000 2.085000
O 62.550000 18.765000 0.000000
O 60.465000 20.850000 0.000000
O 58.380000 16.680000 2.085000
O 60.465000 18.765000 6.255000
O 62.550000 18.765000 4.170000
O 60.465000 20.850000 4.170000
O 58.380000 16.680000 6.255000
O 60.465000 18.765000 10.425000
O 62.550000 18.765000 8.340000
O 60.465000 20.850000 8.340000
O 58.380000 16.680000 10.425000
O 60.465000 18.765000 14.595000
O 62.550000 18.765000 12.510000
O 60.465000 20.850000 12.510000
O 58.380000 16.680000 14.595000
O 60.465000 18.765000 18.765000
O 62.550000 18.765000 16.680000
O 60.465000 20.850000 16.680000
O 58.380000 16.680000 18.765000
O 60.465000 18.765000 22.935000
O 62.550000 18.765000 20.850000
O 60.465000 20.850000 20.850000
O 58.380000 16.680000 22.935000
O 60.465000 18.765000 27.105000
O 62.550000 18.765000 25.020000
O 60.465000 20.850000 25.020000
O 58.380000 16.680000 27.105000
O 60.465000 22.935000 2.085000
O 62.550000 22.935000 0.000000
O 60.465000 25.020000 0.000000
O 58.380000 20.850000 2.085000
O 60.465000 22.935000 6.255000
O 62.550000 22.935000 4.170000
O 60.465000 25.020000 4.170000
O 58.380000 20.850000 6.255000
O 60.465000 22.935000 10.425000
O 62.550000 22.935000 8.340000
O 60.465000 25.020000 8.340000
O 58.380000 20.850000 10.425000
O 60.465000 22.935000 14.595000
O 62.550000 22.935000 12.510000
O 60.465000 25.020000 12.510000
O 58.380000 20.850000 14.595000
O 60.465000 22.935000 18.765000
O 62.550000 22.935000 16.680000
O 60.465000 25.020000 16.680000
O 58.380000 20.850000 18.765000
O 60.465000 22.935000 22.935000
O 62.550000 22.935000 20.850000
O 60.465000 25.020000 20.850000
O 58.380000 20.850000 22.935000
O 60.465000 22.935000 27.105000
O 62.550000 22.935000 25.020000
O 60.465000 25.020000 25.020000
O 60.465000 25.020000 29.190000
O 60.465000 27.105000 2.085000
O 62.550000 27.105000 0.000000
O 60.465000 29.190000 0.000000
O 58.380000 25.020000 2.085000
O 60.465000 27.105000 6.255000
O 62.550000 27.105000 4.170000
O 60.465000 29.190000 4.170000
O 58.380000 25.020000 6.255000
O 60.465000 27.105000 10.425000
O 62.550000 27.105000 8.340000
O 60.465000 29.190000 8.340000
O 58.380000 25.020000 10.425000
O 60.465000 27.105000 14.595000
O 62.550000 27.105000 12.510000
O 60.465000 29.190000 12.510000
O 58.380000 25.020000 14.595000
O 60.465000 27.105000 18.765000
O 62.550000 27.105000 16.680000
O 60.465000 29.190000 16.680000
O 58.380000 25.020000 18.765000
O 60.465000 27.105000 22.935000
O 62.550000 27.105000 20.850000
O 60.465000 29.190000 20.850000
O 58.380000 25.020000 22.935000
O 60.465000 27.105000 27.105000
O 62.550000 27.105000 25.020000
O 60.465000 29.190000 25.020000
O 58.380000 25.020000 27.105000
O 60.465000 27.105000 31.275000
O 62.550000 27.105000 29.190000
O 60.465000 29.190000 29.190000
O 60.465000 29.190000 33.360000
O 60.465000 31.275000 2.085000
O 62.550000 31.275000 0.000000
O 60.465000 33.360000 0.000000
O 58.380000 29.190000 2.085000
O 60.465000 31.275000 6.255000
O 62.550000 31.275000 4.170000
O 60.465000 33.360000 4.170000
O 58.380000 29.190000 6.255000
O 60.465000 31.275000 10.425000
O 62.550000 31.275000 8.340000
O 60.465000 33.360000 8.340000
O 58.380000 29.190000 10.425000
O 60.465000 31.275000 14.595000
O 62.550000 31.275000 12.510000
O 60.465000 33.360000 12.510000
O 58.380000 29.190000 14.595000
O 60.465000 31.275000 18.765000
O 62.550000 31.275000 16.680000
O 60.465000 33.360000 16.680000
O 58.380000 29.190000 18.765000
O 60.465000 31.275000 22.935000
O 62.550000 31.275000 20.850000
O 60.465000 33.360000 20.850000
O 58.380000 29.190000 22.935000
O 60.465000 31.275000 27.105000
O 62.550000 31.275000 25.020000
O 60.465000 33.360000 25.020000
O 58.380000 29.190000 27.105000
O 60.465000 31.275000 31.275000
O 62.550000 31.275000 29.190000
O 60.465000 33.360000 29.190000
O 58.380000 29.190000 31.275000
O 60.465000 31.275000 35.445000
O 62.550000 31.275000 33.360000
O 60.465000 33.360000 33.360000
O 60.465000 33.360000 37.530000
O 60.465000 35.445000 2.085000
O 62.550000 35.445000 0.000000
O 60.465000 37.530000 0.000000
O 58.380000 33.360000 2.085000
O 60.465000 35.445000 6.255000
O 62.550000 35.445000 4.170000
O 60.465000 37.530000 4.170000
O 58.380000 33.360000 6.255000
O 60.465000 35.445000 10.425000
O 62.550000 35.445000 8.340000
O 60.465000 37.530000 8.340000
O 58.380000 33.360000 10.425000
O 60.465000 35.445000 14.595000
O 62.550000 35.445000 12.510000
O 60.465000 37.530000 12.510000
O 58.380000 33.360000 14.595000
O 60.465000 35.445000 18.765000
O 62.550000 35.445000 16.680000
O 60.465000 37.530000 16.680000
O 58.380000 33.360000 18.765000
O 60.465000 35.445000 22.935000
O 62.550000 35.445000 20.850000
O 60.465000 37.530000 20.850000
O 58.380000 33.360000 22.935000
O 60.465000 35.445000 27.105000
O 62.550000 35.445000 25.020000
O 60.465000 37.530000 25.020000
O 58.380000 33.360000 27.105000
O 60.465000 35.445000 31.275000
O 62.550000 35.445000 29.190000
O 60.465000 37.530000 29.190000
O 58.380000 33.360000 31.275000
O 60.465000 35.445000 35.445000
O 62.550000 35.445000 33.360000
O 60.465000 37.530000 33.360000
O 58.380000 33.360000 35.445000
O 60.465000 35.445000 39.615000
O 62.550000 35.445000 37.530000
O 60.465000 37.530000 37.530000
O 60.465000 39.615000 2.085000
O 62.550000 39.615000 0.000000
O 60.465000 0.000000 0.000000
O 58.380000 37.530000 2.085000
O 60.465000 39.615000 6.255000
O 62.550000 39.615000 4.170000
O 60.465000 0.000000 4.170000
O 58.380000 37.530000 6.255000
O 60.465000 39.615000 10.425000
O 62.550000 39.615000 8.340000
O 60.465000 0.000000 8.340000
O 58.380000 37.530000 10.425000
O 60.465000 39.615000 14.595000
O 62.550000 39.615000 12.510000
O 60.465000 0.000000 12.510000
O 58.380000 37.530000 14.595000
O 60.465000 39.615000 18.765000
O 62.550000 39.615000 16.680000
O 60.465000 0.000000 16.680000
O 58.380000 37.530000 18.765000
O 60.465000 39.615000 22.935000
O 62.550000 39.615000 20.850000
O 60.465000 0.000000 20.850000
O 58.380000 37.530000 22.935000
O 60.465000 39.615000 27.105000
O 62.550000 39.615000 25.020000
O 60.465000 0.000000 25.020000
O 58.380000 37.530000 27.105000
O 60.465000 39.615000 31.275000
O 62.550000 39.615000 29.190000
O 60.465000 0.000000 29.190000
O 58.380000 37.530000 31.275000
O 60.465000 39.615000 35.445000
O 62.550000 39.615000 33.360000
O 60.465000 0.000000 33.360000
O 58.380000 37.530000 35.445000
O 60.465000 39.615000 39.615000
O 62.550000 39.615000 37.530000
O 60.465000 0.000000 37.530000
O 58.380000 37.530000 39.615000
O 64.635000 2.085000 2.085000
O 66.720000 2.085000 0.000000
O 64.635000 4.170000 0.000000
O 62.550000 0.000000 2.085000
O 64.635000 2.085000 6.255000
O 66.720000 2.085000 4.170000
O 64.635000 4.170000 4.170000
O 62.550000 0.000000 6.255000
O 64.635000 2.085000 10.425000
O 66.720000 2.085000 8.340000
O 64.635000 4.170000 8.340000
O 62.550000 0.000000 10.425000
O 64.635000 2.085000 14.595000
O 66.720000 2.085000 12.510000
O 64.635000 4.170000 12.510000
O 62.550000 0.000000 14.595000
O 64.635000 2.085000 18.765000
O 66.720000 2.085000 16.680000
O 64.635000 4.170000 16.680000
O 62.550000 0.000000 18.765000
O 64.635000 2.085000 22.935000
O 66.720000 2.085000 20.850000
O 64.635000 4.170000 20.850000
O 62.550000 0.000000 22.935000
O 64.635000 2.085000 27.105000
O 66.720000 2.085000 25.020000
O 64.635000 4.170000 25.020000
O 62.550000 0.000000 27.105000
O 64.635000 2.085000 31.275000
O 66.720000 2.085000 29.190000
O 64.635000 4.170000 29.190000
O 62.550000 0.000000 31.275000
O 64.635000 2.085000 35.445000
O 66.720000 2.085000 33.360000
O 64.635000 4.170000 33.360000
O 62.550000 0.000000 35.445000
O 64.635000 2.085000 39.615000
O 66.720000 2.085000 37.530000
O 64.635000 4.170000 37.530000
O 62.550000 0.000000 39.615000
O 64.635000 6.255000 2.085000
O 66.720000 6.255000 0.000000
O 64.635000 8.340000 0.000000
O 62.550000 4.170000 2.085000
O 64.635000 6.255000 6.255000
O 66.720000 6.255000 4.170000
O 64.635000 8.340000 4.170000
O 62.550000 4.170000 6.255000
O 64.635000 6.255000 10.425000
O 66.720000 6.255000 8.340000
O 64.635000 8.340000 8.340000
O 62.550000 4.170000 10.425000
O 64.635000 6.255000 14.595000
O 66.720000 6.255000 12.510000
O 64.635000 8.340000 12.510000
O 62.550000 4.170000 14.595000
O 64.635000 6.255000 18.765000
O 66.720000 6.255000 16.680000
O 64.635000 8.340000 16.680000
O 62.550000 4.170000 18.765000
O 64.635000 6.255000 22.935000
O 66.720000 6.255000 20.850000
O 64.635000 8.340000 20.850000
O 62.550000 4.170000 22.935000
O 64.635000 6.255000 27.105000
O 66.720000 6.255000 25.020000
O 64.635000 8.340000 25.020000
O 62.550000 4.170000 27.105000
O 64.635000 6.255000 31.275000
O 66.720000 6.255000 29.190000
O 64.635000 8.340000 29.190000
O 62.550000 4.170000 31.275000
O 64.635000 6.255000 35.445000
O 66.720000 6.255000 33.360000
O 64.635000 8.340000 33.360000
O 62.550000 4.170000 35.445000
O 64.635000 6.255000 39.615000
O 66.720000 6.255000 37.530000
O 64.635000 8.340000 37.530000
O 62.550000 4.170000 39.615000
O 64.635000 10.425000 2.085000
O 66.720000 10.425000 0.000000
O 64.635000 12.510000 0.000000
O 62.550000 8.340000 2.085000
O 64.635000 10.425000 6.255000
O 66.720000 10.425000 4.170000
O 64.635000 12.510000 4.170000
O 62.550000 8.340000 6.255000
O 64.635000 10.425000 10.425000
O 66.720000 10.425000 8.340000
O 64.635000 12.510000 8.340000
O 62.550000 8.340000 10.425000
O 64.635000 10.425000 14.595000
O 66.720000 10.425000 12.510000
O 64.635000 12.510000 12.510000
O 62.550000 8.340000 14.595000
O 64.635000 10.425000 18.765000
O 66.720000 10.425000 16.680000
O 64.635000 12.510000 16.680000
O 62.550000 8.340000 18.765000
O 64.635000 10.425000 22.935000
O 66.720000 10.425000 20.850000
O 64.635000 12.510000 20.850000
O 62.550000 8.340000 22.935000
O 64.635000 10.425000 27.105000
O 66.720000 10.425000 25.020000
O 64.635000 12.510000 25.020000
O 62.550000 8.340000 27.105000
O 64.635000 10.425000 31.275000
O 66.720000 10.425000 29.190000
O 64.635000 12.510000 29.190000
O 62.550000 8.340000 31.275000
O 64.635000 10.425000 35.445000
O 66.720000 10.425000 33.360000
O 64.635000 12.510000 33.360000
O 62.550000 8.340000 35.445000
O 64.635000 14.595000 2.085000
O 66.720000 14.595000 0.000000
O 64.635000 16.680000 0.000000
O 62.550000 12.510000 2.085000
O 64.635000 14.595000 6.255000
O 66.720000 14.595000 4.170000
O 64.635000 16.680000 4.170000
O 62.550000 12.510000 6.255000
O 64.635000 14.595000 10.425000
O 66.720000 14.595000 8.340000
O 64.635000 16.680000 8.340000
O 62.550000 12.510000 10.425000
O 64.635000 14.595000 14.595000
O 66.720000 14.595000 12.510000
O 64.635000 16.680000 12.510000
O 62.550000 12.510000 14.595000
O 64.635000 14.595000 18.765000
O 66.720000 14.595000 16.680000
O 64.635000 16.680000 16.680000
O 62.550000 12.510000 18.765000
O 64.635000 14.595000 22.935000
O 66.720000 14.595000 20.850000
O 64.635000 16.680000 20.850000
O 62.550000 12.510000 22.935000
O 64.635000 14.595000 27.105000
O 66.720000 14.595000 25.020000
O 64.635000 16.680000 25.020000
O 62.550000 12.510000 27.105000
O 64.635000 14.595000 31.275000
O 66.720000 14.595000 29.190000
O 64.635000 16.680000 29.190000
O 62.550000 12.510000 31.275000
O 64.635000 18.765000 2.085000
O 66.720000 18.765000 0.000000
O 64.635000 20.850000 0.000000
O 62.550000 16.680000 2.085000
O 64.635000 18.765000 6.255000
O 66.720000 18.765000 4.170000
O 64.635000 20.850000 4.170000
O 62.550000 16.680000 6.255000
O 64.635000 18.765000 10.425000
O 66.720000 18.765000 8.340000
O 64.635000 20.850000 8.340000
O 62.550000 16.680000 10.425000
O 64.635000 18.765000 14.595000
O 66.720000 18.765000 12.510000
O 64.635000 20.850000 12.510000
O 62.550000 16.680000 14.595000
O 64.635000 18.765000 18.765000
O 66.720000 18.765000 16.680000
O 64.635000 20.850000 16.680000
O 62.550000 16.680000 18.765000
O 64.635000 18.765000 22.935000
O 66.720000 18.765000 20.850000
O 64.635000 20.850000 20.850000
O 62.550000 16.680000 22.935000
O 64.635000 18.765000 27.105000
O 66.720000 18.765000 25.020000
O 64.635000 20.850000 25.020000
O 62.550000 16.680000 27.105000
O 64.635000 22.935000 2.085000
O 66.720000 22.935000 0.000000
O 64.635000 25.020000 0.000000
O 62.550000 20.850000 2.085000
O 64.635000 22.935000 6.255000
O 66.720000 22.935000 4.170000
O 64.635000 25.020000 4.170000
O 62.550000 20.850000 6.255000
O 64.635000 22.935000 10.425000
O 66.720000 22.935000 8.340000
O 64.635000 25.020000 8.340000
O 62.550000 20.850000 10.425000
O 64.635000 22.935000 14.595000
O 66.720000 22.935000 12.510000
O 64.635000 25.020000 12.510000
O 62.550000 20.850000 14.595000
O 64.635000 22.935000 18.765000
O 66.720000 22.935000 16.680000
O 64.635000 25.020000 16.680000
O 62.550000 20.850000 18.765000
O 64.635000 22.935000 22.935000
O 66.720000 22.935000 20.850000
O 64.635000 25.020000 20.850000
O 62.550000 20.850000 22.935000
O 64.635000 22.935000 27.105000
O 66.720000 22.935000 25.020000
O 64.635000 25.020000 25.020000
O 64.635000 25.020000 29.190000
O 64.635000 27.105000 2.085000
O 66.720000 27.105000 0.000000
O 64.635000 29.190000 0.000000
O 62.550000 25.020000 2.085000
O 64.635000 27.105000 6.255000
O 66.720000 27.105000 4.170000
O 64.635000 29.190000 4.170000
O 62.550000 25.020000 6.255000
O 64.635000 27.105000 10.425000
O 66.720000 27.105000 8.340000
O 64.635000 29.190000 8.340000
O 62.550000 25.020000 10.425000
O 64.635000 27.105000 14.595000
O 66.720000 27.105000 12.510000
O 64.635000 29.190000 12.510000
O 62.550000 25.020000 14.595000
O 64.635000 27.105000 18.765000
O 66.720000 27.105000 16.680000
O 64.635000 29.190000 16.680000
O 62.550000 25.020000 18.765000
O 64.635000 27.105000 22.935000
O 66.720000 27.105000 20.850000
O 64.635000 29.190000 20.850000
O 62.550000 25.020000 22.935000
O 64.635000 27.105000 27.105000
O 66.720000 27.105000 25.020000
O 64.635000 29.190000 25.020000
O 62.550000 25.020000 27.105000
O 64.635000 27.105000 31.275000
O 66.720000 27.105000 29.190000
O 64.635000 29.190000 29.190000
O 64.635000 29.190000 33.360000
O 64.635000 31.275000 2.085000
O 66.720000 31.275000 0.000000
O 64.635000 33.360000 0.000000
O 62.550000 29.190000 2.085000
O 64.635000 31.275000 6.255000
O 66.720000 31.275000 4.170000
O 64.635000 33.360000 4.170000
O 62.550000 29.190000 6.255000
O 64.635000 31.275000 10.425000
O 66.720000 31.275000 8.340000
O 64.635000 33.360000 8.340000
O 62.550000 29.190000 10.425000
O 64.635000 31.275000 14.595000
O 66.720000 31.275000 12.510000
O 64.635000 33.360000 12.510000
O 62.550000 29.190000 14.595000
O 64.635000 31.275000 18.765000
O 66.720000 31.275000 16.680000
O 64.635000 33.360000 16.680000
O 62.550000 29.190000 18.765000
O 64.635000 31.275000 22.935000
O 66.720000 31.275000 20.850000
O 64.635000 33.360000 20.850000
O 62.550000 29.190000 22.935000
O 64.635000 31.275000 27.105000
O 66.720000 31.275000 25.020000
O 64.635000 33.360000 25.020000
O 62.550000 29.190000 27.105000
O 64.635000 31.275000 31.275000
O 66.720000 31.275000 29.190000
O 64.635000 33.360000 29.190000
O 62.550000 29.190000 31.275000
O 64.635000 31.275000 35.445000
O 66.720000 31.275000 33.360000
O 64.635000 33.360000 33.360000
O 64.635000 33.360000 37.530000
O 64.635000 35.445000 2.085000
O 66.720000 35.445000 0.000000
O 64.635000 37.530000 0.000000
O 62.550000 33.360000 2.085000
O 64.635000 35.445000 6.255000
O 66.720000 35.445000 4.170000
O 64.635000 37.530000 4.170000
O 62.550000 33.360000 6.255000
O 64.635000 35.445000 10.425000
O 66.720000 35.445000 8.340000
O 64.635000 37.530000 8.340000
O 62.550000 33.360000 10.425000
O 64.635000 35.445000 14.595000
O 66.720000 35.445000 12.510000
O 64.635000 37.530000 12.510000
O 62.550000 33.360000 14.595000
O 64.635000 35.445000 18.765000
O 66.720000 35.445000 16.680000
O 64.635000 37.530000 16.680000
O 62.550000 33.360000 18.765000
O 64.635000 35.445000 22.935000
O 66.720000 35.445000 20.850000
O 64.635000 37.530000 20.850000
O 62.550000 33.360000 22.935000
O 64.635000 35.445000 27.105000
O 66.720000 35.445000 25.020000
O 64.635000 37.530000 25.020000
O 62.550000 33.360000 27.105000
O 64.635000 35.445000 31.275000
O 66.720000 35.445000 29.190000
O 64.635000 37.530000 29.190000
O 62.550000 33.360000 31.275000
O 64.635000 35.445000 35.445000
O 66.720000 35.445000 33.360000
O 64.635000 37.530000 33.360000
O 62.550000 33.360000 35.445000
O 64.635000 35.445000 39.615000
O 66.720000 35.445000 37.530000
O 64.635000 37.530000 37.530000
O 64.635000 39.615000 2.085000
O 66.720000 39.615000 0.000000
O 64.635000 0.000000 0.000000
O 62.550000 37.530000 2.085000
O 64.635000 39.615000 6.255000
O 66.720000 39.615000 4.170000
O 64.635000 0.000000 4.170000
O 62.550000 37.530000 6.255000
O 64.635000 39.615000 10.425000
O 66.720000 39.615000 8.340000
O 64.635000 0.000000 8.340000
O 62.550000 37.530000 10.425000
O 64.635000 39.615000 14.595000
O 66.720000 39.615000 12.510000
O 64.635000 0.000000 12.510000
O 62.550000 37.530000 14.595000
O 64.635000 39.615000 18.765000
O 66.720000 39.615000 16.680000
O 64.635000 0.000000 16.680000
O 62.550000 37.530000 18.765000
O 64.635000 39.615000 22.935000
O 66.720000 39.615000 20.850000
O 64.635000 0.000000 20.850000
O 62.550000 37.530000 22.935000
O 64.635000 39.615000 27.105000
O 66.720000 39.615000 25.020000
O 64.635000 0.000000 25.020000
O 62.550000 37.530000 27.105000
O 64.635000 39.615000 31.275000
O 66.720000 39.615000 29.190000
O 64.635000 0.000000 29.190000
O 62.550000 37.530000 31.275000
O 64.635000 39.615000 35.445000
O 66.720000 39.615000 33.360000
O 64.635000 0.000000 33.360000
O 62.550000 37.530000 35.445000
O 64.635000 39.615000 39.615000
O 66.720000 39.615000 37.530000
O 64.635000 0.000000 37.530000
O 62.550000 37.530000 39.615000
O 68.805000 2.085000 2.085000
O 70.890000 2.085000 0.000000
O 68.805000 4.170000 0.000000
O 66.720000 0.000000 2.085000
O 68.805000 2.085000 6.255000
O 70.890000 2.085000 4.170000
O 68.805000 4.170000 4.170000
O 66.720000 0.000000 6.255000
O 68.805000 2.085000 10.425000
O 70.890000 2.085000 8.340000
O 68.805000 4.170000 8.340000
O 66.720000 0.000000 10.425000
O 68.805000 2.085000 14.595000
O 70.890000 2.085000 12.510000
O 68.805000 4.170000 12.510000
O 66.720000 0.000000 14.595000
O 68.805000 2.085000 18.765000
O 70.890000 2.085000 16.680000
O 68.805000 4.170000 16.680000
O 66.720000 0.000000 18.765000
O 68.805000 2.085000 22.935000
O 70.890000 2.085000 20.850000
O 68.805000 4.170000 20.850000
O 66.720000 0.000000 22.935000
O 68.805000 2.085000 27.105000
O 70.890000 2.085000 25.020000
O 68.805000 4.170000 25.020000
O 66.720000 0.000000 27.105000
O 68.805000 2.085000 31.275000
O 70.890000 2.085000 29.190000
O 68.805000 4.170000 29.190000
O 66.720000 0.000000 31.275000
O 68.805000 2.085000 35.445000
O 70.890000 2.085000 33.360000
O 68.805000 4.170000 33.360000
O 66.720000 0.000000 35.445000
O 68.805000 2.085000 39.615000
O 70.890000 2.085000 37.530000
O 68.805000 4.170000 37.530000
O 66.720000 0.000000 39.615000
O 68.805000 6.255000 2.085000
O 70.890000 6.255000 0.000000
O 68.805000 8.340000 0.000000
O 66.720000 4.170000 2.085000
O 68.805000 6.255000 6.255000
O 70.890000 6.255000 4.170000
O 68.805000 8.340000 4.170000
O 66.720000 4.170000 6.255000
O 68.805000 6.255000 10.425000
O 70.890000 6.255000 8.340000
O 68.805000 8.340000 8.340000
O 66.720000 4.170000 10.425000
O 68.805000 6.255000 14.595000
O 70.890000 6.255000 12.510000
O 68.805000 8.340000 12.510000
O 66.720000 4.170000 14.595000
O 68.805000 6.255000 18.765000
O 70.890000 6.255000 16.680000
O 68.805000 8.340000 16.680000
O 66.720000 4.170000 18.765000
O 68.805000 6.255000 22.935000
O 70.890000 6.255000 20.850000
O 68.805000 8.340000 20.850000
O 66.720000 4.170000 22.935000
O 68.805000 6.255000 27.105000
O 70.890000 6.255000 25.020000
O 68.805000 8.340000 25.020000
O 66.720000 4.170000 27.105000
O 68.805000 6.255000 31.275000
O 70.890000 6.255000 29.190000
O 68.805000 8.340000 29.190000
O 66.720000 4.170000 31.275000
O 68.805000 6.255000 35.445000
O 70.890000 6.255000 33.360000
O 68.805000 8.340000 33.360000
O 66.720000 4.170000 35.445000
O 68.805000 6.255000 39.615000
O 70.890000 6.255000 37.530000
O 68.805000 8.340000 37.530000
O 66.720000 4.170000 39.615000
O 68.805000 10.425000 2.085000
O 70.890000 10.425000 0.000000
O 68.805000 12.510000 0.000000
O 66.720000 8.340000 2.085000
O 68.805000 10.425000 6.255000
O 70.890000 10.425000 4.170000
O 68.805000 12.510000 4.170000
O 66.720000 8.340000 6.255000
O 68.805000 10.425000 10.425000
O 70.890000 10.425000 8.340000
O 68.805000 12.510000 8.340000
O 66.720000 8.340000 10.425000
O 68.805000 10.425000 14.595000
O 70.890000 10.425000 12.510000
O 68.805000 12.510000 12.510000
O 66.720000 8.340000 14.595000
O 68.805000 10.425000 18.765000
O 70.890000 10.425000 16.680000
O 68.805000 12.510000 16.680000
O 66.720000 8.340000 18.765000
O 68.805000 10.425000 22.935000
O 70.890000 10.425000 20.850000
O 68.805000 12.510000 20.850000
O 66.720000 8.340000 22.935000
O 68.805000 10.425000 27.105000
O 70.890000 10.425000 25.020000
O 68.805000 12.510000 25.020000
O 66.720000 8.340000 27.105000
O 68.805000 10.425000 31.275000
O 70.890000 10.425000 29.190000
O 68.805000 12.510000 29.190000
O 66.720000 8.340000 31.275000
O 68.805000 10.425000 35.445000
O 70.890000 10.425000 33.360000
O 68.805000 12.510000 33.360000
O 66.720000 8.340000 35.445000
O 68.805000 14.595000 2.085000
O 70.890000 14.595000 0.000000
O 68.805000 16.680000 0.000000
O 66.720000 12.510000 2.085000
O 68.805000 14.595000 6.255000
O 70.890000 14.595000 4.170000
O 68.805000 16.680000 4.170000
O 66.720000 12.510000 6.255000
O 68.805000 14.595000 10.425000
O 70.890000 14.595000 8.340000
O 68.805000 16.680000 8.340000
O 66.720000 12.510000 10.425000
O 68.805000 14.595000 14.595000
O 70.890000 14.595000 12.510000
O 68.805000 16.680000 12.510000
O 66.720000 12.510000 14.595000
O 68.805000 14.595000 18.765000
O 70.890000 14.595000 16.680000
O 68.805000 16.680000 16.680000
O 66.720000 12.510000 18.765000
O 68.805000 14.595000 22.935000
O 70.890000 14.595000 20.850000
O 68.805000 16.680000 20.850000
O 66.720000 12.510000 22.935000
O 68.805000 14.595000 27.105000
O 70.890000 14.595000 25.020000
O 68.805000 16.680000 25.020000
O 66.720000 12.510000 27.105000
O 68.805000 14.595000 31.275000
O 70.890000 14.595000 29.190000
O 68.805000 16.680000 29.190000
O 66.720000 12.510000 31.275000
O 68.805000 18.765000 2.085000
O 70.890000 18.765000 0.000000
O 68.805000 20.850000 0.000000
O 66.720000 16.680000 2.085000
O 68.805000 18.765000 6.255000
O 70.890000 18.765000 4.170000
O 68.805000 20.850000 4.170000
O 66.720000 16.680000 6.255000
O 68.805000 18.765000 10.425000
O 70.890000 18.765000 8.340000
O 68.805000 20.850000 8.340000
O 66.720000 16.680000 10.425000
O 68.805000 18.765000 14.595000
O 70.890000 18.765000 12.510000
O 68.805000 20.850000 12.510000
O 66.720000 16.680000 14.595000
O 68.805000 18.765000 18.765000
O 70.890000 18.765000 16.680000
O 68.805000 20.850000 16.680000
O 66.720000 16.680000 18.765000
O 68.805000 18.765000 22.935000
O 70.890000 18.765000 20.850000
O 68.805000 20.850000 20.850000
O 66.720000 16.680000 22.935000
O 68.805000 18.765000 27.105000
O 70.890000 18.765000 25.020000
O 68.805000 20.850000 25.020000
O 66.720000 16.680000 27.105000
O 68.805000 22.935000 2.085000
O 70.890000 22.935000 0.000000
O 68.805000 25.020000 0.000000
O 66.720000 20.850000 2.085000
O 68.805000 22.935000 6.255000
O 70.890000 22.935000 4.170000
O 68.805000 25.020000 4.170000
O 66.720000 20.850000 6.255000
O 68.805000 22.935000 10.425000
O 70.890000 22.935000 8.340000
O 68.805000 25.020000 8.340000
O 66.720000 20.850000 10.425000
O 68.805000 22.935000 14.595000
O 70.890000 22.935000 12.510000
O 68.805000 25.020000 12.510000
O 66.720000 20.850000 14.595000
O 68.805000 22.935000 18.765000
O 70.890000 22.935000 16.680000
O 68.805000 25.020000 16.680000
O 66.720000 20.850000 18.765000
O 68.805000 22.935000 22.935000
O 70.890000 22.935000 20.850000
O 68.805000 25.020000 20.850000
O 66.720000 20.850000 22.935000
O 68.805000 22.935000 27.105000
O 70.890000 22.935000 25.020000
O 68.805000 25.020000 25.020000
O 68.805000 25.020000 29.190000
O 68.805000 27.105000 2.085000
O 70.890000 27.105000 0.000000
O 68.805000 29.190000 0.000000
O 66.720000 25.020000 2.085000
O 68.805000 27.105000 6.255000
O 70.890000 27.105000 4.170000
O 68.805000 29.190000 4.170000
O 66.720000 25.020000 6.255000
O 68.805000 27.105000 10.425000
O 70.890000 27.105000 8.340000
O 68.805000 29.190000 8.340000
O 66.720000 25.020000 10.425000
O 68.805000 27.105000 14.595000
O 70.890000 27.105000 12.510000
O 68.805000 29.190000 12.510000
O 66.720000 25.020000 14.595000
O 68.805000 27.105000 18.765000
O 70.890000 27.105000 16.680000
O 68.805000 29.190000 16.680000
O 66.720000 25.020000 18.765000
O 68.805000 27.105000 22.935000
O 70.890000 27.105000 20.850000
O 68.805000 29.190000 20.850000
O 66.720000 25.020000 22.935000
O 68.805000 27.105000 27.105000
O 70.890000 27.105000 25.020000
O 68.805000 29.190000 25.020000
O 66.720000 25.020000 27.105000
O 68.805000 27.105000 31.275000
O 70.890000 27.105000 29.190000
O 68.805000 29.190000 29.190000
O 68.805000 29.190000 33.360000
O 68.805000 31.275000 2.085000
O 70.890000 31.275000 0.000000
O 68.805000 33.360000 0.000000
O 66.720000 29.190000 2.085000
O 68.805000 31.275000 6.255000
O 70.890000 31.275000 4.170000
O 68.805000 33.360000 4.170000
O 66.720000 29.190000 6.255000
O 68.805000 31.275000 10.425000
O 70.890000 31.275000 8.340000
O 68.805000 33.360000 8.340000
O 66.720000 29.190000 10.425000
O 68.805000 31.275000 14.595000
O 70.890000 31.275000 12.510000
O 68.805000 33.360000 12.510000
O 66.720000 29.190000 14.595000
O 68.805000 31.275000 18.765000
O 70.890000 31.275000 16.680000
O 68.805000 33.360000 16.680000
O 66.720000 29.190000 18.765000
O 68.805000 31.275000 22.935000
O 70.890000 31.275000 20.850000
O 68.805000 33.360000 20.850000
O 66.720000 29.190000 22.935000
O 68.805000 31.275000 27.105000
O 70.890000 31.275000 25.020000
O 68.805000 33.360000 25.020000
O 66.720000 29.190000 27.105000
O 68.805000 31.275000 31.275000
O 70.890000 31.275000 29.190000
O 68.805000 33.360000 29.190000
O 66.720000 29.190000 31.275000
O 68.805000 31.275000 35.445000
O 70.890000 31.275000 33.360000
O 68.805000 33.360000 33.360000
O 68.805000 33.360000 37.530000
O 68.805000 35.445000 2.085000
O 70.890000 35.445000 0.000000
O 68.805000 37.530000 0.000000
O 66.720000 33.360000 2.085000
O 68.805000 35.445000 6.255000
O 70.890000 35.445000 4.170000
O 68.805000 37.530000 4.170000
O 66.720000 33.360000 6.255000
O 68.805000 35.445000 10.425000
O 70.890000 35.445000 8.340000
O 68.805000 37.530000 8.340000
O 66.720000 33.360000 10.425000
O 68.805000 35.445000 14.595000
O 70.890000 35.445000 12.510000
O 68.805000 37.530000 12.510000
O 66.720000 33.360000 14.595000
O 68.805000 35.445000 18.765000
O 70.890000 35.445000 16.680000
O 68.805000 37.530000 16.680000
O 66.720000 33.360000 18.765000
O 68.805000 35.445000 22.935000
O 70.890000 35.445000 20.850000
O 68.805000 37.530000 20.850000
O 66.720000 33.360000 22.935000
O 68.805000 35.445000 27.105000
O 70.890000 35.445000 25.020000
O 68.805000 37.530000 25.020000
O 66.720000 33.360000 27.105000
O 68.805000 35.445000 31.275000
O 70.890000 35.445000 29.190000
O 68.805000 37.530000 29.190000
O 66.720000 33.360000 31.275000
O 68.805000 35.445000 35.445000
O 70.890000 35.445000 33.360000
O 68.805000 37.530000 33.360000
O 66.720000 33.360000 35.445000
O 68.805000 35.445000 39.615000
O 70.890000 35.445000 37.530000
O 68.805000 37.530000 37.530000
O 68.805000 39.615000 2.085000
O 70.890000 39.615000 0.000000
O 68.805000 0.000000 0.000000
O 66.720000 37.530000 2.085000
O 68.805000 39.615000 6.255000
O 70.890000 39.615000 4.170000
O 68.805000 0.000000 4.170000
O 66.720000 37.530000 6.255000
O 68.805000 39.615000 10.425000
O 70.890000 39.615000 8.340000
O 68.805000 0.000000 8.340000
O 66.720000 37.530000 10.425000
O 68.805000 39.615000 14.595000
O 70.890000 39.615000 12.510000
O 68.805000 0.000000 12.510000
O 66.720000 37.530000 14.595000
O 68.805000 39.615000 18.765000
O 70.890000 39.615000 16.680000
O 68.805000 0.000000 16.680000
O 66.720000 37.530000 18.765000
O 68.805000 39.615000 22.935000
O 70.890000 39.615000 20.850000
O 68.805000 0.000000 20.850000
O 66.720000 37.530000 22.935000
O 68.805000 39.615000 27.105000
O 70.890000 39.615000 25.020000
O 68.805000 0.000000 25.020000
O 66.720000 37.530000 27.105000
O 68.805000 39.615000 31.275000
O 70.890000 39.615000 29.190000
O 68.805000 0.000000 29.190000
O 66.720000 37.530000 31.275000
O 68.805000 39.615000 35.445000
O 70.890000 39.615000 33.360000
O 68.805000 0.000000 33.360000
O 66.720000 37.530000 35.445000
O 68.805000 39.615000 39.615000
O 70.890000 39.615000 37.530000
O 68.805000 0.000000 37.530000
O 66.720000 37.530000 39.615000
O 72.975000 2.085000 2.085000
O 75.060000 2.085000 0.000000
O 72.975000 4.170000 0.000000
O 70.890000 0.000000 2.085000
O 72.975000 2.085000 6.255000
O 75.060000 2.085000 4.170000
O 72.975000 4.170000 4.170000
O 70.890000 0.000000 6.255000
O 72.975000 2.085000 10.425000
O 75.060000 2.085000 8.340000
O 72.975000 4.170000 8.340000
O 70.890000 0.000000 10.425000
O 72.975000 2.085000 14.595000
O 75.060000 2.085000 12.510000
O 72.975000 4.170000 12.510000
O 70.890000 0.000000 14.595000
O 72.975000 2.085000 18.765000
O 75.060000 2.085000 16.680000
O 72.975000 4.170000 16.680000
O 70.890000 0.000000 18.765000
O 72.975000 2.085000 22.935000
O 75.060000 2.085000 20.850000
O 72.975000 4.170000 20.850000
O 70.890000 0.000000 22.935000
O 72.975000 2.085000 27.105000
O 75.060000 2.085000 25.020000
O 72.975000 4.170000 25.020000
O 70.890000 0.000000 27.105000
O 72.975000 2.085000 31.275000
O 75.060000 2.085000 29.190000
O 72.975000 4.170000 29.190000
O 70.890000 0.000000 31.275000
O 72.975000 2.085000 35.445000
O 75.060000 2.085000 33.360000
O 72.975000 4.170000 33.360000
O 70.890000 0.000000 35.445000
O 72.975000 2.085000 39.615000
O 75.060000 2.085000 37.530000
O 72.975000 4.170000 37.530000
O 70.890000 0.000000 39.615000
O 72.975000 6.255000 2.085000
O 75.060000 6.255000 0.000000
O 72.975000 8.340000 0.000000
O 70.890000 4.170000 2.085000
O 72.975000 6.255000 6.255000
O 75.060000 6.255000 4.170000
O 72.975000 8.340000 4.170000
O 70.890000 4.170000 6.255000
O 72.975000 6.255000 10.425000
O 75.060000 6.255000 8.340000
O 72.975000 8.340000 8.340000
O 70.890000 4.170000 10.425000
O 72.975000 6.255000 14.595000
O 75.060000 6.255000 12.510000
O 72.975000 8.340000 12.510000
O 70.890000 4.170000 14.595000
O 72.975000 6.255000 18.765000
O 75.060000 6.255000 16.680000
O 72.975000 8.340000 16.680000
O 70.890000 4.170000 18.765000
O 72.975000 6.255000 22.935000
O 75.060000 6.255000 20.850000
O 72.975000 8.340000 20.850000
O 70.890000 4.170000 22.935000
O 72.975000 6.255000 27.105000
O 75.060000 6.255000 25.020000
O 72.975000 8.340000 25.020000
O 70.890000 4.170000 27.105000
O 72.975000 6.255000 31.275000
O 75.060000 6.255000 29.190000
O 72.975000 8.340000 29.190000
O 70.890000 4.170000 31.275000
O 72.975000 6.255000 35.445000
O 75.060000 6.255000 33.360000
O 72.975000 8.340000 33.360000
O 70.890000 4.170000 35.445000
O 72.975000 6.255000 39.615000
O 75.060000 6.255000 37.530000
O 72.975000 8.340000 37.530000
O 70.890000 4.170000 39.615000
O 72.975000 10.425000 2.085000
O 75.060000 10.425000 0.000000
O 72.975000 12.510000 0.000000
O 70.890000 8.340000 2.085000
O 72.975000 10.425000 6.255000
O 75.060000 10.425000 4.170000
O 72.975000 12.510000 4.170000
O 70.890000 8.340000 6.255000
O 72.975000 10.425000 10.425000
O 75.060000 10.425000 8.340000
O 72.975000 12.510000 8.340000
O 70.890000 8.340000 10.425000
O 72.975000 10.425000 14.595000
O 75.060000 10.425000 12.510000
O 72.975000 12.510000 12.510000
O 70.890000 8.340000 14.595000
O 72.975000 10.425000 18.765000
O 75.060000 10.425000 16.680000
O 72.975000 12.510000 16.680000
O 70.890000 8.340000 18.765000
O 72.975000 10.425000 22.935000
O 75.060000 10.425000 20.850000
O 72.975000 12.510000 20.850000
O 70.890000 8.340000 22.935000
O 72.975000 10.425000 27.105000
O 75.060000 10.425000 25.020000
O 72.975000 12.510000 25.020000
O 70.890000 8.340000 27.105000
O 72.975000 10.425000 31.275000
O 75.060000 10.425000 29.190000
O 72.975000 12.510000 29.190000
O 70.890000 8.340000 31.275000
O 72.975000 10.425000 35.445000
O 75.060000 10.425000 33.360000
O 72.975000 12.510000 33.360000
O 70.890000 8.340000 35.445000
O 72.975000 14.595000 2.085000
O 75.060000 14.595000 0.000000
O 72.975000 16.680000 0.000000
O 70.890000 12.510000 2.085000
O 72.975000 14.595000 6.255000
O 75.060000 14.595000 4.170000
O 72.975000 16.680000 4.170000
O 70.890000 12.510000 6.255000
O 72.975000 14.595000 10.425000
O 75.060000 14.595000 8.340000
O 72.975000 16.680000 8.340000
O 70.890000 12.510000 10.425000
O 72.975000 14.595000 14.595000
O 75.060000 14.595000 12.510000
O 72.975000 16.680000 12.510000
O 70.890000 12.510000 14.595000
O 72.975000 14.595000 18.765000
O 75.060000 14.595000 16.680000
O 72.975000 16.680000 16.680000
O 70.890000 12.510000 18.765000
O 72.975000 14.595000 22.935000
O 75.060000 14.595000 20.850000
O 72.975000 16.680000 20.850000
O 70.890000 12.510000 22.935000
O 72.975000 14.595000 27.105000
O 75.060000 14.595000 25.020000
O 72.975000 16.680000 25.020000
O 70.890000 12.510000 27.105000
O 72.975000 14.595000 31.275000
O 75.060000 14.595000 29.190000
O 72.975000 16.680000 29.190000
O 70.890000 12.510000 31.275000
O 72.975000 18.765000 2.085000
O 75.060000 18.765000 0.000000
O 72.975000 20.850000 0.000000
O 70.890000 16.680000 2.085000
O 72.975000 18.765000 6.255000
O 75.060000 18.765000 4.170000
O 72.975000 20.850000 4.170000
O 70.890000 16.680000 6.255000
O 72.975000 18.765000 10.425000
O 75.060000 18.765000 8.340000
O 72.975000 20.850000 8.340000
O 70.890000 16.680000 10.425000
O 72.975000 18.765000 14.595000
O 75.060000 18.765000 12.510000
O 72.975000 20.850000 12.510000
O 70.890000 16.680000 14.595000
O 72.975000 18.765000 18.765000
O 75.060000 18.765000 16.680000
O 72.975000 20.850000 16.680000
O 70.890000 16.680000 18.765000
O 72.975000 18.765000 22.935000
O 75.060000 18.765000 20.850000
O 72.975000 20.850000 20.850000
O 70.890000 16.680000 22.935000
O 72.975000 18.765000 27.105000
O 75.060000 18.765000 25.020000
O 72.975000 20.850000 25.020000
O 70.890000 16.680000 27.105000
O 72.975000 22.935000 2.085000
O 75.060000 22.935000 0.000000
O 72.975000 25.020000 0.000000
O 70.890000 20.850000 2.085000
O 72.975000 22.935000 6.255000
O 75.060000 22.935000 4.170000
O 72.975000 25.020000 4.170000
O 70.890000 20.850000 6.255000
O 72.975000 22.935000 10.425000
O 75.060000 22.935000 8.340000
O 72.975000 25.020000 8.340000
O 70.890000 20.850000 10.425000
O 72.975000 22.935000 14.595000
O 75.060000 22.935000 12.510000
O 72.975000 25.020000 12.510000
O 70.890000 20.850000 14.595000
O 72.975000 22.935000 18.765000
O 75.060000 22.935000 16.680000
O 72.975000 25.020000 16.680000
O 70.890000 20.850000 18.765000
O 72.975000 22.935000 22.935000
O 75.060000 22.935000 20.850000
O 72.975000 25.020000 20.850000
O 70.890000 20.850000 22.935000
O 72.975000 22.935000 27.105000
O 75.060000 22.935000 25.020000
O 72.975000 25.020000 25.020000
O 72.975000 25.020000 29.190000
O 72.975000 27.105000 2.085000
O 75.060000 27.105000 0.000000
O 72.975000 29.190000 0.000000
O 70.890000 25.020000 2.085000
O 72.975000 27.105000 6.255000
O 75.060000 27.105000 4.170000
O 72.975000 29.190000 4.170000
O 70.890000 25.020000 6.255000
O 72.975000 27.105000 10.425000
O 75.060000 27.105000 8.340000
O 72.975000 29.190000 8.340000
O 70.890000 25.020000 10.425000
O 72.975000 27.105000 14.595000
O 75.060000 27.105000 12.510000
O 72.975000 29.190000 12.510000
O 70.890000 25.020000 14.595000
O 72.975000 27.105000 18.765000
O 75.060000 27.105000 16.680000
O 72.975000 29.190000 16.680000
O 70.890000 25.020000 18.765000
O 72.975000 27.105000 22.935000
O 75.060000 27.105000 20.850000
O 72.975000 29.190000 20.850000
O 70.890000 25.020000 22.935000
O 72.975000 27.105000 27.105000
O 75.060000 27.105000 25.020000
O 72.975000 29.190000 25.020000
O 70.890000 25.020000 27.105000
O 72.975000 27.105000 31.275000
O 75.060000 27.105000 29.190000
O 72.975000 29.190000 29.190000
O 72.975000 29.190000 33.360000
O 72.975000 31.275000 2.085000
O 75.060000 31.275000 0.000000
O 72.975000 33.360000 0.000000
O 70.890000 29.190000 2.085000
O 72.975000 31.275000 6.255000
O 75.060000 31.275000 4.170000
O 72.975000 33.360000 4.170000
O 70.890000 29.190000 6.255000
O 72.975000 31.275000 10.425000
O 75.060000 31.275000 8.340000
O 72.975000 33.360000 8.340000
O 70.890000 29.190000 10.425000
O 72.975000 31.275000 14.595000
O 75.060000 31.275000 12.510000
O 72.975000 33.360000 12.510000
O 70.890000 29.190000 14.595000
O 72.975000 31.275000 18.765000
O 75.060000 31.275000 16.680000
O 72.975000 33.360000 16.680000
O 70.890000 29.190000 18.765000
O 72.975000 31.275000 22.935000
O 75.060000 31.275000 20.850000
O 72.975000 33.360000 20.850000
O 70.890000 29.190000 22.935000
O 72.975000 31.275000 27.105000
O 75.060000 31.275000 25.020000
O 72.975000 33.360000 25.020000
O 70.890000 29.190000 27.105000
O 72.975000 31.275000 31.275000
O 75.060000 31.275000 29.190000
O 72.975000 33.360000 29.190000
O 70.890000 29.190000 31.275000
O 72.975000 31.275000 35.445000
O 75.060000 31.275000 33.360000
O 72.975000 33.360000 33.360000
O 72.975000 33.360000 37.530000
O 72.975000 35.445000 2.085000
O 75.060000 35.445000 0.000000
O 72.975000 37.530000 0.000000
O 70.890000 33.360000 2.085000
O 72.975000 35.445000 6.255000
O 75.060000 35.445000 4.170000
O 72.975000 37.530000 4.170000
O 70.890000 33.360000 6.255000
O 72.975000 35.445000 10.425000
O 75.060000 35.445000 8.340000
O 72.975000 37.530000 8.340000
O 70.890000 33.360000 10.425000
O 72.975000 35.445000 14.595000
O 75.060000 35.445000 12.510000
O 72.975000 37.530000 12.510000
O 70.890000 33.360000 14.595000
O 72.975000 35.445000 18.765000
O 75.060000 35.445000 16.680000
O 72.975000 37.530000 16.680000
O 70.890000 33.360000 18.765000
O 72.975000 35.445000 22.935000
O 75.060000 35.445000 20.850000
O 72.975000 37.530000 20.850000
O 70.890000 33.360000 22.935000
O 72.975000 35.445000 27.105000
O 75.060000 35.445000 25.020000
O 72.975000 37.530000 25.020000
O 70.890000 33.360000 27.105000
O 72.975000 35.445000 31.275000
O 75.060000 35.445000 29.190000
O 72.975000 37.530000 29.190000
O 70.890000 33.360000 31.275000
O 72.975000 35.445000 35.445000
O 75.060000 35.445000 33.360000
O 72.975000 37.530000 33.360000
O 70.890000 33.360000 35.445000
O 72.975000 35.445000 39.615000
O 75.060000 35.445000 37.530000
O 72.975000 37.530000 37.530000
O 72.975000 39.615000 2.085000
O 75.060000 39.615000 0.000000
O 72.975000 0.000000 0.000000
O 70.890000 37.530000 2.085000
O 72.975000 39.615000 6.255000
O 75.060000 39.615000 4.170000
O 72.975000 0.000000 4.170000
O 70.890000 37.530000 6.255000
O 72.975000 39.615000 10.425000
O 75.060000 39.615000 8.340000
O 72.975000 0.000000 8.340000
O 70.890000 37.530000 10.425000
O 72.975000 39.615000 14.595000
O 75.060000 39.615000 12.510000
O 72.975000 0.000000 12.510000
O 70.890000 37.530000 14.595000
O 72.975000 39.615000 18.765000
O 75.060000 39.615000 16.680000
O 72.975000 0.000000 16.680000
O 70.890000 37.530000 18.765000
O 72.975000 39.615000 22.935000
O 75.060000 39.615000 20.850000
O 72.975000 0.000000 20.850000
O 70.890000 37.530000 22.935000
O 72.975000 39.615000 27.105000
O 75.060000 39.615000 25.020000
O 72.975000 0.000000 25.020000
O 70.890000 37.530000 27.105000
O 72.975000 39.615000 31.275000
O 75.060000 39.615000 29.190000
O 72.975000 0.000000 29.190000
O 70.890000 37.530000 31.275000
O 72.975000 39.615000 35.445000
O 75.060000 39.615000 33.360000
O 72.975000 0.000000 33.360000
O 70.890000 37.530000 35.445000
O 72.975000 39.615000 39.615000
O 75.060000 39.615000 37.530000
O 72.975000 0.000000 37.530000
O 70.890000 37.530000 39.615000
O 77.145000 2.085000 2.085000
O 79.230000 2.085000 0.000000
O 77.145000 4.170000 0.000000
O 75.060000 0.000000 2.085000
O 77.145000 2.085000 6.255000
O 79.230000 2.085000 4.170000
O 77.145000 4.170000 4.170000
O 75.060000 0.000000 6.255000
O 77.145000 2.085000 10.425000
O 79.230000 2.085000 8.340000
O 77.145000 4.170000 8.340000
O 75.060000 0.000000 10.425000
O 77.145000 2.085000 14.595000
O 79.230000 2.085000 12.510000
O 77.145000 4.170000 12.510000
O 75.060000 0.000000 14.595000
O 77.145000 2.085000 18.765000
O 79.230000 2.085000 16.680000
O 77.145000 4.170000 16.680000
O 75.060000 0.000000 18.765000
O 77.145000 2.085000 22.935000
O 79.230000 2.085000 20.850000
O 77.145000 4.170000 20.850000
O 75.060000 0.000000 22.935000
O 77.145000 2.085000 27.105000
O 79.230000 2.085000 25.020000
O 77.145000 4.170000 25.020000
O 75.060000 0.000000 27.105000
O 77.145000 2.085000 31.275000
O 79.230000 2.085000 29.190000
O 77.145000 4.170000 29.190000
O 75.060000 0.000000 31.275000
O 77.145000 2.085000 35.445000
O 79.230000 2.085000 33.360000
O 77.145000 4.170000 33.360000
O 75.060000 0.000000 35.445000
O 77.145000 2.085000 39.615000
O 79.230000 2.085000 37.530000
O 77.145000 4.170000 37.530000
O 75.060000 0.000000 39.615000
O 77.145000 6.255000 2.085000
O 79.230000 6.255000 0.000000
O 77.145000 8.340000 0.000000
O 75.060000 4.170000 2.085000
O 77.145000 6.255000 6.255000
O 79.230000 6.255000 4.170000
O 77.145000 8.340000 4.170000
O 75.060000 4.170000 6.255000
O 77.145000 6.255000 10.425000
O 79.230000 6.255000 8.340000
O 77.145000 8.340000 8.340000
O 75.060000 4.170000 10.425000
O 77.145000 6.255000 14.595000
O 79.230000 6.255000 12.510000
O 77.145000 8.340000 12.510000
O 75.060000 4.170000 14.595000
O 77.145000 6.255000 18.765000
O 79.230000 6.255000 16.680000
O 77.145000 8.340000 16.680000
O 75.060000 4.170000 18.765000
O 77.145000 6.255000 22.935000
O 79.230000 6.255000 20.850000
O 77.145000 8.340000 20.850000
O 75.060000 4.170000 22.935000
O 77.145000 6.255000 27.105000
O 79.230000 6.255000 25.020000
O 77.145000 8.340000 25.020000
O 75.060000 4.170000 27.105000
O 77.145000 6.255000 31.275000
O 79.230000 6.255000 29.190000
O 77.145000 8.340000 29.190000
O 75.060000 4.170000 31.275000
O 77.145000 6.255000 35.445000
O 79.230000 6.255000 33.360000
O 77.145000 8.340000 33.360000
O 75.060000 4.170000 35.445000
O 77.145000 6.255000 39.615000
O 79.230000 6.255000 37.530000
O 77.145000 8.340000 37.530000
O 75.060000 4.170000 39.615000
O 77.145000 10.425000 2.085000
O 79.230000 10.425000 0.000000
O 77.145000 12.510000 0.000000
O 75.060000 8.340000 2.085000
O 77.145000 10.425000 6.255000
O 79.230000 10.425000 4.170000
O 77.145000 12.510000 4.170000
O 75.060000 8.340000 6.255000
O 77.145000 10.425000 10.425000
O 79.230000 10.425000 8.340000
O 77.145000 12.510000 8.340000
O 75.060000 8.340000 10.425000
O 77.145000 10.425000 14.595000
O 79.230000 10.425000 12.510000
O 77.145000 12.510000 12.510000
O 75.060000 8.340000 14.595000
O 77.145000 10.425000 18.765000
O 79.230000 10.425000 16.680000
O 77.145000 12.510000 16.680000
O 75.060000 8.340000 18.765000
O 77.145000 10.425000 22.935000
O 79.230000 10.425000 20.850000
O 77.145000 12.510000 20.850000
O 75.060000 8.340000 22.935000
O 77.145000 10.425000 27.105000
O 79.230000 10.425000 25.020000
O 77.145000 12.510000 25.020000
O 75.060000 8.340000 27.105000
O 77.145000 10.425000 31.275000
O 79.230000 10.425000 29.190000
O 77.145000 12.510000 29.190000
O 75.060000 8.340000 31.275000
O 77.145000 10.425000 35.445000
O 79.230000 10.425000 33.360000
O 77.145000 12.510000 33.360000
O 75.060000 8.340000 35.445000
O 77.145000 14.595000 2.085000
O 79.230000 14.595000 0.000000
O 77.145000 16.680000 0.000000
O 75.060000 12.510000 2.085000
O 77.145000 14.595000 6.255000
O 79.230000 14.595000 4.170000
O 77.145000 16.680000 4.170000
O 75.060000 12.510000 6.255000
O 77.145000 14.595000 10.425000
O 79.230000 14.595000 8.340000
O 77.145000 16.680000 8.340000
O 75.060000 12.510000 10.425000
O 77.145000 14.595000 14.595000
O 79.230000 14.595000 12.510000
O 77.145000 16.680000 12.510000
O 75.060000 12.510000 14.595000
O 77.145000 14.595000 18.765000
O 79.230000 14.595000 16.680000
O 77.145000 16.680000 16.680000
O 75.060000 12.510000 18.765000
O 77.145000 14.595000 22.935000
O 79.230000 14.595000 20.850000
O 77.145000 16.680000 20.850000
O 75.060000 12.510000 22.935000
O 77.145000 14.595000 27.105000
O 79.230000 14.595000 25.020000
O 77.145000 16.680000 25.020000
O 75.060000 12.510000 27.105000
O 77.145000 14.595000 31.275000
O 79.230000 14.595000 29.190000
O 77.145000 16.680000 29.190000
O 75.060000 12.510000 31.275000
O 77.145000 18.765000 2.085000
O 79.230000 18.765000 0.000000
O 77.145000 20.850000 0.000000
O 75.060000 16.680000 2.085000
O 77.145000 18.765000 6.255000
O 79.230000 18.765000 4.170000
O 77.145000 20.850000 4.170000
O 75.060000 16.680000 6.255000
O 77.145000 18.765000 10.425000
O 79.230000 18.765000 8.340000
O 77.145000 20.850000 8.340000
O 75.060000 16.680000 10.425000
O 77.145000 18.765000 14.595000
O 79.230000 18.765000 12.510000
O 77.145000 20.850000 12.510000
O 75.060000 16.680000 14.595000
O 77.145000 18.765000 18.765000
O 79.230000 18.765000 16.680000
O 77.145000 20.850000 16.680000
O 75.060000 16.680000 18.765000
O 77.145000 18.765000 22.935000
O 79.230000 18.765000 20.850000
O 77.145000 20.850000 20.850000
O 75.060000 16.680000 22.935000
O 77.145000 18.765000 27.105000
O 79.230000 18.765000 25.020000
O 77.145000 20.850000 25.020000
O 75.060000 16.680000 27.105000
O 77.145000 22.935000 2.085000
O 79.230000 22.935000 0.000000
O 77.145000 25.020000 0.000000
O 75.060000 20.850000 2.085000
O 77.145000 22.935000 6.255000
O 79.230000 22.935000 4.170000
O 77.145000 25.020000 4.170000
O 75.060000 20.850000 6.255000
O 77.145000 22.935000 10.425000
O 79.230000 22.935000 8.340000
O 77.145000 25.020000 8.340000
O 75.060000 20.850000 10.425000
O 77.145000 22.935000 14.595000
O 79.230000 22.935000 12.510000
O 77.145000 25.020000 12.510000
O 75.060000 20.850000 14.595000
O 77.145000 22.935000 18.765000
O 79.230000 22.935000 16.680000
O 77.145000 25.020000 16.680000
O 75.060000 20.850000 18.765000
O 77.145000 22.935000 22.935000
O 79.230000 22.935000 20.850000
O 77.145000 25.020000 20.850000
O 75.060000 20.850000 22.935000
O 77.145000 22.935000 27.105000
O 79.230000 22.935000 25.020000
O 77.145000 25.020000 25.020000
O 77.145000 25.020000 29.190000
O 77.145000 27.105000 2.085000
O 79.230000 27.105000 0.000000
O 77.145000 29.190000 0.000000
O 75.060000 25.020000 2.085000
O 77.145000 27.105000 6.255000
O 79.230000 27.105000 4.170000
O 77.145000 29.190000 4.170000
O 75.060000 25.020000 6.255000
O 77.145000 27.105000 10.425000
O 79.230000 27.105000 8.340000
O 77.145000 29.190000 8.340000
O 75.060000 25.020000 10.425000
O 77.145000 27.105000 14.595000
O 79.230000 27.105000 12.510000
O 77.145000 29.190000 12.510000
O 75.060000 25.020000 14.595000
O 77.145000 27.105000 18.765000
O 79.230000 27.105000 16.680000
O 77.145000 29.190000 16.680000
O 75.060000 25.020000 18.765000
O 77.145000 27.105000 22.935000
O 79.230000 27.105000 20.850000
O 77.145000 29.190000 20.850000
O 75.060000 25.020000 22.935000
O 77.145000 27.105000 27.105000
O 79.230000 27.105000 25.020000
O 77.145000 29.190000 25.020000
O 75.060000 25.020000 27.105000
O 77.145000 27.105000 31.275000
O 79.230000 27.105000 29.190000
O 77.145000 29.190000 29.190000
O 77.145000 29.190000 33.360000
O 77.145000 31.275000 2.085000
O 79.230000 31.275000 0.000000
O 77.145000 33.360000 0.000000
O 75.060000 29.190000 2.085000
O 77.145000 31.275000 6.255000
O 79.230000 31.275000 4.170000
O 77.145000 33.360000 4.170000
O 75.060000 29.190000 6.255000
O 77.145000 31.275000 10.425000
O 79.230000 31.275000 8.340000
O 77.145000 33.360000 8.340000
O 75.060000 29.190000 10.425000
O 77.145000 31.275000 14.595000
O 79.230000 31.275000 12.510000
O 77.145000 33.360000 12.510000
O 75.060000 29.190000 14.595000
O 77.145000 31.275000 18.765000
O 79.230000 31.275000 16.680000
O 77.145000 33.360000 16.680000
O 75.060000 29.190000 18.765000
O 77.145000 31.275000 22.935000
O 79.230000 31.275000 20.850000
O 77.145000 33.360000 20.850000
O 75.060000 29.190000 22.935000
O 77.145000 31.275000 27.105000
O 79.230000 31.275000 25.020000
O 77.145000 33.360000 25.020000
O 75.060000 29.190000 27.105000
O 77.145000 31.275000 31.275000
O 79.230000 31.275000 29.190000
O 77.145000 33.360000 29.190000
O 75.060000 29.190000 31.275000
O 77.145000 31.275000 35.445000
O 79.230000 31.275000 33.360000
O 77.145000 33.360000 33.360000
O 77.145000 33.360000 37.530000
O 77.145000 35.445000 2.085000
O 79.230000 35.445000 0.000000
O 77.145000 37.530000 0.000000
O 75.060000 33.360000 2.085000
O 77.145000 35.445000 6.255000
O 79.230000 35.445000 4.170000
O 77.145000 37.530000 4.170000
O 75.060000 33.360000 6.255000
O 77.145000 35.445000 10.425000
O 79.230000 35.445000 8.340000
O 77.145000 37.530000 8.340000
O 75.060000 33.360000 10.425000
O 77.145000 35.445000 14.595000
O 79.230000 35.445000 12.510000
O 77.145000 37.530000 12.510000
O 75.060000 33.360000 14.595000
O 77.145000 35.445000 18.765000
O 79.230000 35.445000 16.680000
O 77.145000 37.530000 16.680000
O 75.060000 33.360000 18.765000
O 77.145000 35.445000 22.935000
O 79.230000 35.445000 20.850000
O 77.145000 37.530000 20.850000
O 75.060000 33.360000 22.935000
O 77.145000 35.445000 27.105000
O 79.230000 35.445000 25.020000
O 77.145000 37.530000 25.020000
O 75.060000 33.360000 27.105000
O 77.145000 35.445000 31.275000
O 79.230000 35.445000 29.190000
O 77.145000 37.530000 29.190000
O 75.060000 33.360000 31.275000
O 77.145000 35.445000 35.445000
O 79.230000 35.445000 33.360000
O 77.145000 37.530000 33.360000
O 75.060000 33.360000 35.445000
O 77.145000 35.445000 39.615000
O 79.230000 35.445000 37.530000
O 77.145000 37.530000 37.530000
O 77.145000 39.615000 2.085000
O 79.230000 39.615000 0.000000
O 77.145000 0.000000 0.000000
O 75.060000 37.530000 2.085000
O 77.145000 39.615000 6.255000
O 79.230000 39.615000 4.170000
O 77.145000 0.000000 4.170000
O 75.060000 37.530000 6.255000
O 77.145000 39.615000 10.425000
O 79.230000 39.615000 8.340000
O 77.145000 0.000000 8.340000
O 75.060000 37.530000 10.425000
O 77.145000 39.615000 14.595000
O 79.230000 39.615000 12.510000
O 77.145000 0.000000 12.510000
O 75.060000 37.530000 14.595000
O 77.145000 39.615000 18.765000
O 79.230000 39.615000 16.680000
O 77.145000 0.000000 16.680000
O 75.060000 37.530000 18.765000
O 77.145000 39.615000 22.935000
O 79.230000 39.615000 20.850000
O 77.145000 0.000000 20.850000
O 75.060000 37.530000 22.935000
O 77.145000 39.615000 27.105000
O 79.230000 39.615000 25.020000
O 77.145000 0.000000 25.020000
O 75.060000 37.530000 27.105000
O 77.145000 39.615000 31.275000
O 79.230000 39.615000 29.190000
O 77.145000 0.000000 29.190000
O 75.060000 37.530000 31.275000
O 77.145000 39.615000 35.445000
O 79.230000 39.615000 33.360000
O 77.145000 0.000000 33.360000
O 75.060000 37.530000 35.445000
O 77.145000 39.615000 39.615000
O 79.230000 39.615000 37.530000
O 77.145000 0.000000 37.530000
O 75.060000 37.530000 39.615000
O 81.315000 2.085000 2.085000
O 83.400000 2.085000 0.000000
O 81.315000 4.170000 0.000000
O 79.230000 0.000000 2.085000
O 81.315000 2.085000 6.255000
O 83.400000 2.085000 4.170000
O 81.315000 4.170000 4.170000
O 79.230000 0.000000 6.255000
O 81.315000 2.085000 10.425000
O 83.400000 2.085000 8.340000
O 81.315000 4.170000 8.340000
O 79.230000 0.000000 10.425000
O 81.315000 2.085000 14.595000
O 83.400000 2.085000 12.510000
O 81.315000 4.170000 12.510000
O 79.230000 0.000000 14.595000
O 81.315000 2.085000 18.765000
O 83.400000 2.085000 16.680000
O 81.315000 4.170000 16.680000
O 79.230000 0.000000 18.765000
O 81.315000 2.085000 22.935000
O 83.400000 2.085000 20.850000
O 81.315000 4.170000 20.850000
O 79.230000 0.000000 22.935000
O 81.315000 2.085000 27.105000
O 83.400000 2.085000 25.020000
O 81.315000 4.170000 25.020000
O 79.230000 0.000000 27.105000
O 81.315000 2.085000 31.275000
O 83.400000 2.085000 29.190000
O 81.315000 4.170000 29.190000
O 79.230000 0.000000 31.275000
O 81.315000 2.085000 35.445000
O 83.400000 2.085000 33.360000
O 81.315000 4.170000 33.360000
O 79.230000 0.000000 35.445000
O 81.315000 2.085000 39.615000
O 83.400000 2.085000 37.530000
O 81.315000 4.170000 37.530000
O 79.230000 0.000000 39.615000
O 81.315000 6.255000 2.085000
O 83.400000 6.255000 0.000000
O 81.315000 8.340000 0.000000
O 79.230000 4.170000 2.085000
O 81.315000 6.255000 6.255000
O 83.400000 6.255000 4.170000
O 81.315000 8.340000 4.170000
O 79.230000 4.170000 6.255000
O 81.315000 6.255000 10.425000
O 83.400000 6.255000 8.340000
O 81.315000 8.340000 8.340000
O 79.230000 4.170000 10.425000
O 81.315000 6.255000 14.595000
O 83.400000 6.255000 12.510000
O 81.315000 8.340000 12.510000
O 79.230000 4.170000 14.595000
O 81.315000 6.255000 18.765000
O 83.400000 6.255000 16.680000
O 81.315000 8.340000 16.680000
O 79.230000 4.170000 18.765000
O 81.315000 6.255000 22.935000
O 83.400000 6.255000 20.850000
O 81.315000 8.340000 20.850000
O 79.230000 4.170000 22.935000
O 81.315000 6.255000 27.105000
O 83.400000 6.255000 25.020000
O 81.315000 8.340000 25.020000
O 79.230000 4.170000 27.105000
O 81.315000 6.255000 31.275000
O 83.400000 6.255000 29.190000
O 81.315000 8.340000 29.190000
O 79.230000 4.170000 31.275000
O 81.315000 6.255000 35.445000
O 83.400000 6.255000 33.360000
O 81.315000 8.340000 33.360000
O 79.230000 4.170000 35.445000
O 81.315000 6.255000 39.615000
O 83.400000 6.255000 37.530000
O 81.315000 8.340000 37.530000
O 79.230000 4.170000 39.615000
O 81.315000 10.425000 2.085000
O 83.400000 10.425000 0.000000
O 81.315000 12.510000 0.000000
O 79.230000 8.340000 2.085000
O 81.315000 10.425000 6.255000
O 83.400000 10.425000 4.170000
O 81.315000 12.510000 4.170000
O 79.230000 8.340000 6.255000
O 81.315000 10.425000 10.425000
O 83.400000 10.425000 8.340000
O 81.315000 12.510000 8.340000
O 79.230000 8.340000 10.425000
O 81.315000 10.425000 14.595000
O 83.400000 10.425000 12.510000
O 81.315000 12.510000 12.510000
O 79.230000 8.340000 14.595000
O 81.315000 10.425000 18.765000
O 83.400000 10.425000 16.680000
O 81.315000 12.510000 16.680000
O 79.230000 8.340000 18.765000
O 81.315000 10.425000 22.935000
O 83.400000 10.425000 20.850000
O 81.315000 12.510000 20.850000
O 79.230000 8.340000 22.935000
O 81.315000 10.425000 27.105000
O 83.400000 10.425000 25.020000
O 81.315000 12.510000 25.020000
O 79.230000 8.340000 27.105000
O 81.315000 10.425000 31.275000
O 83.400000 10.425000 29.190000
O 81.315000 12.510000 29.190000
O 79.230000 8.340000 31.275000
O 81.315000 10.425000 35.445000
O 83.400000 10.425000 33.360000
O 81.315000 12.510000 33.360000
O 79.230000 8.340000 35.445000
O 81.315000 14.595000 2.085000
O 83.400000 14.595000 0.000000
O 81.315000 16.680000 0.000000
O 79.230000 12.510000 2.085000
O 81.315000 14.595000 6.255000
O 83.400000 14.595000 4.170000
O 81.315000 16.680000 4.170000
O 79.230000 12.510000 6.255000
O 81.315000 14.595000 10.425000
O 83.400000 14.595000 8.340000
O 81.315000 16.680000 8.340000
O 79.230000 12.510000 10.425000
O 81.315000 14.595000 14.595000
O 83.400000 14.595000 12.510000
O 81.315000 16.680000 12.510000
O 79.230000 12.510000 14.595000
O 81.315000 14.595000 18.765000
O 83.400000 14.595000 16.680000
O 81.315000 16.680000 16.680000
O 79.230000 12.510000 18.765000
O 81.315000 14.595000 22.935000
O 83.400000 14.595000 20.850000
O 81.315000 16.680000 20.850000
O 79.230000 12.510000 22.935000
O 81.315000 14.595000 27.105000
O 83.400000 14.595000 25.020000
O 81.315000 16.680000 25.020000
O 79.230000 12.510000 27.105000
O 81.315000 14.595000 31.275000
O 83.400000 14.595000 29.190000
O 81.315000 16.680000 29.190000
O 79.230000 12.510000 31.275000
O 81.315000 18.765000 2.085000
O 83.400000 18.765000 0.000000
O 81.315000 20.850000 0.000000
O 79.230000 16.680000 2.085000
O 81.315000 18.765000 6.255000
O 83.400000 18.765000 4.170000
O 81.315000 20.850000 4.170000
O 79.230000 16.680000 6.255000
O 81.315000 18.765000 10.425000
O 83.400000 18.765000 8.340000
O 81.315000 20.850000 8.340000
O 79.230000 16.680000 10.425000
O 81.315000 18.765000 14.595000
O 83.400000 18.765000 12.510000
O 81.315000 20.850000 12.510000
O 79.230000 16.680000 14.595000
O 81.315000 18.765000 18.765000
O 83.400000 18.765000 16.680000
O 81.315000 20.850000 16.680000
O 79.230000 16.680000 18.765000
O 81.315000 18.765000 22.935000
O 83.400000 18.765000 20.850000
O 81.315000 20.850000 20.850000
O 79.230000 16.680000 22.935000
O 81.315000 18.765000 27.105000
O 83.400000 18.765000 25.020000
O 81.315000 20.850000 25.020000
O 79.230000 16.680000 27.105000
O 81.315000 22.935000 2.085000
O 83.400000 22.935000 0.000000
O 81.315000 25.020000 0.000000
O 79.230000 20.850000 2.085000
O 81.315000 22.935000 6.255000
O 83.400000 22.935000 4.170000
O 81.315000 25.020000 4.170000
O 79.230000 20.850000 6.255000
O 81.315000 22.935000 10.425000
O 83.400000 22.935000 8.340000
O 81.315000 25.020000 8.340000
O 79.230000 20.850000 10.425000
O 81.315000 22.935000 14.595000
O 83.400000 22.935000 12.510000
O 81.315000 25.020000 12.510000
O 79.230000 20.850000 14.595000
O 81.315000 22.935000 18.765000
O 83.400000 22.935000 16.680000
O 81.315000 25.020000 16.680000
O 79.230000 20.850000 18.765000
O 81.315000 22.935000 22.935000
O 83.400000 22.935000 20.850000
O 81.315000 25.020000 20.850000
O 79.230000 20.850000 22.935000
O 81.315000 22.935000 27.105000
O 83.400000 22.935000 25.020000
O 81.315000 25.020000 25.020000
O 81.315000 25.020000 29.190000
O 81.315000 27.105000 2.085000
O 83.400000 27.105000 0.000000
O 81.315000 29.190000 0.000000
O 79.230000 25.020000 2.085000
O 81.315000 27.105000 6.255000
O 83.400000 27.105000 4.170000
O 81.315000 29.190000 4.170000
O 79.230000 25.020000 6.255000
O 81.315000 27.105000 10.425000
O 83.400000 27.105000 8.340000
O 81.315000 29.190000 8.340000
O 79.230000 25.020000 10.425000
O 81.315000 27.105000 14.595000
O 83.400000 27.105000 12.510000
O 81.315000 29.190000 12.510000
O 79.230000 25.020000 14.595000
O 81.315000 27.105000 18.765000
O 83.400000 27.105000 16.680000
O 81.315000 29.190000 16.680000
O 79.230000 25.020000 18.765000
O 81.315000 27.105000 22.935000
O 83.400000 27.105000 20.850000
O 81.315000 29.190000 20.850000
O 79.230000 25.020000 22.935000
O 81.315000 27.105000 27.105000
O 83.400000 27.105000 25.020000
O 81.315000 29.190000 25.020000
O 79.230000 25.020000 27.105000
O 81.315000 27.105000 31.275000
O 83.400000 27.105000 29.190000
O 81.315000 29.190000 29.190000
O 81.315000 29.190000 33.360000
O 81.315000 31.275000 2.085000
O 83.400000 31.275000 0.000000
O 81.315000 33.360000 0.000000
O 79.230000 29.190000 2.085000
O 81.315000 31.275000 6.255000
O 83.400000 31.275000 4.170000
O 81.315000 33.360000 4.170000
O 79.230000 29.190000 6.255000
O 81.315000 31.275000 10.425000
O 83.400000 31.275000 8.340000
O 81.315000 33.360000 8.340000
O 79.230000 29.190000 10.425000
O 81.315000 31.275000 14.595000
O 83.400000 31.275000 12.510000
O 81.315000 33.360000 12.510000
O 79.230000 29.190000 14.595000
O 81.315000 31.275000 18.765000
O 83.400000 31.275000 16.680000
O 81.315000 33.360000 16.680000
O 79.230000 29.190000 18.765000
O 81.315000 31.275000 22.935000
O 83.400000 31.275000 20.850000
O 81.315000 33.360000 20.850000
O 79.230000 29.190000 22.935000
O 81.315000 31.275000 27.105000
O 83.400000 31.275000 25.020000
O 81.315000 33.360000 25.020000
O 79.230000 29.190000 27.105000
O 81.315000 31.275000 31.275000
O 83.400000 31.275000 29.190000
O 81.315000 33.360000 29.190000
O 79.230000 29.190000 31.275000
O 81.315000 31.275000 35.445000
O 83.400000 31.275000 33.360000
O 81.315000 33.360000 33.360000
O 81.315000 33.360000 37.530000
O 81.315000 35.445000 2.085000
O 83.400000 35.445000 0.000000
O 81.315000 37.530000 0.000000
O 79.230000 33.360000 2.085000
O 81.315000 35.445000 6.255000
O 83.400000 35.445000 4.170000
O 81.315000 37.530000 4.170000
O 79.230000 33.360000 6.255000
O 81.315000 35.445000 10.425000
O 83.400000 35.445000 8.340000
O 81.315000 37.530000 8.340000
O 79.230000 33.360000 10.425000
O 81.315000 35.445000 14.595000
O 83.400000 35.445000 12.510000
O 81.315000 37.530000 12.510000
O 79.230000 33.360000 14.595000
O 81.315000 35.445000 18.765000
O 83.400000 35.445000 16.680000
O 81.315000 37.530000 16.680000
O 79.230000 33.360000 18.765000
O 81.315000 35.445000 22.935000
O 83.400000 35.445000 20.850000
O 81.315000 37.530000 20.850000
O 79.230000 33.360000 22.935000
O 81.315000 35.445000 27.105000
O 83.400000 35.445000 25.020000
O 81.315000 37.530000 25.020000
O 79.230000 33.360000 27.105000
O 81.315000 35.445000 31.275000
O 83.400000 35.445000 29.190000
O 81.315000 37.530000 29.190000
O 79.230000 33.360000 31.275000
O 81.315000 35.445000 35.445000
O 83.400000 35.445000 33.360000
O 81.315000 37.530000 33.360000
O 79.230000 33.360000 35.445000
O 81.315000 35.445000 39.615000
O 83.400000 35.445000 37.530000
O 81.315000 37.530000 37.530000
O 81.315000 39.615000 2.085000
O 83.400000 39.615000 0.000000
O 81.315000 0.000000 0.000000
O 79.230000 37.530000 2.085000
O 81.315000 39.615000 6.255000
O 83.400000 39.615000 4.170000
O 81.315000 0.000000 4.170000
O 79.230000 37.530000 6.255000
O 81.315000 39.615000 10.425000
O 83.400000 39.615000 8.340000
O 81.315000 0.000000 8.340000
O 79.230000 37.530000 10.425000
O 81.315000 39.615000 14.595000
O 83.400000 39.615000 12.510000
O 81.315000 0.000000 12.510000
O 79.230000 37.530000 14.595000
O 81.315000 39.615000 18.765000
O 83.400000 39.615000 16.680000
O 81.315000 0.000000 16.680000
O 79.230000 37.530000 18.765000
O 81.315000 39.615000 22.935000
O 83.400000 39.615000 20.850000
O 81.315000 0.000000 20.850000
O 79.230000 37.530000 22.935000
O 81.315000 39.615000 27.105000
O 83.400000 39.615000 25.020000
O 81.315000 0.000000 25.020000
O 79.230000 37.530000 27.105000
O 81.315000 39.615000 31.275000
O 83.400000 39.615000 29.190000
O 81.315000 0.000000 29.190000
O 79.230000 37.530000 31.275000
O 81.315000 39.615000 35.445000
O 83.400000 39.615000 33.360000
O 81.315000 0.000000 33.360000
O 79.230000 37.530000 35.445000
O 81.315000 39.615000 39.615000
O 83.400000 39.615000 37.530000
O 81.315000 0.000000 37.530000
O 79.230000 37.530000 39.615000
O 85.485000 2.085000 2.085000
O 87.570000 2.085000 0.000000
O 85.485000 4.170000 0.000000
O 83.400000 0.000000 2.085000
O 85.485000 2.085000 6.255000
O 87.570000 2.085000 4.170000
O 85.485000 4.170000 4.170000
O 83.400000 0.000000 6.255000
O 85.485000 2.085000 10.425000
O 87.570000 2.085000 8.340000
O 85.485000 4.170000 8.340000
O 83.400000 0.000000 10.425000
O 85.485000 2.085000 14.595000
O 87.570000 2.085000 12.510000
O 85.485000 4.170000 12.510000
O 83.400000 0.000000 14.595000
O 85.485000 2.085000 18.765000
O 87.570000 2.085000 16.680000
O 85.485000 4.170000 16.680000
O 83.400000 0.000000 18.765000
O 85.485000 2.085000 22.935000
O 87.570000 2.085000 20.850000
O 85.485000 4.170000 20.850000
O 83.400000 0.000000 22.935000
O 85.485000 2.085000 27.105000
O 87.570000 2.085000 25.020000
O 85.485000 4.170000 25.020000
O 83.400000 0.000000 27.105000
O 85.485000 2.085000 31.275000
O 87.570000 2.085000 29.190000
O 85.485000 4.170000 29.190000
O 83.400000 0.000000 31.275000
O 85.485000 2.085000 35.445000
O 87.570000 2.085000 33.360000
O 85.485000 4.170000 33.360000
O 83.400000 0.000000 35.445000
O 85.485000 2.085000 39.615000
O 87.570000 2.085000 37.530000
O 85.485000 4.170000 37.530000
O 83.400000 0.000000 39.615000
O 85.485000 6.255000 2.085000
O 87.570000 6.255000 0.000000
O 85.485000 8.340000 0.000000
O 83.400000 4.170000 2.085000
O 85.485000 6.255000 6.255000
O 87.570000 6.255000 4.170000
O 85.485000 8.340000 4.170000
O 83.400000 4.170000 6.255000
O 85.485000 6.255000 10.425000
O 87.570000 6.255000 8.340000
O 85.485000 8.340000 8.340000
O 83.400000 4.170000 10.425000
O 85.485000 6.255000 14.595000
O 87.570000 6.255000 12.510000
O 85.485000 8.340000 12.510000
O 83.400000 4.170000 14.595000
O 85.485000 6.255000 18.765000
O 87.570000 6.255000 16.680000
O 85.485000 8.340000 16.680000
O 83.400000 4.170000 18.765000
O 85.485000 6.255000 22.935000
O 87.570000 6.255000 20.850000
O 85.485000 8.340000 20.850000
O 83.400000 4.170000 22.935000
O 85.485000 6.255000 27.105000
O 87.570000 6.255000 25.020000
O 85.485000 8.340000 25.020000
O 83.400000 4.170000 27.105000
O 85.485000 6.255000 31.275000
O 87.570000 6.255000 29.190000
O 85.485000 8.340000 29.190000
O 83.400000 4.170000 31.275000
O 85.485000 6.255000 35.445000
O 87.570000 6.255000 33.360000
O 85.485000 8.340000 33.360000
O 83.400000 4.170000 35.445000
O 85.485000 6.255000 39.615000
O 87.570000 6.255000 37.530000
O 85.485000 8.340000 37.530000
O 83.400000 4.170000 39.615000
O 85.485000 10.425000 2.085000
O 87.570000 10.425000 0.000000
O 85.485000 12.510000 0.000000
O 83.400000 8.340000 2.085000
O 85.485000 10.425000 6.255000
O 87.570000 10.425000 4.170000
O 85.485000 12.510000 4.170000
O 83.400000 8.340000 6.255000
O 85.485000 10.425000 10.425000
O 87.570000 10.425000 8.340000
O 85.485000 12.510000 8.340000
O 83.400000 8.340000 10.425000
O 85.485000 10.425000 14.595000
O 87.570000 10.425000 12.510000
O 85.485000 12.510000 12.510000
O 83.400000 8.340000 14.595000
O 85.485000 10.425000 18.765000
O 87.570000 10.425000 16.680000
O 85.485000 12.510000 16.680000
O 83.400000 8.340000 18.765000
O 85.485000 10.425000 22.935000
O 87.570000 10.425000 20.850000
O 85.485000 12.510000 20.850000
O 83.400000 8.340000 22.935000
O 85.485000 10.425000 27.105000
O 87.570000 10.425000 25.020000
O 85.485000 12.510000 25.020000
O 83.400000 8.340000 27.105000
O 85.485000 10.425000 31.275000
O 87.570000 10.425000 29.190000
O 85.485000 12.510000 29.190000
O 83.400000 8.340000 31.275000
O 85.485000 10.425000 35.445000
O 87.570000 10.425000 33.360000
O 85.485000 12.510000 33.360000
O 83.400000 8.340000 35.445000
O 85.485000 14.595000 2.085000
O 87.570000 14.595000 0.000000
O 85.485000 16.680000 0.000000
O 83.400000 12.510000 2.085000
O 85.485000 14.595000 6.255000
O 87.570000 14.595000 4.170000
O 85.485000 16.680000 4.170000
O 83.400000 12.510000 6.255000
O 85.485000 14.595000 10.425000
O 87.570000 14.595000 8.340000
O 85.485000 16.680000 8.340000
O 83.400000 12.510000 10.425000
O 85.485000 14.595000 14.595000
O 87.570000 14.595000 12.510000
O 85.485000 16.680000 12.510000
O 83.400000 12.510000 14.595000
O 85.485000 14.595000 18.765000
O 87.570000 14.595000 16.680000
O 85.485000 16.680000 16.680000
O 83.400000 12.510000 18.765000
O 85.485000 14.595000 22.935000
O 87.570000 14.595000 20.850000
O 85.485000 16.680000 20.850000
O 83.400000 12.510000 22.935000
O 85.485000 14.595000 27.105000
O 87.570000 14.595000 25.020000
O 85.485000 16.680000 25.020000
O 83.400000 12.510000 27.105000
O 85.485000 14.595000 31.275000
O 87.570000 14.595000 29.190000
O 85.485000 16.680000 29.190000
O 83.400000 12.510000 31.275000
O 85.485000 18.765000 2.085000
O 87.570000 18.765000 0.000000
O 85.485000 20.850000 0.000000
O 83.400000 16.680000 2.085000
O 85.485000 18.765000 6.255000
O 87.570000 18.765000 4.170000
O 85.485000 20.850000 4.170000
O 83.400000 16.680000 6.255000
O 85.485000 18.765000 10.425000
O 87.570000 18.765000 8.340000
O 85.485000 20.850000 8.340000
O 83.400000 16.680000 10.425000
O 85.485000 18.765000 14.595000
O 87.570000 18.765000 12.510000
O 85.485000 20.850000 12.510000
O 83.400000 16.680000 14.595000
O 85.485000 18.765000 18.765000
O 87.570000 18.765000 16.680000
O 85.485000 20.850000 16.680000
O 83.400000 16.680000 18.765000
O 85.485000 18.765000 22.935000
O 87.570000 18.765000 20.850000
O 85.485000 20.850000 20.850000
O 83.400000 16.680000 22.935000
O 85.485000 18.765000 27.105000
O 87.570000 18.765000 25.020000
O 85.485000 20.850000 25.020000
O 83.400000 16.680000 27.105000
O 85.485000 22.935000 2.085000
O 87.570000 22.935000 0.000000
O 85.485000 25.020000 0.000000
O 83.400000 20.850000 2.085000
O 85.485000 22.935000 6.255000
O 87.570000 22.935000 4.170000
O 85.485000 25.020000 4.170000
O 83.400000 20.850000 6.255000
O 85.485000 22.935000 10.425000
O 87.570000 22.935000 8.340000
O 85.485000 25.020000 8.340000
O 83.400000 20.850000 10.425000
O 85.485000 22.935000 14.595000
O 87.570000 22.935000 12.510000
O 85.485000 25.020000 12.510000
O 83.400000 20.850000 14.595000
O 85.485000 22.935000 18.765000
O 87.570000 22.935000 16.680000
O 85.485000 25.020000 16.680000
O 83.400000 20.850000 18.765000
O 85.485000 22.935000 22.935000
O 87.570000 22.935000 20.850000
O 85.485000 25.020000 20.850000
O 83.400000 20.850000 22.935000
O 85.485000 22.935000 27.105000
O 87.570000 22.935000 25.020000
O 85.485000 25.020000 25.020000
O 85.485000 25.020000 29.190000
O 85.485000 27.105000 2.085000
O 87.570000 27.105000 0.000000
O 85.485000 29.190000 0.000000
O 83.400000 25.020000 2.085000
O 85.485000 27.105000 6.255000
O 87.570000 27.105000 4.170000
O 85.485000 29.190000 4.170000
O 83.400000 25.020000 6.255000
O 85.485000 27.105000 10.425000
O 87.570000 27.105000 8.340000
O 85.485000 29.190000 8.340000
O 83.400000 25.020000 10.425000
O 85.485000 27.105000 14.595000
O 87.570000 27.105000 12.510000
O 85.485000 29.190000 12.510000
O 83.400000 25.020000 14.595000
O 85.485000 27.105000 18.765000
O 87.570000 27.105000 16.680000
O 85.485000 29.190000 16.680000
O 83.400000 25.020000 18.765000
O 85.485000 27.105000 22.935000
O 87.570000 27.105000 20.850000
O 85.485000 29.190000 20.850000
O 83.400000 25.020000 22.935000
O 85.485000 27.105000 27.105000
O 87.570000 27.105000 25.020000
O 85.485000 29.190000 25.020000
O 83.400000 25.020000 27.105000
O 85.485000 27.105000 31.275000
O 87.570000 27.105000 29.190000
O 85.485000 29.190000 29.190000
O 85.485000 29.190000 33.360000
O 85.485000 31.275000 2.085000
O 87.570000 31.275000 0.000000
O 85.485000 33.360000 0.000000
O 83.400000 29.190000 2.085000
O 85.485000 31.275000 6.255000
O 87.570000 31.275000 4.170000
O 85.485000 33.360000 4.170000
O 83.400000 29.190000 6.255000
O 85.485000 31.275000 10.425000
O 87.570000 31.275000 8.340000
O 85.485000 33.360000 8.340000
O 83.400000 29.190000 10.425000
O 85.485000 31.275000 14.595000
O 87.570000 31.275000 12.510000
O 85.485000 33.360000 12.510000
O 83.400000 29.190000 14.595000
O 85.485000 31.275000 18.765000
O 87.570000 31.275000 16.680000
O 85.485000 33.360000 16.680000
O 83.400000 29.190000 18.765000
O 85.485000 31.275000 22.935000
O 87.570000 31.275000 20.850000
O 85.485000 33.360000 20.850000
O 83.400000 29.190000 22.935000
O 85.485000 31.275000 27.105000
O 87.570000 31.275000 25.020000
O 85.485000 33.360000 25.020000
O 83.400000 29.190000 27.105000
O 85.485000 31.275000 31.275000
O 87.570000 31.275000 29.190000
O 85.485000 33.360000 29.190000
O 83.400000 29.190000 31.275000
O 85.485000 31.275000 35.445000
O 87.570000 31.275000 33.360000
O 85.485000 33.360000 33.360000
O 85.485000 33.360000 37.530000
O 85.485000 35.445000 2.085000
O 87.570000 35.445000 0.000000
O 85.485000 37.530000 0.000000
O 83.400000 33.360000 2.085000
O 85.485000 35.445000 6.255000
O 87.570000 35.445000 4.170000
O 85.485000 37.530000 4.170000
O 83.400000 33.360000 6.255000
O 85.485000 35.445000 10.425000
O 87.570000 35.445000 8.340000
O 85.485000 37.530000 8.340000
O 83.400000 33.360000 10.425000
O 85.485000 35.445000 14.595000
O 87.570000 35.445000 12.510000
O 85.485000 37.530000 12.510000
O 83.400000 33.360000 14.595000
O 85.485000 35.445000 18.765000
O 87.570000 35.445000 16.680000
O 85.485000 37.530000 16.680000
O 83.400000 33.360000 18.765000
O 85.485000 35.445000 22.935000
O 87.570000 35.445000 20.850000
O 85.485000 37.530000 20.850000
O 83.400000 33.360000 22.935000
O 85.485000 35.445000 27.105000
O 87.570000 35.445000 25.020000
O 85.485000 37.530000 25.020000
O 83.400000 33.360000 27.105000
O 85.485000 35.445000 31.275000
O 87.570000 35.445000 29.190000
O 85.485000 37.530000 29.190000
O 83.400000 33.360000 31.275000
O 85.485000 35.445000 35.445000
O 87.570000 35.445000 33.360000
O 85.485000 37.530000 33.360000
O 83.400000 33.360000 35.445000
O 85.485000 35.445000 39.615000
O 87.570000 35.445000 37.530000
O 85.485000 37.530000 37.530000
O 85.485000 39.615000 2.085000
O 87.570000 39.615000 0.000000
O 85.485000 0.000000 0.000000
O 83.400000 37.530000 2.085000
O 85.485000 39.615000 6.255000
O 87.570000 39.615000 4.170000
O 85.485000 0.000000 4.170000
O 83.400000 37.530000 6.255000
O 85.485000 39.615000 10.425000
O 87.570000 39.615000 8.340000
O 85.485000 0.000000 8.340000
O 83.400000 37.530000 10.425000
O 85.485000 39.615000 14.595000
O 87.570000 39.615000 12.510000
O 85.485000 0.000000 12.510000
O 83.400000 37.530000 14.595000
O 85.485000 39.615000 18.765000
O 87.570000 39.615000 16.680000
O 85.485000 0.000000 16.680000
O 83.400000 37.530000 18.765000
O 85.485000 39.615000 22.935000
O 87.570000 39.615000 20.850000
O 85.485000 0.000000 20.850000
O 83.400000 37.530000 22.935000
O 85.485000 39.615000 27.105000
O 87.570000 39.615000 25.020000
O 85.485000 0.000000 25.020000
O 83.400000 37.530000 27.105000
O 85.485000 39.615000 31.275000
O 87.570000 39.615000 29.190000
O 85.485000 0.000000 29.190000
O 83.400000 37.530000 31.275000
O 85.485000 39.615000 35.445000
O 87.570000 39.615000 33.360000
O 85.485000 0.000000 33.360000
O 83.400000 37.530000 35.445000
O 85.485000 39.615000 39.615000
O 87.570000 39.615000 37.530000
O 85.485000 0.000000 37.530000
O 83.400000 37.530000 39.615000
O 89.655000 2.085000 2.085000
O 91.740000 2.085000 0.000000
O 89.655000 4.170000 0.000000
O 87.570000 0.000000 2.085000
O 89.655000 2.085000 6.255000
O 91.740000 2.085000 4.170000
O 89.655000 4.170000 4.170000
O 87.570000 0.000000 6.255000
O 89.655000 2.085000 10.425000
O 91.740000 2.085000 8.340000
O 89.655000 4.170000 8.340000
O 87.570000 0.000000 10.425000
O 89.655000 2.085000 14.595000
O 91.740000 2.085000 12.510000
O 89.655000 4.170000 12.510000
O 87.570000 0.000000 14.595000
O 89.655000 2.085000 18.765000
O 91.740000 2.085000 16.680000
O 89.655000 4.170000 16.680000
O 87.570000 0.000000 18.765000
O 89.655000 2.085000 22.935000
O 91.740000 2.085000 20.850000
O 89.655000 4.170000 20.850000
O 87.570000 0.000000 22.935000
O 89.655000 2.085000 27.105000
O 91.740000 2.085000 25.020000
O 89.655000 4.170000 25.020000
O 87.570000 0.000000 27.105000
O 89.655000 2.085000 31.275000
O 91.740000 2.085000 29.190000
O 89.655000 4.170000 29.190000
O 87.570000 0.000000 31.275000
O 89.655000 2.085000 35.445000
O 91.740000 2.085000 33.360000
O 89.655000 4.170000 33.360000
O 87.570000 0.000000 35.445000
O 89.655000 2.085000 39.615000
O 91.740000 2.085000 37.530000
O 89.655000 4.170000 37.530000
O 87.570000 0.000000 39.615000
O 89.655000 6.255000 2.085000
O 91.740000 6.255000 0.000000
O 89.655000 8.340000 0.000000
O 87.570000 4.170000 2.085000
O 89.655000 6.255000 6.255000
O 91.740000 6.255000 4.170000
O 89.655000 8.340000 4.170000
O 87.570000 4.170000 6.255000
O 89.655000 6.255000 10.425000
O 91.740000 6.255000 8.340000
O 89.655000 8.340000 8.340000
O 87.570000 4.170000 10.425000
O 89.655000 6.255000 14.595000
O 91.740000 6.255000 12.510000
O 89.655000 8.340000 12.510000
O 87.570000 4.170000 14.595000
O 89.655000 6.255000 18.765000
O 91.740000 6.255000 16.680000
O 89.655000 8.340000 16.680000
O 87.570000 4.170000 18.765000
O 89.655000 6.255000 22.935000
O 91.740000 6.255000 20.850000
O 89.655000 8.340000 20.850000
O 87.570000 4.170000 22.935000
O 89.655000 6.255000 27.105000
O 91.740000 6.255000 25.020000
O 89.655000 8.340000 25.020000
O 87.570000 4.170000 27.105000
O 89.655000 6.255000 31.275000
O 91.740000 6.255000 29.190000
O 89.655000 8.340000 29.190000
O 87.570000 4.170000 31.275000
O 89.655000 6.255000 35.445000
O 91.740000 6.255000 33.360000
O 89.655000 8.340000 33.360000
O 87.570000 4.170000 35.445000
O 89.655000 6.255000 39.615000
O 91.740000 6.255000 37.530000
O 89.655000 8.340000 37.530000
O 87.570000 4.170000 39.615000
O 89.655000 10.425000 2.085000
O 91.740000 10.425000 0.000000
O 89.655000 12.510000 0.000000
O 87.570000 8.340000 2.085000
O 89.655000 10.425000 6.255000
O 91.740000 10.425000 4.170000
O 89.655000 12.510000 4.170000
O 87.570000 8.340000 6.255000
O 89.655000 10.425000 10.425000
O 91.740000 10.425000 8.340000
O 89.655000 12.510000 8.340000
O 87.570000 8.340000 10.425000
O 89.655000 10.425000 14.595000
O 91.740000 10.425000 12.510000
O 89.655000 12.510000 12.510000
O 87.570000 8.340000 14.595000
O 89.655000 10.425000 18.765000
O 91.740000 10.425000 16.680000
O 89.655000 12.510000 16.680000
O 87.570000 8.340000 18.765000
O 89.655000 10.425000 22.935000
O 91.740000 10.425000 20.850000
O 89.655000 12.510000 20.850000
O 87.570000 8.340000 22.935000
O 89.655000 10.425000 27.105000
O 91.740000 10.425000 25.020000
O 89.655000 12.510000 25.020000
O 87.570000 8.340000 27.105000
O 89.655000 10.425000 31.275000
O 91.740000 10.425000 29.190000
O 89.655000 12.510000 29.190000
O 87.570000 8.340000 31.275000
O 89.655000 10.425000 35.445000
O 91.740000 10.425000 33.360000
O 89.655000 12.510000 33.360000
O 87.570000 8.340000 35.445000
O 89.655000 14.595000 2.085000
O 91.740000 14.595000 0.000000
O 89.655000 16.680000 0.000000
O 87.570000 12.510000 2.085000
O 89.655000 14.595000 6.255000
O 91.740000 14.595000 4.170000
O 89.655000 16.680000 4.170000
O 87.570000 12.510000 6.255000
O 89.655000 14.595000 10.425000
O 91.740000 14.595000 8.340000
O 89.655000 16.680000 8.340000
O 87.570000 12.510000 10.425000
O 89.655000 14.595000 14.595000
O 91.740000 14.595000 12.510000
O 89.655000 16.680000 12.510000
O 87.570000 12.510000 14.595000
O 89.655000 14.595000 18.765000
O 91.740000 14.595000 16.680000
O 89.655000 16.680000 16.680000
O 87.570000 12.510000 18.765000
O 89.655000 14.595000 22.935000
O 91.740000 14.595000 20.850000
O 89.655000 16.680000 20.850000
O 87.570000 12.510000 22.935000
O 89.655000 14.595000 27.105000
O 91.740000 14.595000 25.020000
O 89.655000 16.680000 25.020000
O 87.570000 12.510000 27.105000
O 89.655000 14.595000 31.275000
O 91.740000 14.595000 29.190000
O 89.655000 16.680000 29.190000
O 87.570000 12.510000 31.275000
O 89.655000 18.765000 2.085000
O 91.740000 18.765000 0.000000
O 89.655000 20.850000 0.000000
O 87.570000 16.680000 2.085000
O 89.655000 18.765000 6.255000
O 91.740000 18.765000 4.170000
O 89.655000 20.850000 4.170000
O 87.570000 16.680000 6.255000
O 89.655000 18.765000 10.425000
O 91.740000 18.765000 8.340000
O 89.655000 20.850000 8.340000
O 87.570000 16.680000 10.425000
O 89.655000 18.765000 14.595000
O 91.740000 18.765000 12.510000
O 89.655000 20.850000 12.510000
O 87.570000 16.680000 14.595000
O 89.655000 18.765000 18.765000
O 91.740000 18.765000 16.680000
O 89.655000 20.850000 16.680000
O 87.570000 16.680000 18.765000
O 89.655000 18.765000 22.935000
O 91.740000 18.765000 20.850000
O 89.655000 20.850000 20.850000
O 87.570000 16.680000 22.935000
O 89.655000 18.765000 27.105000
O 91.740000 18.765000 25.020000
O 89.655000 20.850000 25.020000
O 87.570000 16.680000 27.105000
O 89.655000 22.935000 2.085000
O 91.740000 22.935000 0.000000
O 89.655000 25.020000 0.000000
O 87.570000 20.850000 2.085000
O 89.655000 22.935000 6.255000
O 91.740000 22.935000 4.170000
O 89.655000 25.020000 4.170000
O 87.570000 20.850000 6.255000
O 89.655000 22.935000 10.425000
O 91.740000 22.935000 8.340000
O 89.655000 25.020000 8.340000
O 87.570000 20.850000 10.425000
O 89.655000 22.935000 14.595000
O 91.740000 22.935000 12.510000
O 89.655000 25.020000 12.510000
O 87.570000 20.850000 14.595000
O 89.655000 22.935000 18.765000
O 91.740000 22.935000 16.680000
O 89.655000 25.020000 16.680000
O 87.570000 20.850000 18.765000
O 89.655000 22.935000 22.935000
O 91.740000 22.935000 20.850000
O 89.655000 25.020000 20.850000
O 87.570000 20.850000 22.935000
O 89.655000 22.935000 27.105000
O 91.740000 22.935000 25.020000
O 89.655000 25.020000 25.020000
O 89.655000 25.020000 29.190000
O 89.655000 27.105000 2.085000
O 91.740000 27.105000 0.000000
O 89.655000 29.190000 0.000000
O 87.570000 25.020000 2.085000
O 89.655000 27.105000 6.255000
O 91.740000 27.105000 4.170000
O 89.655000 29.190000 4.170000
O 87.570000 25.020000 6.255000
O 89.655000 27.105000 10.425000
O 91.740000 27.105000 8.340000
O 89.655000 29.190000 8.340000
O 87.570000 25.020000 10.425000
O 89.655000 27.105000 14.595000
O 91.740000 27.105000 12.510000
O 89.655000 29.190000 12.510000
O 87.570000 25.020000 14.595000
O 89.655000 27.105000 18.765000
O 91.740000 27.105000 16.680000
O 89.655000 29.190000 16.680000
O 87.570000 25.020000 18.765000
O 89.655000 27.105000 22.935000
O 91.740000 27.105000 20.850000
O 89.655000 29.190000 20.850000
O 87.570000 25.020000 22.935000
O 89.655000 27.105000 27.105000
O 91.740000 27.105000 25.020000
O 89.655000 29.190000 25.020000
O 87.570000 25.020000 27.105000
O 89.655000 27.105000 31.275000
O 91.740000 27.105000 29.190000
O 89.655000 29.190000 29.190000
O 89.655000 29.190000 33.360000
O 89.655000 31.275000 2.085000
O 91.740000 31.275000 0.000000
O 89.655000 33.360000 0.000000
O 87.570000 29.190000 2.085000
O 89.655000 31.275000 6.255000
O 91.740000 31.275000 4.170000
O 89.655000 33.360000 4.170000
O 87.570000 29.190000 6.255000
O 89.655000 31.275000 10.425000
O 91.740000 31.275000 8.340000
O 89.655000 33.360000 8.340000
O 87.570000 29.190000 10.425000
O 89.655000 31.275000 14.595000
O 91.740000 31.275000 12.510000
O 89.655000 33.360000 12.510000
O 87.570000 29.190000 14.595000
O 89.655000 31.275000 18.765000
O 91.740000 31.275000 16.680000
O 89.655000 33.360000 16.680000
O 87.570000 29.190000 18.765000
O 89.655000 31.275000 22.935000
O 91.740000 31.275000 20.850000
O 89.655000 33.360000 20.850000
O 87.570000 29.190000 22.935000
O 89.655000 31.275000 27.105000
O 91.740000 31.275000 25.020000
O 89.655000 33.360000 25.020000
O 87.570000 29.190000 27.105000
O 89.655000 31.275000 31.275000
O 91.740000 31.275000 29.190000
O 89.655000 33.360000 29.190000
O 87.570000 29.190000 31.275000
O 89.655000 31.275000 35.445000
O 91.740000 31.275000 33.360000
O 89.655000 33.360000 33.360000
O 89.655000 33.360000 37.530000
O 89.655000 35.445000 2.085000
O 91.740000 35.445000 0.000000
O 89.655000 37.530000 0.000000
O 87.570000 33.360000 2.085000
O 89.655000 35.445000 6.255000
O 91.740000 35.445000 4.170000
O 89.655000 37.530000 4.170000
O 87.570000 33.360000 6.255000
O 89.655000 35.445000 10.425000
O 91.740000 35.445000 8.340000
O 89.655000 37.530000 8.340000
O 87.570000 33.360000 10.425000
O 89.655000 35.445000 14.595000
O 91.740000 35.445000 12.510000
O 89.655000 37.530000 12.510000
O 87.570000 33.360000 14.595000
O 89.655000 35.445000 18.765000
O 91.740000 35.445000 16.680000
O 89.655000 37.530000 16.680000
O 87.570000 33.360000 18.765000
O 89.655000 35.445000 22.935000
O 91.740000 35.445000 20.850000
O 89.655000 37.530000 20.850000
O 87.570000 33.360000 22.935000
O 89.655000 35.445000 27.105000
O 91.740000 35.445000 25.020000
O 89.655000 37.530000 25.020000
O 87.570000 33.360000 27.105000
O 89.655000 35.445000 31.275000
O 91.740000 35.445000 29.190000
O 89.655000 37.530000 29.190000
O 87.570000 33.360000 31.275000
O 89.655000 35.445000 35.445000
O 91.740000 35.445000 33.360000
O 89.655000 37.530000 33.360000
O 87.570000 33.360000 35.445000
O 89.655000 35.445000 39.615000
O 91.740000 35.445000 37.530000
O 89.655000 37.530000 37.530000
O 89.655000 39.615000 2.085000
O 91.740000 39.615000 0.000000
O 89.655000 0.000000 0.000000
O 87.570000 37.530000 2.085000
O 89.655000 39.615000 6.255000
O 91.740000 39.615000 4.170000
O 89.655000 0.000000 4.170000
O 87.570000 37.530000 6.255000
O 89.655000 39.615000 10.425000
O 91.740000 39.615000 8.340000
O 89.655000 0.000000 8.340000
O 87.570000 37.530000 10.425000
O 89.655000 39.615000 14.595000
O 91.740000 39.615000 12.510000
O 89.655000 0.000000 12.510000
O 87.570000 37.530000 14.595000
O 89.655000 39.615000 18.765000
O 91.740000 39.615000 16.680000
O 89.655000 0.000000 16.680000
O 87.570000 37.530000 18.765000
O 89.655000 39.615000 22.935000
O 91.740000 39.615000 20.850000
O 89.655000 0.000000 20.850000
O 87.570000 37.530000 22.935000
O 89.655000 39.615000 27.105000
O 91.740000 39.615000 25.020000
O 89.655000 0.000000 25.020000
O 87.570000 37.530000 27.105000
O 89.655000 39.615000 31.275000
O 91.740000 39.615000 29.190000
O 89.655000 0.000000 29.190000
O 87.570000 37.530000 31.275000
O 89.655000 39.615000 35.445000
O 91.740000 39.615000 33.360000
O 89.655000 0.000000 33.360000
O 87.570000 37.530000 35.445000
O 89.655000 39.615000 39.615000
O 91.740000 39.615000 37.530000
O 89.655000 0.000000 37.530000
O 87.570000 37.530000 39.615000
O 93.825000 2.085000 2.085000
O 95.910000 2.085000 0.000000
O 93.825000 4.170000 0.000000
O 91.740000 0.000000 2.085000
O 93.825000 2.085000 6.255000
O 95.910000 2.085000 4.170000
O 93.825000 4.170000 4.170000
O 91.740000 0.000000 6.255000
O 93.825000 2.085000 10.425000
O 95.910000 2.085000 8.340000
O 93.825000 4.170000 8.340000
O 91.740000 0.000000 10.425000
O 93.825000 2.085000 14.595000
O 95.910000 2.085000 12.510000
O 93.825000 4.170000 12.510000
O 91.740000 0.000000 14.595000
O 93.825000 2.085000 18.765000
O 95.910000 2.085000 16.680000
O 93.825000 4.170000 16.680000
O 91.740000 0.000000 18.765000
O 93.825000 2.085000 22.935000
O 95.910000 2.085000 20.850000
O 93.825000 4.170000 20.850000
O 91.740000 0.000000 22.935000
O 93.825000 2.085000 27.105000
O 95.910000 2.085000 25.020000
O 93.825000 4.170000 25.020000
O 91.740000 0.000000 27.105000
O 93.825000 2.085000 31.275000
O 95.910000 2.085000 29.190000
O 93.825000 4.170000 29.190000
O 91.740000 0.000000 31.275000
O 93.825000 2.085000 35.445000
O 95.910000 2.085000 33.360000
O 93.825000 4.170000 33.360000
O 91.740000 0.000000 35.445000
O 93.825000 2.085000 39.615000
O 95.910000 2.085000 37.530000
O 93.825000 4.170000 37.530000
O 91.740000 0.000000 39.615000
O 93.825000 6.255000 2.085000
O 95.910000 6.255000 0.000000
O 93.825000 8.340000 0.000000
O 91.740000 4.170000 2.085000
O 93.825000 6.255000 6.255000
O 95.910000 6.255000 4.170000
O 93.825000 8.340000 4.170000
O 91.740000 4.170000 6.255000
O 93.825000 6.255000 10.425000
O 95.910000 6.255000 8.340000
O 93.825000 8.340000 8.340000
O 91.740000 4.170000 10.425000
O 93.825000 6.255000 14.595000
O 95.910000 6.255000 12.510000
O 93.825000 8.340000 12.510000
O 91.740000 4.170000 14.595000
O 93.825000 6.255000 18.765000
O 95.910000 6.255000 16.680000
O 93.825000 8.340000 16.680000
O 91.740000 4.170000 18.765000
O 93.825000 6.255000 22.935000
O 95.910000 6.255000 20.850000
O 93.825000 8.340000 20.850000
O 91.740000 4.170000 22.935000
O 93.825000 6.255000 27.105000
O 95.910000 6.255000 25.020000
O 93.825000 8.340000 25.020000
O 91.740000 4.170000 27.105000
O 93.825000 6.255000 31.275000
O 95.910000 6.255000 29.190000
O 93.825000 8.340000 29.190000
O 91.740000 4.170000 31.275000
O 93.825000 6.255000 35.445000
O 95.910000 6.255000 33.360000
O 93.825000 8.340000 33.360000
O 91.740000 4.170000 35.445000
O 93.825000 6.255000 39.615000
O 95.910000 6.255000 37.530000
O 93.825000 8.340000 37.530000
O 91.740000 4.170000 39.615000
O 93.825000 10.425000 2.085000
O 95.910000 10.425000 0.000000
O 93.825000 12.510000 0.000000
O 91.740000 8.340000 2.085000
O 93.825000 10.425000 6.255000
O 95.910000 10.425000 4.170000
O 93.825000 12.510000 4.170000
O 91.740000 8.340000 6.255000
O 93.825000 10.425000 10.425000
O 95.910000 10.425000 8.340000
O 93.825000 12.510000 8.340000
O 91.740000 8.340000 10.425000
O 93.825000 10.425000 14.595000
O 95.910000 10.425000 12.510000
O 93.825000 12.510000 12.510000
O 91.740000 8.340000 14.595000
O 93.825000 10.425000 18.765000
O 95.910000 10.425000 16.680000
O 93.825000 12.510000 16.680000
O 91.740000 8.340000 18.765000
O 93.825000 10.425000 22.935000
O 95.910000 10.425000 20.850000
O 93.825000 12.510000 20.850000
O 91.740000 8.340000 22.935000
O 93.825000 10.425000 27.105000
O 95.910000 10.425000 25.020000
O 93.825000 12.510000 25.020000
O 91.740000 8.340000 27.105000
O 93.825000 10.425000 31.275000
O 95.910000 10.425000 29.190000
O 93.825000 12.510000 29.190000
O 91.740000 8.340000 31.275000
O 93.825000 10.425000 35.445000
O 95.910000 10.425000 33.360000
O 93.825000 12.510000 33.360000
O 91.740000 8.340000 35.445000
O 93.825000 14.595000 2.085000
O 95.910000 14.595000 0.000000
O 93.825000 16.680000 0.000000
O 91.740000 12.510000 2.085000
O 93.825000 14.595000 6.255000
O 95.910000 14.595000 4.170000
O 93.825000 16.680000 4.170000
O 91.740000 12.510000 6.255000
O 93.825000 14.595000 10.425000
O 95.910000 14.595000 8.340000
O 93.825000 16.680000 8.340000
O 91.740000 12.510000 10.425000
O 93.825000 14.595000 14.595000
O 95.910000 14.595000 12.510000
O 93.825000 16.680000 12.510000
O 91.740000 12.510000 14.595000
O 93.825000 14.595000 18.765000
O 95.910000 14.595000 16.680000
O 93.825000 16.680000 16.680000
O 91.740000 12.510000 18.765000
O 93.825000 14.595000 22.935000
O 95.910000 14.595000 20.850000
O 93.825000 16.680000 20.850000
O 91.740000 12.510000 22.935000
O 93.825000 14.595000 27.105000
O 95.910000 14.595000 25.020000
O 93.825000 16.680000 25.020000
O 91.740000 12.510000 27.105000
O 93.825000 14.595000 31.275000
O 95.910000 14.595000 29.190000
O 93.825000 16.680000 29.190000
O 91.740000 12.510000 31.275000
O 93.825000 18.765000 2.085000
O 95.910000 18.765000 0.000000
O 93.825000 20.850000 0.000000
O 91.740000 16.680000 2.085000
O 93.825000 18.765000 6.255000
O 95.910000 18.765000 4.170000
O 93.825000 20.850000 4.170000
O 91.740000 16.680000 6.255000
O 93.825000 18.765000 10.425000
O 95.910000 18.765000 8.340000
O 93.825000 20.850000 8.340000
O 91.740000 16.680000 10.425000
O 93.825000 18.765000 14.595000
O 95.910000 18.765000 12.510000
O 93.825000 20.850000 12.510000
O 91.740000 16.680000 14.595000
O 93.825000 18.765000 18.765000
O 95.910000 18.765000 16.680000
O 93.825000 20.850000 16.680000
O 91.740000 16.680000 18.765000
O 93.825000 18.765000 22.935000
O 95.910000 18.765000 20.850000
O 93.825000 20.850000 20.850000
O 91.740000 16.680000 22.935000
O 93.825000 18.765000 27.105000
O 95.910000 18.765000 25.020000
O 93.825000 20.850000 25.020000
O 91.740000 16.680000 27.105000
O 93.825000 22.935000 2.085000
O 95.910000 22.935000 0.000000
O 93.825000 25.020000 0.000000
O 91.740000 20.850000 2.085000
O 93.825000 22.935000 6.255000
O 95.910000 22.935000 4.170000
O 93.825000 25.020000 4.170000
O 91.740000 20.850000 6.255000
O 93.825000 22.935000 10.425000
O 95.910000 22.935000 8.340000
O 93.825000 25.020000 8.340000
O 91.740000 20.850000 10.425000
O 93.825000 22.935000 14.595000
O 95.910000 22.935000 12.510000
O 93.825000 25.020000 12.510000
O 91.740000 20.850000 14.595000
O 93.825000 22.935000 18.765000
O 95.910000 22.935000 16.680000
O 93.825000 25.020000 16.680000
O 91.740000 20.850000 18.765000
O 93.825000 22.935000 22.935000
O 95.910000 22.935000 20.850000
O 93.825000 25.020000 20.850000
O 91.740000 20.850000 22.935000
O 93.825000 22.935000 27.105000
O 95.910000 22.935000 25.020000
O 93.825000 25.020000 25.020000
O 93.825000 25.020000 29.190000
O 93.825000 27.105000 2.085000
O 95.910000 27.105000 0.000000
O 93.825000 29.190000 0.000000
O 91.740000 25.020000 2.085000
O 93.825000 27.105000 6.255000
O 95.910000 27.105000 4.170000
O 93.825000 29.190000 4.170000
O 91.740000 25.020000 6.255000
O 93.825000 27.105000 10.425000
O 95.910000 27.105000 8.340000
O 93.825000 29.190000 8.340000
O 91.740000 25.020000 10.425000
O 93.825000 27.105000 14.595000
O 95.910000 27.105000 12.510000
O 93.825000 29.190000 12.510000
O 91.740000 25.020000 14.595000
O 93.825000 27.105000 18.765000
O 95.910000 27.105000 16.680000
O 93.825000 29.190000 16.680000
O 91.740000 25.020000 18.765000
O 93.825000 27.105000 22.935000
O 95.910000 27.105000 20.850000
O 93.825000 29.190000 20.850000
O 91.740000 25.020000 22.935000
O 93.825000 27.105000 27.105000
O 95.910000 27.105000 25.020000
O 93.825000 29.190000 25.020000
O 91.740000 25.020000 27.105000
O 93.825000 27.105000 31.275000
O 95.910000 27.105000 29.190000
O 93.825000 29.190000 29.190000
O 93.825000 29.190000 33.360000
O 93.825000 31.275000 2.085000
O 95.910000 31.275000 0.000000
O 93.825000 33.360000 0.000000
O 91.740000 29.190000 2.085000
O 93.825000 31.275000 6.255000
O 95.910000 31.275000 4.170000
O 93.825000 33.360000 4.170000
O 91.740000 29.190000 6.255000
O 93.825000 31.275000 10.425000
O 95.910000 31.275000 8.340000
O 93.825000 33.360000 8.340000
O 91.740000 29.190000 10.425000
O 93.825000 31.275000 14.595000
O 95.910000 31.275000 12.510000
O 93.825000 33.360000 12.510000
O 91.740000 29.190000 14.595000
O 93.825000 31.275000 18.765000
O 95.910000 31.275000 16.680000
O 93.825000 33.360000 16.680000
O 91.740000 29.190000 18.765000
O 93.825000 31.275000 22.935000
O 95.910000 31.275000 20.850000
O 93.825000 33.360000 20.850000
O 91.740000 29.190000 22.935000
O 93.825000 31.275000 27.105000
O 95.910000 31.275000 25.020000
O 93.825000 33.360000 25.020000
O 91.740000 29.190000 27.105000
O 93.825000 31.275000 31.275000
O 95.910000 31.275000 29.190000
O 93.825000 33.360000 29.190000
O 91.740000 29.190000 31.275000
O 93.825000 31.275000 35.445000
O 95.910000 31.275000 33.360000
O 93.825000 33.360000 33.360000
O 93.825000 33.360000 37.530000
O 93.825000 35.445000 2.085000
O 95.910000 35.445000 0.000000
O 93.825000 37.530000 0.000000
O 91.740000 33.360000 2.085000
O 93.825000 35.445000 6.255000
O 95.910000 35.445000 4.170000
O 93.825000 37.530000 4.170000
O 91.740000 33.360000 6.255000
O 93.825000 35.445000 10.425000
O 95.910000 35.445000 8.340000
O 93.825000 37.530000 8.340000
O 91.740000 33.360000 10.425000
O 93.825000 35.445000 14.595000
O 95.910000 35.445000 12.510000
O 93.825000 37.530000 12.510000
O 91.740000 33.360000 14.595000
O 93.825000 35.445000 18.765000
O 95.910000 35.445000 16.680000
O 93.825000 37.530000 16.680000
O 91.740000 33.360000 18.765000
O 93.825000 35.445000 22.935000
O 95.910000 35.445000 20.850000
O 93.825000 37.530000 20.850000
O 91.740000 33.360000 22.935000
O 93.825000 35.445000 27.105000
O 95.910000 35.445000 25.020000
O 93.825000 37.530000 25.020000
O 91.740000 33.360000 27.105000
O 93.825000 35.445000 31.275000
O 95.910000 35.445000 29.190000
O 93.825000 37.530000 29.190000
O 91.740000 33.360000 31.275000
O 93.825000 35.445000 35.445000
O 95.910000 35.445000 33.360000
O 93.825000 37.530000 33.360000
O 91.740000 33.360000 35.445000
O 93.825000 35.445000 39.615000
O 95.910000 35.445000 37.530000
O 93.825000 37.530000 37.530000
O 93.825000 39.615000 2.085000
O 95.910000 39.615000 0.000000
O 93.825000 0.000000 0.000000
O 91.740000 37.530000 2.085000
O 93.825000 39.615000 6.255000
O 95.910000 39.615000 4.170000
O 93.825000 0.000000 4.170000
O 91.740000 37.530000 6.255000
O 93.825000 39.615000 10.425000
O 95.910000 39.615000 8.340000
O 93.825000 0.000000 8.340000
O 91.740000 37.530000 10.425000
O 93.825000 39.615000 14.595000
O 95.910000 39.615000 12.510000
O 93.825000 0.000000 12.510000
O 91.740000 37.530000 14.595000
O 93.825000 39.615000 18.765000
O 95.910000 39.615000 16.680000
O 93.825000 0.000000 16.680000
O 91.740000 37.530000 18.765000
O 93.825000 39.615000 22.935000
O 95.910000 39.615000 20.850000
O 93.825000 0.000000 20.850000
O 91.740000 37.530000 22.935000
O 93.825000 39.615000 27.105000
O 95.910000 39.615000 25.020000
O 93.825000 0.000000 25.020000
O 91.740000 37.530000 27.105000
O 93.825000 39.615000 31.275000
O 95.910000 39.615000 29.190000
O 93.825000 0.000000 29.190000
O 91.740000 37.530000 31.275000
O 93.825000 39.615000 35.445000
O 95.910000 39.615000 33.360000
O 93.825000 0.000000 33.360000
O 91.740000 37.530000 35.445000
O 93.825000 39.615000 39.615000
O 95.910000 39.615000 37.530000
O 93.825000 0.000000 37.530000
O 91.740000 37.530000 39.615000
O 97.995000 2.085000 2.085000
O 100.080000 2.085000 0.000000
O 97.995000 4.170000 0.000000
O 95.910000 0.000000 2.085000
O 97.995000 2.085000 6.255000
O 100.080000 2.085000 4.170000
O 97.995000 4.170000 4.170000
O 95.910000 0.000000 6.255000
O 97.995000 2.085000 10.425000
O 100.080000 2.085000 8.340000
O 97.995000 4.170000 8.340000
O 95.910000 0.000000 10.425000
O 97.995000 2.085000 14.595000
O 100.080000 2.085000 12.510000
O 97.995000 4.170000 12.510000
O 95.910000 0.000000 14.595000
O 97.995000 2.085000 18.765000
O 100.080000 2.085000 16.680000
O 97.995000 4.170000 16.680000
O 95.910000 0.000000 18.765000
O 97.995000 2.085000 22.935000
O 100.080000 2.085000 20.850000
O 97.995000 4.170000 20.850000
O 95.910000 0.000000 22.935000
O 97.995000 2.085000 27.105000
O 100.080000 2.085000 25.020000
O 97.995000 4.170000 25.020000
O 95.910000 0.000000 27.105000
O 97.995000 2.085000 31.275000
O 100.080000 2.085000 29.190000
O 97.995000 4.170000 29.190000
O 95.910000 0.000000 31.275000
O 97.995000 2.085000 35.445000
O 100.080000 2.085000 33.360000
O 97.995000 4.170000 33.360000
O 95.910000 0.000000 35.445000
O 97.995000 2.085000 39.615000
O 100.080000 2.085000 37.530000
O 97.995000 4.170000 37.530000
O 95.910000 0.000000 39.615000
O 97.995000 6.255000 2.085000
O 100.080000 6.255000 0.000000
O 97.995000 8.340000 0.000000
O 95.910000 4.170000 2.085000
O 97.995000 6.255000 6.255000
O 100.080000 6.255000 4.170000
O 97.995000 8.340000 4.170000
O 95.910000 4.170000 6.255000
O 97.995000 6.255000 10.425000
O 100.080000 6.255000 8.340000
O 97.995000 8.340000 8.340000
O 95.910000 4.170000 10.425000
O 97.995000 6.255000 14.595000
O 100.080000 6.255000 12.510000
O 97.995000 8.340000 12.510000
O 95.910000 4.170000 14.595000
O 97.995000 6.255000 18.765000
O 100.080000 6.255000 16.680000
O 97.995000 8.340000 16.680000
O 95.910000 4.170000 18.765000
O 97.995000 6.255000 22.935000
O 100.080000 6.255000 20.850000
O 97.995000 8.340000 20.850000
O 95.910000 4.170000 22.935000
O 97.995000 6.255000 27.105000
O 100.080000 6.255000 25.020000
O 97.995000 8.340000 25.020000
O 95.910000 4.170000 27.105000
O 97.995000 6.255000 31.275000
O 100.080000 6.255000 29.190000
O 97.995000 8.340000 29.190000
O 95.910000 4.170000 31.275000
O 97.995000 6.255000 35.445000
O 100.080000 6.255000 33.360000
O 97.995000 8.340000 33.360000
O 95.910000 4.170000 35.445000
O 97.995000 6.255000 39.615000
O 100.080000 6.255000 37.530000
O 97.995000 8.340000 37.530000
O 95.910000 4.170000 39.615000
O 97.995000 10.425000 2.085000
O 100.080000 10.425000 0.000000
O 97.995000 12.510000 0.000000
O 95.910000 8.340000 2.085000
O 97.995000 10.425000 6.255000
O 100.080000 10.425000 4.170000
O 97.995000 12.510000 4.170000
O 95.910000 8.340000 6.255000
O 97.995000 10.425000 10.425000
O 100.080000 10.425000 8.340000
O 97.995000 12.510000 8.340000
O 95.910000 8.340000 10.425000
O 97.995000 10.425000 14.595000
O 100.080000 10.425000 12.510000
O 97.995000 12.510000 12.510000
O 95.910000 8.340000 14.595000
O 97.995000 10.425000 18.765000
O 100.080000 10.425000 16.680000
O 97.995000 12.510000 16.680000
O 95.910000 8.340000 18.765000
O 97.995000 10.425000 22.935000
O 100.080000 10.425000 20.850000
O 97.995000 12.510000 20.850000
O 95.910000 8.340000 22.935000
O 97.995000 10.425000 27.105000
O 100.080000 10.425000 25.020000
O 97.995000 12.510000 25.020000
O 95.910000 8.340000 27.105000
O 97.995000 10.425000 31.275000
O 100.080000 10.425000 29.190000
O 97.995000 12.510000 29.190000
O 95.910000 8.340000 31.275000
O 97.995000 10.425000 35.445000
O 100.080000 10.425000 33.360000
O 97.995000 12.510000 33.360000
O 95.910000 8.340000 35.445000
O 97.995000 14.595000 2.085000
O 100.080000 14.595000 0.000000
O 97.995000 16.680000 0.000000
O 95.910000 12.510000 2.085000
O 97.995000 14.595000 6.255000
O 100.080000 14.595000 4.170000
O 97.995000 16.680000 4.170000
O 95.910000 12.510000 6.255000
O 97.995000 14.595000 10.425000
O 100.080000 14.595000 8.340000
O 97.995000 16.680000 8.340000
O 95.910000 12.510000 10.425000
O 97.995000 14.595000 14.595000
O 100.080000 14.595000 12.510000
O 97.995000 16.680000 12.510000
O 95.910000 12.510000 14.595000
O 97.995000 14.595000 18.765000
O 100.080000 14.595000 16.680000
O 97.995000 16.680000 16.680000
O 95.910000 12.510000 18.765000
O 97.995000 14.595000 22.935000
O 100.080000 14.595000 20.850000
O 97.995000 16.680000 20.850000
O 95.910000 12.510000 22.935000
O 97.995000 14.595000 27.105000
O 100.080000 14.595000 25.020000
O 97.995000 16.680000 25.020000
O 95.910000 12.510000 27.105000
O 97.995000 14.595000 31.275000
O 100.080000 14.595000 29.190000
O 97.995000 16.680000 29.190000
O 95.910000 12.510000 31.275000
O 97.995000 18.765000 2.085000
O 100.080000 18.765000 0.000000
O 97.995000 20.850000 0.000000
O 95.910000 16.680000 2.085000
O 97.995000 18.765000 6.255000
O 100.080000 18.765000 4.170000
O 97.995000 20.850000 4.170000
O 95.910000 16.680000 6.255000
O 97.995000 18.765000 10.425000
O 100.080000 18.765000 8.340000
O 97.995000 20.850000 8.340000
O 95.910000 16.680000 10.425000
O 97.995000 18.765000 14.595000
O 100.080000 18.765000 12.510000
O 97.995000 20.850000 12.510000
O 95.910000 16.680000 14.595000
O 97.995000 18.765000 18.765000
O 100.080000 18.765000 16.680000
O 97.995000 20.850000 16.680000
O 95.910000 16.680000 18.765000
O 97.995000 18.765000 22.935000
O 100.080000 18.765000 20.850000
O 97.995000 20.850000 20.850000
O 95.910000 16.680000 22.935000
O 97.995000 18.765000 27.105000
O 100.080000 18.765000 25.020000
O 97.995000 20.850000 25.020000
O 95.910000 16.680000 27.105000
O 97.995000 22.935000 2.085000
O 100.080000 22.935000 0.000000
O 97.995000 25.020000 0.000000
O 95.910000 20.850000 2.085000
O 97.995000 22.935000 6.255000
O 100.080000 22.935000 4.170000
O 97.995000 25.020000 4.170000
O 95.910000 20.850000 6.255000
O 97.995000 22.935000 10.425000
O 100.080000 22.935000 8.340000
O 97.995000 25.020000 8.340000
O 95.910000 20.850000 10.425000
O 97.995000 22.935000 14.595000
O 100.080000 22.935000 12.510000
O 97.995000 25.020000 12.510000
O 95.910000 20.850000 14.595000
O 97.995000 22.935000 18.765000
O 100.080000 22.935000 16.680000
O 97.995000 25.020000 16.680000
O 95.910000 20.850000 18.765000
O 97.995000 22.935000 22.935000
O 100.080000 22.935000 20.850000
O 97.995000 25.020000 20.850000
O 95.910000 20.850000 22.935000
O 97.995000 22.935000 27.105000
O 100.080000 22.935000 25.020000
O 97.995000 25.020000 25.020000
O 97.995000 25.020000 29.190000
O 97.995000 27.105000 2.085000
O 100.080000 27.105000 0.000000
O 97.995000 29.190000 0.000000
O 95.910000 25.020000 2.085000
O 97.995000 27.105000 6.255000
O 100.080000 27.105000 4.170000
O 97.995000 29.190000 4.170000
O 95.910000 25.020000 6.255000
O 97.995000 27.105000 10.425000
O 100.080000 27.105000 8.340000
O 97.995000 29.190000 8.340000
O 95.910000 25.020000 10.425000
O 97.995000 27.105000 14.595000
O 100.080000 27.105000 12.510000
O 97.995000 29.190000 12.510000
O 95.910000 25.020000 14.595000
O 97.995000 27.105000 18.765000
O 100.080000 27.105000 16.680000
O 97.995000 29.190000 16.680000
O 95.910000 25.020000 18.765000
O 97.995000 27.105000 22.935000
O 100.080000 27.105000 20.850000
O 97.995000 29.190000 20.850000
O 95.910000 25.020000 22.935000
O 97.995000 27.105000 27.105000
O 100.080000 27.105000 25.020000
O 97.995000 29.190000 25.020000
O 95.910000 25.020000 27.105000
O 97.995000 27.105000 31.275000
O 100.080000 27.105000 29.190000
O 97.995000 29.190000 29.190000
O 97.995000 29.190000 33.360000
O 97.995000 31.275000 2.085000
O 100.080000 31.275000 0.000000
O 97.995000 33.360000 0.000000
O 95.910000 29.190000 2.085000
O 97.995000 31.275000 6.255000
O 100.080000 31.275000 4.170000
O 97.995000 33.360000 4.170000
O 95.910000 29.190000 6.255000
O 97.995000 31.275000 10.425000
O 100.080000 31.275000 8.340000
O 97.995000 33.360000 8.340000
O 95.910000 29.190000 10.425000
O 97.995000 31.275000 14.595000
O 100.080000 31.275000 12.510000
O 97.995000 33.360000 12.510000
O 95.910000 29.190000 14.595000
O 97.995000 31.275000 18.765000
O 100.080000 31.275000 16.680000
O 97.995000 33.360000 16.680000
O 95.910000 29.190000 18.765000
O 97.995000 31.275000 22.935000
O 100.080000 31.275000 20.850000
O 97.995000 33.360000 20.850000
O 95.910000 29.190000 22.935000
O 97.995000 31.275000 27.105000
O 100.080000 31.275000 25.020000
O 97.995000 33.360000 25.020000
O 95.910000 29.190000 27.105000
O 97.995000 31.275000 31.275000
O 100.080000 31.275000 29.190000
O 97.995000 33.360000 29.190000
O 95.910000 29.190000 31.275000
O 97.995000 31.275000 35.445000
O 100.080000 31.275000 33.360000
O 97.995000 33.360000 33.360000
O 97.995000 33.360000 37.530000
O 97.995000 35.445000 2.085000
O 100.080000 35.445000 0.000000
O 97.995000 37.530000 0.000000
O 95.910000 33.360000 2.085000
O 97.995000 35.445000 6.255000
O 100.080000 35.445000 4.170000
O 97.995000 37.530000 4.170000
O 95.910000 33.360000 6.255000
O 97.995000 35.445000 10.425000
O 100.080000 35.445000 8.340000
O 97.995000 37.530000 8.340000
O 95.910000 33.360000 10.425000
O 97.995000 35.445000 14.595000
O 100.080000 35.445000 12.510000
O 97.995000 37.530000 12.510000
O 95.910000 33.360000 14.595000
O 97.995000 35.445000 18.765000
O 100.080000 35.445000 16.680000
O 97.995000 37.530000 16.680000
O 95.910000 33.360000 18.765000
O 97.995000 35.445000 22.935000
O 100.080000 35.445000 20.850000
O 97.995000 37.530000 20.850000
O 95.910000 33.360000 22.935000
O 97.995000 35.445000 27.105000
O 100.080000 35.445000 25.020000
O 97.995000 37.530000 25.020000
O 95.910000 33.360000 27.105000
O 97.995000 35.445000 31.275000
O 100.080000 35.445000 29.190000
O 97.995000 37.530000 29.190000
O 95.910000 33.360000 31.275000
O 97.995000 35.445000 35.445000
O 100.080000 35.445000 33.360000
O 97.995000 37.530000 33.360000
O 95.910000 33.360000 35.445000
O 97.995000 35.445000 39.615000
O 100.080000 35.445000 37.530000
O 97.995000 37.530000 37.530000
O 97.995000 39.615000 2.085000
O 100.080000 39.615000 0.000000
O 97.995000 0.000000 0.000000
O 95.910000 37.530000 2.085000
O 97.995000 39.615000 6.255000
O 100.080000 39.615000 4.170000
O 97.995000 0.000000 4.170000
O 95.910000 37.530000 6.255000
O 97.995000 39.615000 10.425000
O 100.080000 39.615000 8.340000
O 97.995000 0.000000 8.340000
O 95.910000 37.530000 10.425000
O 97.995000 39.615000 14.595000
O 100.080000 39.615000 12.510000
O 97.995000 0.000000 12.510000
O 95.910000 37.530000 14.595000
O 97.995000 39.615000 18.765000
O 100.080000 39.615000 16.680000
O 97.995000 0.000000 16.680000
O 95.910000 37.530000 18.765000
O 97.995000 39.615000 22.935000
O 100.080000 39.615000 20.850000
O 97.995000 0.000000 20.850000
O 95.910000 37.530000 22.935000
O 97.995000 39.615000 27.105000
O 100.080000 39.615000 25.020000
O 97.995000 0.000000 25.020000
O 95.910000 37.530000 27.105000
O 97.995000 39.615000 31.275000
O 100.080000 39.615000 29.190000
O 97.995000 0.000000 29.190000
O 95.910000 37.530000 31.275000
O 97.995000 39.615000 35.445000
O 100.080000 39.615000 33.360000
O 97.995000 0.000000 33.360000
O 95.910000 37.530000 35.445000
O 97.995000 39.615000 39.615000
O 100.080000 39.615000 37.530000
O 97.995000 0.000000 37.530000
O 95.910000 37.530000 39.615000
O 102.165000 2.085000 2.085000
O 104.250000 2.085000 0.000000
O 102.165000 4.170000 0.000000
O 100.080000 0.000000 2.085000
O 102.165000 2.085000 6.255000
O 104.250000 2.085000 4.170000
O 102.165000 4.170000 4.170000
O 100.080000 0.000000 6.255000
O 102.165000 2.085000 10.425000
O 104.250000 2.085000 8.340000
O 102.165000 4.170000 8.340000
O 100.080000 0.000000 10.425000
O 102.165000 2.085000 14.595000
O 104.250000 2.085000 12.510000
O 102.165000 4.170000 12.510000
O 100.080000 0.000000 14.595000
O 102.165000 2.085000 18.765000
O 104.250000 2.085000 16.680000
O 102.165000 4.170000 16.680000
O 100.080000 0.000000 18.765000
O 102.165000 2.085000 22.935000
O 104.250000 2.085000 20.850000
O 102.165000 4.170000 20.850000
O 100.080000 0.000000 22.935000
O 102.165000 2.085000 27.105000
O 104.250000 2.085000 25.020000
O 102.165000 4.170000 25.020000
O 100.080000 0.000000 27.105000
O 102.165000 2.085000 31.275000
O 104.250000 2.085000 29.190000
O 102.165000 4.170000 29.190000
O 100.080000 0.000000 31.275000
O 102.165000 2.085000 35.445000
O 104.250000 2.085000 33.360000
O 102.165000 4.170000 33.360000
O 100.080000 0.000000 35.445000
O 102.165000 2.085000 39.615000
O 104.250000 2.085000 37.530000
O 102.165000 4.170000 37.530000
O 100.080000 0.000000 39.615000
O 102.165000 6.255000 2.085000
O 104.250000 6.255000 0.000000
O 102.165000 8.340000 0.000000
O 100.080000 4.170000 2.085000
O 102.165000 6.255000 6.255000
O 104.250000 6.255000 4.170000
O 102.165000 8.340000 4.170000
O 100.080000 4.170000 6.255000
O 102.165000 6.255000 10.425000
O 104.250000 6.255000 8.340000
O 102.165000 8.340000 8.340000
O 100.080000 4.170000 10.425000
O 102.165000 6.255000 14.595000
O 104.250000 6.255000 12.510000
O 102.165000 8.340000 12.510000
O 100.080000 4.170000 14.595000
O 102.165000 6.255000 18.765000
O 104.250000 6.255000 16.680000
O 102.165000 8.340000 16.680000
O 100.080000 4.170000 18.765000
O 102.165000 6.255000 22.935000
O 104.250000 6.255000 20.850000
O 102.165000 8.340000 20.850000
O 100.080000 4.170000 22.935000
O 102.165000 6.255000 27.105000
O 104.250000 6.255000 25.020000
O 102.165000 8.340000 25.020000
O 100.080000 4.170000 27.105000
O 102.165000 6.255000 31.275000
O 104.250000 6.255000 29.190000
O 102.165000 8.340000 29.190000
O 100.080000 4.170000 31.275000
O 102.165000 6.255000 35.445000
O 104.250000 6.255000 33.360000
O 102.165000 8.340000 33.360000
O 100.080000 4.170000 35.445000
O 102.165000 6.255000 39.615000
O 104.250000 6.255000 37.530000
O 102.165000 8.340000 37.530000
O 100.080000 4.170000 39.615000
O 102.165000 10.425000 2.085000
O 104.250000 10.425000 0.000000
O 102.165000 12.510000 0.000000
O 100.080000 8.340000 2.085000
O 102.165000 10.425000 6.255000
O 104.250000 10.425000 4.170000
O 102.165000 12.510000 4.170000
O 100.080000 8.340000 6.255000
O 102.165000 10.425000 10.425000
O 104.250000 10.425000 8.340000
O 102.165000 12.510000 8.340000
O 100.080000 8.340000 10.425000
O 102.165000 10.425000 14.595000
O 104.250000 10.425000 12.510000
O 102.165000 12.510000 12.510000
O 100.080000 8.340000 14.595000
O 102.165000 10.425000 18.765000
O 104.250000 10.425000 16.680000
O 102.165000 12.510000 16.680000
O 100.080000 8.340000 18.765000
O 102.165000 10.425000 22.935000
O 104.250000 10.425000 20.850000
O 102.165000 12.510000 20.850000
O 100.080000 8.340000 22.935000
O 102.165000 10.425000 27.105000
O 104.250000 10.425000 25.020000
O 102.165000 12.510000 25.020000
O 100.080000 8.340000 27.105000
O 102.165000 10.425000 31.275000
O 104.250000 10.425000 29.190000
O 102.165000 12.510000 29.190000
O 100.080000 8.340000 31.275000
O 102.165000 10.425000 35.445000
O 104.250000 10.425000 33.360000
O 102.165000 12.510000 33.360000
O 100.080000 8.340000 35.445000
O 102.165000 14.595000 2.085000
O 104.250000 14.595000 0.000000
O 102.165000 16.680000 0.000000
O 100.080000 12.510000 2.085000
O 102.165000 14.595000 6.255000
O 104.250000 14.595000 4.170000
O 102.165000 16.680000 4.170000
O 100.080000 12.510000 6.255000
O 102.165000 14.595000 10.425000
O 104.250000 14.595000 8.340000
O 102.165000 16.680000 8.340000
O 100.080000 12.510000 10.425000
O 102.165000 14.595000 14.595000
O 104.250000 14.595000 12.510000
O 102.165000 16.680000 12.510000
O 100.080000 12.510000 14.595000
O 102.165000 14.595000 18.765000
O 104.250000 14.595000 16.680000
O 102.165000 16.680000 16.680000
O 100.080000 12.510000 18.765000
O 102.165000 14.595000 22.935000
O 104.250000 14.595000 20.850000
O 102.165000 16.680000 20.850000
O 100.080000 12.510000 22.935000
O 102.165000 14.595000 27.105000
O 104.250000 14.595000 25.020000
O 102.165000 16.680000 25.020000
O 100.080000 12.510000 27.105000
O 102.165000 14.595000 31.275000
O 104.250000 14.595000 29.190000
O 102.165000 16.680000 29.190000
O 100.080000 12.510000 31.275000
O 102.165000 18.765000 2.085000
O 104.250000 18.765000 0.000000
O 102.165000 20.850000 0.000000
O 100.080000 16.680000 2.085000
O 102.165000 18.765000 6.255000
O 104.250000 18.765000 4.170000
O 102.165000 20.850000 4.170000
O 100.080000 16.680000 6.255000
O 102.165000 18.765000 10.425000
O 104.250000 18.765000 8.340000
O 102.165000 20.850000 8.340000
O 100.080000 16.680000 10.425000
O 102.165000 18.765000 14.595000
O 104.250000 18.765000 12.510000
O 102.165000 20.850000 12.510000
O 100.080000 16.680000 14.595000
O 102.165000 18.765000 18.765000
O 104.250000 18.765000 16.680000
O 102.165000 20.850000 16.680000
O 100.080000 16.680000 18.765000
O 102.165000 18.765000 22.935000
O 104.250000 18.765000 20.850000
O 102.165000 20.850000 20.850000
O 100.080000 16.680000 22.935000
O 102.165000 18.765000 27.105000
O 104.250000 18.765000 25.020000
O 102.165000 20.850000 25.020000
O 100.080000 16.680000 27.105000
O 102.165000 22.935000 2.085000
O 104.250000 22.935000 0.000000
O 102.165000 25.020000 0.000000
O 100.080000 20.850000 2.085000
O 102.165000 22.935000 6.255000
O 104.250000 22.935000 4.170000
O 102.165000 25.020000 4.170000
O 100.080000 20.850000 6.255000
O 102.165000 22.935000 10.425000
O 104.250000 22.935000 8.340000
O 102.165000 25.020000 8.340000
O 100.080000 20.850000 10.425000
O 102.165000 22.935000 14.595000
O 104.250000 22.935000 12.510000
O 102.165000 25.020000 12.510000
O 100.080000 20.850000 14.595000
O 102.165000 22.935000 18.765000
O 104.250000 22.935000 16.680000
O 102.165000 25.020000 16.680000
O 100.080000 20.850000 18.765000
O 102.165000 22.935000 22.935000
O 104.250000 22.935000 20.850000
O 102.165000 25.020000 20.850000
O 100.080000 20.850000 22.935000
O 102.165000 22.935000 27.105000
O 104.250000 22.935000 25.020000
O 102.165000 25.020000 25.020000
O 102.165000 25.020000 29.190000
O 102.165000 27.105000 2.085000
O 104.250000 27.105000 0.000000
O 102.165000 29.190000 0.000000
O 100.080000 25.020000 2.085000
O 102.165000 27.105000 6.255000
O 104.250000 27.105000 4.170000
O 102.165000 29.190000 4.170000
O 100.080000 25.020000 6.255000
O 102.165000 27.105000 10.425000
O 104.250000 27.105000 8.340000
O 102.165000 29.190000 8.340000
O 100.080000 25.020000 10.425000
O 102.165000 27.105000 14.595000
O 104.250000 27.105000 12.510000
O 102.165000 29.190000 12.510000
O 100.080000 25.020000 14.595000
O 102.165000 27.105000 18.765000
O 104.250000 27.105000 16.680000
O 102.165000 29.190000 16.680000
O 100.080000 25.020000 18.765000
O 102.165000 27.105000 22.935000
O 104.250000 27.105000 20.850000
O 102.165000 29.190000 20.850000
O 100.080000 25.020000 22.935000
O 102.165000 27.105000 27.105000
O 104.250000 27.105000 25.020000
O 102.165000 29.190000 25.020000
O 100.080000 25.020000 27.105000
O 102.165000 27.105000 31.275000
O 104.250000 27.105000 29.190000
O 102.165000 29.190000 29.190000
O 102.165000 29.190000 33.360000
O 102.165000 31.275000 2.085000
O 104.250000 31.275000 0.000000
O 102.165000 33.360000 0.000000
O 100.080000 29.190000 2.085000
O 102.165000 31.275000 6.255000
O 104.250000 31.275000 4.170000
O 102.165000 33.360000 4.170000
O 100.080000 29.190000 6.255000
O 102.165000 31.275000 10.425000
O 104.250000 31.275000 8.340000
O 102.165000 33.360000 8.340000
O 100.080000 29.190000 10.425000
O 102.165000 31.275000 14.595000
O 104.250000 31.275000 12.510000
O 102.165000 33.360000 12.510000
O 100.080000 29.190000 14.595000
O 102.165000 31.275000 18.765000
O 104.250000 31.275000 16.680000
O 102.165000 33.360000 16.680000
O 100.080000 29.190000 18.765000
O 102.165000 31.275000 22.935000
O 104.250000 31.275000 20.850000
O 102.165000 33.360000 20.850000
O 100.080000 29.190000 22.935000
O 102.165000 31.275000 27.105000
O 104.250000 31.275000 25.020000
O 102.165000 33.360000 25.020000
O 100.080000 29.190000 27.105000
O 102.165000 31.275000 31.275000
O 104.250000 31.275000 29.190000
O 102.165000 33.360000 29.190000
O 100.080000 29.190000 31.275000
O 102.165000 31.275000 35.445000
O 104.250000 31.275000 33.360000
O 102.165000 33.360000 33.360000
O 102.165000 33.360000 37.530000
O 102.165000 35.445000 2.085000
O 104.250000 35.445000 0.000000
O 102.165000 37.530000 0.000000
O 100.080000 33.360000 2.085000
O 102.165000 35.445000 6.255000
O 104.250000 35.445000 4.170000
O 102.165000 37.530000 4.170000
O 100.080000 33.360000 6.255000
O 102.165000 35.445000 10.425000
O 104.250000 35.445000 8.340000
O 102.165000 37.530000 8.340000
O 100.080000 33.360000 10.425000
O 102.165000 35.445000 14.595000
O 104.250000 35.445000 12.510000
O 102.165000 37.530000 12.510000
O 100.080000 33.360000 14.595000
O 102.165000 35.445000 18.765000
O 104.250000 35.445000 16.680000
O 102.165000 37.530000 16.680000
O 100.080000 33.360000 18.765000
O 102.165000 35.445000 22.935000
O 104.250000 35.445000 20.850000
O 102.165000 37.530000 20.850000
O 100.080000 33.360000 22.935000
O 102.165000 35.445000 27.105000
O 104.250000 35.445000 25.020000
O 102.165000 37.530000 25.020000
O 100.080000 33.360000 27.105000
O 102.165000 35.445000 31.275000
O 104.250000 35.445000 29.190000
O 102.165000 37.530000 29.190000
O 100.080000 33.360000 31.275000
O 102.165000 35.445000 35.445000
O 104.250000 35.445000 33.360000
O 102.165000 37.530000 33.360000
O 100.080000 33.360000 35.445000
O 102.165000 35.445000 39.615000
O 104.250000 35.445000 37.530000
O 102.165000 37.530000 37.530000
O 102.165000 39.615000 2.085000
O 104.250000 39.615000 0.000000
O 102.165000 0.000000 0.000000
O 100.080000 37.530000 2.085000
O 102.165000 39.615000 6.255000
O 104.250000 39.615000 4.170000
O 102.165000 0.000000 4.170000
O 100.080000 37.530000 6.255000
O 102.165000 39.615000 10.425000
O 104.250000 39.615000 8.340000
O 102.165000 0.000000 8.340000
O 100.080000 37.530000 10.425000
O 102.165000 39.615000 14.595000
O 104.250000 39.615000 12.510000
O 102.165000 0.000000 12.510000
O 100.080000 37.530000 14.595000
O 102.165000 39.615000 18.765000
O 104.250000 39.615000 16.680000
O 102.165000 0.000000 16.680000
O 100.080000 37.530000 18.765000
O 102.165000 39.615000 22.935000
O 104.250000 39.615000 20.850000
O 102.165000 0.000000 20.850000
O 100.080000 37.530000 22.935000
O 102.165000 39.615000 27.105000
O 104.250000 39.615000 25.020000
O 102.165000 0.000000 25.020000
O 100.080000 37.530000 27.105000
O 102.165000 39.615000 31.275000
O 104.250000 39.615000 29.190000
O 102.165000 0.000000 29.190000
O 100.080000 37.530000 31.275000
O 102.165000 39.615000 35.445000
O 104.250000 39.615000 33.360000
O 102.165000 0.000000 33.360000
O 100.080000 37.530000 35.445000
O 102.165000 39.615000 39.615000
O 104.250000 39.615000 37.530000
O 102.165000 0.000000 37.530000
O 100.080000 37.530000 39.615000
O 106.335000 2.085000 2.085000
O 108.420000 2.085000 0.000000
O 106.335000 4.170000 0.000000
O 104.250000 0.000000 2.085000
O 106.335000 2.085000 6.255000
O 108.420000 2.085000 4.170000
O 106.335000 4.170000 4.170000
O 104.250000 0.000000 6.255000
O 106.335000 2.085000 10.425000
O 108.420000 2.085000 8.340000
O 106.335000 4.170000 8.340000
O 104.250000 0.000000 10.425000
O 106.335000 2.085000 14.595000
O 108.420000 2.085000 12.510000
O 106.335000 4.170000 12.510000
O 104.250000 0.000000 14.595000
O 106.335000 2.085000 18.765000
O 108.420000 2.085000 16.680000
O 106.335000 4.170000 16.680000
O 104.250000 0.000000 18.765000
O 106.335000 2.085000 22.935000
O 108.420000 2.085000 20.850000
O 106.335000 4.170000 20.850000
O 104.250000 0.000000 22.935000
O 106.335000 2.085000 27.105000
O 108.420000 2.085000 25.020000
O 106.335000 4.170000 25.020000
O 104.250000 0.000000 27.105000
O 106.335000 2.085000 31.275000
O 108.420000 2.085000 29.190000
O 106.335000 4.170000 29.190000
O 104.250000 0.000000 31.275000
O 106.335000 2.085000 35.445000
O 108.420000 2.085000 33.360000
O 106.335000 4.170000 33.360000
O 104.250000 0.000000 35.445000
O 106.335000 2.085000 39.615000
O 108.420000 2.085000 37.530000
O 106.335000 4.170000 37.530000
O 104.250000 0.000000 39.615000
O 106.335000 6.255000 2.085000
O 108.420000 6.255000 0.000000
O 106.335000 8.340000 0.000000
O 104.250000 4.170000 2.085000
O 106.335000 6.255000 6.255000
O 108.420000 6.255000 4.170000
O 106.335000 8.340000 4.170000
O 104.250000 4.170000 6.255000
O 106.335000 6.255000 10.425000
O 108.420000 6.255000 8.340000
O 106.335000 8.340000 8.340000
O 104.250000 4.170000 10.425000
O 106.335000 6.255000 14.595000
O 108.420000 6.255000 12.510000
O 106.335000 8.340000 12.510000
O 104.250000 4.170000 14.595000
O 106.335000 6.255000 18.765000
O 108.420000 6.255000 16.680000
O 106.335000 8.340000 16.680000
O 104.250000 4.170000 18.765000
O 106.335000 6.255000 22.935000
O 108.420000 6.255000 20.850000
O 106.335000 8.340000 20.850000
O 104.250000 4.170000 22.935000
O 106.335000 6.255000 27.105000
O 108.420000 6.255000 25.020000
O 106.335000 8.340000 25.020000
O 104.250000 4.170000 27.105000
O 106.335000 6.255000 31.275000
O 108.420000 6.255000 29.190000
O 106.335000 8.340000 29.190000
O 104.250000 4.170000 31.275000
O 106.335000 6.255000 35.445000
O 108.420000 6.255000 33.360000
O 106.335000 8.340000 33.360000
O 104.250000 4.170000 35.445000
O 106.335000 6.255000 39.615000
O 108.420000 6.255000 37.530000
O 106.335000 8.340000 37.530000
O 104.250000 4.170000 39.615000
O 106.335000 10.425000 2.085000
O 108.420000 10.425000 0.000000
O 106.335000 12.510000 0.000000
O 104.250000 8.340000 2.085000
O 106.335000 10.425000 6.255000
O 108.420000 10.425000 4.170000
O 106.335000 12.510000 4.170000
O 104.250000 8.340000 6.255000
O 106.335000 10.425000 10.425000
O 108.420000 10.425000 8.340000
O 106.335000 12.510000 8.340000
O 104.250000 8.340000 10.425000
O 106.335000 10.425000 14.595000
O 108.420000 10.425000 12.510000
O 106.335000 12.510000 12.510000
O 104.250000 8.340000 14.595000
O 106.335000 10.425000 18.765000
O 108.420000 10.425000 16.680000
O 106.335000 12.510000 16.680000
O 104.250000 8.340000 18.765000
O 106.335000 10.425000 22.935000
O 108.420000 10.425000 20.850000
O 106.335000 12.510000 20.850000
O 104.250000 8.340000 22.935000
O 106.335000 10.425000 27.105000
O 108.420000 10.425000 25.020000
O 106.335000 12.510000 25.020000
O 104.250000 8.340000 27.105000
O 106.335000 10.425000 31.275000
O 108.420000 10.425000 29.190000
O 106.335000 12.510000 29.190000
O 104.250000 8.340000 31.275000
O 106.335000 10.425000 35.445000
O 108.420000 10.425000 33.360000
O 106.335000 12.510000 33.360000
O 104.250000 8.340000 35.445000
O 106.335000 14.595000 2.085000
O 108.420000 14.595000 0.000000
O 106.335000 16.680000 0.000000
O 104.250000 12.510000 2.085000
O 106.335000 14.595000 6.255000
O 108.420000 14.595000 4.170000
O 106.335000 16.680000 4.170000
O 104.250000 12.510000 6.255000
O 106.335000 14.595000 10.425000
O 108.420000 14.595000 8.340000
O 106.335000 16.680000 8.340000
O 104.250000 12.510000 10.425000
O 106.335000 14.595000 14.595000
O 108.420000 14.595000 12.510000
O 106.335000 16.680000 12.510000
O 104.250000 12.510000 14.595000
O 106.335000 14.595000 18.765000
O 108.420000 14.595000 16.680000
O 106.335000 16.680000 16.680000
O 104.250000 12.510000 18.765000
O 106.335000 14.595000 22.935000
O 108.420000 14.595000 20.850000
O 106.335000 16.680000 20.850000
O 104.250000 12.510000 22.935000
O 106.335000 14.595000 27.105000
O 108.420000 14.595000 25.020000
O 106.335000 16.680000 25.020000
O 104.250000 12.510000 27.105000
O 106.335000 14.595000 31.275000
O 108.420000 14.595000 29.190000
O 106.335000 16.680000 29.190000
O 104.250000 12.510000 31.275000
O 106.335000 18.765000 2.085000
O 108.420000 18.765000 0.000000
O 106.335000 20.850000 0.000000
O 104.250000 16.680000 2.085000
O 106.335000 18.765000 6.255000
O 108.420000 18.765000 4.170000
O 106.335000 20.850000 4.170000
O 104.250000 16.680000 6.255000
O 106.335000 18.765000 10.425000
O 108.420000 18.765000 8.340000
O 106.335000 20.850000 8.340000
O 104.250000 16.680000 10.425000
O 106.335000 18.765000 14.595000
O 108.420000 18.765000 12.510000
O 106.335000 20.850000 12.510000
O 104.250000 16.680000 14.595000
O 106.335000 18.765000 18.765000
O 108.420000 18.765000 16.680000
O 106.335000 20.850000 16.680000
O 104.250000 16.680000 18.765000
O 106.335000 18.765000 22.935000
O 108.420000 18.765000 20.850000
O 106.335000 20.850000 20.850000
O 104.250000 16.680000 22.935000
O 106.335000 18.765000 27.105000
O 108.420000 18.765000 25.020000
O 106.335000 20.850000 25.020000
O 104.250000 16.680000 27.105000
O 106.335000 22.935000 2.085000
O 108.420000 22.935000 0.000000
O 106.335000 25.020000 0.000000
O 104.250000 20.850000 2.085000
O 106.335000 22.935000 6.255000
O 108.420000 22.935000 4.170000
O 106.335000 25.020000 4.170000
O 104.250000 20.850000 6.255000
O 106.335000 22.935000 10.425000
O 108.420000 22.935000 8.340000
O 106.335000 25.020000 8.340000
O 104.250000 20.850000 10.425000
O 106.335000 22.935000 14.595000
O 108.420000 22.935000 12.510000
O 106.335000 25.020000 12.510000
O 104.250000 20.850000 14.595000
O 106.335000 22.935000 18.765000
O 108.420000 22.935000 16.680000
O 106.335000 25.020000 16.680000
O 104.250000 20.850000 18.765000
O 106.335000 22.935000 22.935000
O 108.420000 22.935000 20.850000
O 106.335000 25.020000 20.850000
O 104.250000 20.850000 22.935000
O 106.335000 22.935000 27.105000
O 108.420000 22.935000 25.020000
O 106.335000 25.020000 25.020000
O 106.335000 25.020000 29.190000
O 106.335000 27.105000 2.085000
O 108.420000 27.105000 0.000000
O 106.335000 29.190000 0.000000
O 104.250000 25.020000 2.085000
O 106.335000 27.105000 6.255000
O 108.420000 27.105000 4.170000
O 106.335000 29.190000 4.170000
O 104.250000 25.020000 6.255000
O 106.335000 27.105000 10.425000
O 108.420000 27.105000 8.340000
O 106.335000 29.190000 8.340000
O 104.250000 25.020000 10.425000
O 106.335000 27.105000 14.595000
O 108.420000 27.105000 12.510000
O 106.335000 29.190000 12.510000
O 104.250000 25.020000 14.595000
O 106.335000 27.105000 18.765000
O 108.420000 27.105000 16.680000
O 106.335000 29.190000 16.680000
O 104.250000 25.020000 18.765000
O 106.335000 27.105000 22.935000
O 108.420000 27.105000 20.850000
O 106.335000 29.190000 20.850000
O 104.250000 25.020000 22.935000
O 106.335000 27.105000 27.105000
O 108.420000 27.105000 25.020000
O 106.335000 29.190000 25.020000
O 104.250000 25.020000 27.105000
O 106.335000 27.105000 31.275000
O 108.420000 27.105000 29.190000
O 106.335000 29.190000 29.190000
O 106.335000 29.190000 33.360000
O 106.335000 31.275000 2.085000
O 108.420000 31.275000 0.000000
O 106.335000 33.360000 0.000000
O 104.250000 29.190000 2.085000
O 106.335000 31.275000 6.255000
O 108.420000 31.275000 4.170000
O 106.335000 33.360000 4.170000
O 104.250000 29.190000 6.255000
O 106.335000 31.275000 10.425000
O 108.420000 31.275000 8.340000
O 106.335000 33.360000 8.340000
O 104.250000 29.190000 10.425000
O 106.335000 31.275000 14.595000
O 108.420000 31.275000 12.510000
O 106.335000 33.360000 12.510000
O 104.250000 29.190000 14.595000
O 106.335000 31.275000 18.765000
O 108.420000 31.275000 16.680000
O 106.335000 33.360000 16.680000
O 104.250000 29.190000 18.765000
O 106.335000 31.275000 22.935000
O 108.420000 31.275000 20.850000
O 106.335000 33.360000 20.850000
O 104.250000 29.190000 22.935000
O 106.335000 31.275000 27.105000
O 108.420000 31.275000 25.020000
O 106.335000 33.360000 25.020000
O 104.250000 29.190000 27.105000
O 106.335000 31.275000 31.275000
O 108.420000 31.275000 29.190000
O 106.335000 33.360000 29.190000
O 104.250000 29.190000 31.275000
O 106.335000 31.275000 35.445000
O 108.420000 31.275000 33.360000
O 106.335000 33.360000 33.360000
O 106.335000 33.360000 37.530000
O 106.335000 35.445000 2.085000
O 108.420000 35.445000 0.000000
O 106.335000 37.530000 0.000000
O 104.250000 33.360000 2.085000
O 106.335000 35.445000 6.255000
O 108.420000 35.445000 4.170000
O 106.335000 37.530000 4.170000
O 104.250000 33.360000 6.255000
O 106.335000 35.445000 10.425000
O 108.420000 35.445000 8.340000
O 106.335000 37.530000 8.340000
O 104.250000 33.360000 10.425000
O 106.335000 35.445000 14.595000
O 108.420000 35.445000 12.510000
O 106.335000 37.530000 12.510000
O 104.250000 33.360000 14.595000
O 106.335000 35.445000 18.765000
O 108.420000 35.445000 16.680000
O 106.335000 37.530000 16.680000
O 104.250000 33.360000 18.765000
O 106.335000 35.445000 22.935000
O 108.420000 35.445000 20.850000
O 106.335000 37.530000 20.850000
O 104.250000 33.360000 22.935000
O 106.335000 35.445000 27.105000
O 108.420000 35.445000 25.020000
O 106.335000 37.530000 25.020000
O 104.250000 33.360000 27.105000
O 106.335000 35.445000 31.275000
O 108.420000 35.445000 29.190000
O 106.335000 37.530000 29.190000
O 104.250000 33.360000 31.275000
O 106.335000 35.445000 35.445000
O 108.420000 35.445000 33.360000
O 106.335000 37.530000 33.360000
O 104.250000 33.360000 35.445000
O 106.335000 35.445000 39.615000
O 108.420000 35.445000 37.530000
O 106.335000 37.530000 37.530000
O 106.335000 39.615000 2.085000
O 108.420000 39.615000 0.000000
O 106.335000 0.000000 0.000000
O 104.250000 37.530000 2.085000
O 106.335000 39.615000 6.255000
O 108.420000 39.615000 4.170000
O 106.335000 0.000000 4.170000
O 104.250000 37.530000 6.255000
O 106.335000 39.615000 10.425000
O 108.420000 39.615000 8.340000
O 106.335000 0.000000 8.340000
O 104.250000 37.530000 10.425000
O 106.335000 39.615000 14.595000
O 108.420000 39.615000 12.510000
O 106.335000 0.000000 12.510000
O 104.250000 37.530000 14.595000
O 106.335000 39.615000 18.765000
O 108.420000 39.615000 16.680000
O 106.335000 0.000000 16.680000
O 104.250000 37.530000 18.765000
O 106.335000 39.615000 22.935000
O 108.420000 39.615000 20.850000
O 106.335000 0.000000 20.850000
O 104.250000 37.530000 22.935000
O 106.335000 39.615000 27.105000
O 108.420000 39.615000 25.020000
O 106.335000 0.000000 25.020000
O 104.250000 37.530000 27.105000
O 106.335000 39.615000 31.275000
O 108.420000 39.615000 29.190000
O 106.335000 0.000000 29.190000
O 104.250000 37.530000 31.275000
O 106.335000 39.615000 35.445000
O 108.420000 39.615000 33.360000
O 106.335000 0.000000 33.360000
O 104.250000 37.530000 35.445000
O 106.335000 39.615000 39.615000
O 108.420000 39.615000 37.530000
O 106.335000 0.000000 37.530000
O 104.250000 37.530000 39.615000
O 110.505000 2.085000 2.085000
O 112.590000 2.085000 0.000000
O 110.505000 4.170000 0.000000
O 108.420000 0.000000 2.085000
O 110.505000 2.085000 6.255000
O 112.590000 2.085000 4.170000
O 110.505000 4.170000 4.170000
O 108.420000 0.000000 6.255000
O 110.505000 2.085000 10.425000
O 112.590000 2.085000 8.340000
O 110.505000 4.170000 8.340000
O 108.420000 0.000000 10.425000
O 110.505000 2.085000 14.595000
O 112.590000 2.085000 12.510000
O 110.505000 4.170000 12.510000
O 108.420000 0.000000 14.595000
O 110.505000 2.085000 18.765000
O 112.590000 2.085000 16.680000
O 110.505000 4.170000 16.680000
O 108.420000 0.000000 18.765000
O 110.505000 2.085000 22.935000
O 112.590000 2.085000 20.850000
O 110.505000 4.170000 20.850000
O 108.420000 0.000000 22.935000
O 110.505000 2.085000 27.105000
O 112.590000 2.085000 25.020000
O 110.505000 4.170000 25.020000
O 108.420000 0.000000 27.105000
O 110.505000 2.085000 31.275000
O 112.590000 2.085000 29.190000
O 110.505000 4.170000 29.190000
O 108.420000 0.000000 31.275000
O 110.505000 2.085000 35.445000
O 112.590000 2.085000 33.360000
O 110.505000 4.170000 33.360000
O 108.420000 0.000000 35.445000
O 110.505000 2.085000 39.615000
O 112.590000 2.085000 37.530000
O 110.505000 4.170000 37.530000
O 108.420000 0.000000 39.615000
O 110.505000 6.255000 2.085000
O 112.590000 6.255000 0.000000
O 110.505000 8.340000 0.000000
O 108.420000 4.170000 2.085000
O 110.505000 6.255000 6.255000
O 112.590000 6.255000 4.170000
O 110.505000 8.340000 4.170000
O 108.420000 4.170000 6.255000
O 110.505000 6.255000 10.425000
O 112.590000 6.255000 8.340000
O 110.505000 8.340000 8.340000
O 108.420000 4.170000 10.425000
O 110.505000 6.255000 14.595000
O 112.590000 6.255000 12.510000
O 110.505000 8.340000 12.510000
O 108.420000 4.170000 14.595000
O 110.505000 6.255000 18.765000
O 112.590000 6.255000 16.680000
O 110.505000 8.340000 16.680000
O 108.420000 4.170000 18.765000
O 110.505000 6.255000 22.935000
O 112.590000 6.255000 20.850000
O 110.505000 8.340000 20.850000
O 108.420000 4.170000 22.935000
O 110.505000 6.255000 27.105000
O 112.590000 6.255000 25.020000
O 110.505000 8.340000 25.020000
O 108.420000 4.170000 27.105000
O 110.505000 6.255000 31.275000
O 112.590000 6.255000 29.190000
O 110.505000 8.340000 29.190000
O 108.420000 4.170000 31.275000
O 110.505000 6.255000 35.445000
O 112.590000 6.255000 33.360000
O 110.505000 8.340000 33.360000
O 108.420000 4.170000 35.445000
O 110.505000 6.255000 39.615000
O 112.590000 6.255000 37.530000
O 110.505000 8.340000 37.530000
O 108.420000 4.170000 39.615000
O 110.505000 10.425000 2.085000
O 112.590000 10.425000 0.000000
O 110.505000 12.510000 0.000000
O 108.420000 8.340000 2.085000
O 110.505000 10.425000 6.255000
O 112.590000 10.425000 4.170000
O 110.505000 12.510000 4.170000
O 108.420000 8.340000 6.255000
O 110.505000 10.425000 10.425000
O 112.590000 10.425000 8.340000
O 110.505000 12.510000 8.340000
O 108.420000 8.340000 10.425000
O 110.505000 10.425000 14.595000
O 112.590000 10.425000 12.510000
O 110.505000 12.510000 12.510000
O 108.420000 8.340000 14.595000
O 110.505000 10.425000 18.765000
O 112.590000 10.425000 16.680000
O 110.505000 12.510000 16.680000
O 108.420000 8.340000 18.765000
O 110.505000 10.425000 22.935000
O 112.590000 10.425000 20.850000
O 110.505000 12.510000 20.850000
O 108.420000 8.340000 22.935000
O 110.505000 10.425000 27.105000
O 112.590000 10.425000 25.020000
O 110.505000 12.510000 25.020000
O 108.420000 8.340000 27.105000
O 110.505000 10.425000 31.275000
O 112.590000 10.425000 29.190000
O 110.505000 12.510000 29.190000
O 108.420000 8.340000 31.275000
O 110.505000 10.425000 35.445000
O 112.590000 10.425000 33.360000
O 110.505000 12.510000 33.360000
O 108.420000 8.340000 35.445000
O 110.505000 14.595000 2.085000
O 112.590000 14.595000 0.000000
O 110.505000 16.680000 0.000000
O 108.420000 12.510000 2.085000
O 110.505000 14.595000 6.255000
O 112.590000 14.595000 4.170000
O 110.505000 16.680000 4.170000
O 108.420000 12.510000 6.255000
O 110.505000 14.595000 10.425000
O 112.590000 14.595000 8.340000
O 110.505000 16.680000 8.340000
O 108.420000 12.510000 10.425000
O 110.505000 14.595000 14.595000
O 112.590000 14.595000 12.510000
O 110.505000 16.680000 12.510000
O 108.420000 12.510000 14.595000
O 110.505000 14.595000 18.765000
O 112.590000 14.595000 16.680000
O 110.505000 16.680000 16.680000
O 108.420000 12.510000 18.765000
O 110.505000 14.595000 22.935000
O 112.590000 14.595000 20.850000
O 110.505000 16.680000 20.850000
O 108.420000 12.510000 22.935000
O 110.505000 14.595000 27.105000
O 112.590000 14.595000 25.020000
O 110.505000 16.680000 25.020000
O 108.420000 12.510000 27.105000
O 110.505000 14.595000 31.275000
O 112.590000 14.595000 29.190000
O 110.505000 16.680000 29.190000
O 108.420000 12.510000 31.275000
O 110.505000 18.765000 2.085000
O 112.590000 18.765000 0.000000
O 110.505000 20.850000 0.000000
O 108.420000 16.680000 2.085000
O 110.505000 18.765000 6.255000
O 112.590000 18.765000 4.170000
O 110.505000 20.850000 4.170000
O 108.420000 16.680000 6.255000
O 110.505000 18.765000 10.425000
O 112.590000 18.765000 8.340000
O 110.505000 20.850000 8.340000
O 108.420000 16.680000 10.425000
O 110.505000 18.765000 14.595000
O 112.590000 18.765000 12.510000
O 110.505000 20.850000 12.510000
O 108.420000 16.680000 14.595000
O 110.505000 18.765000 18.765000
O 112.590000 18.765000 16.680000
O 110.505000 20.850000 16.680000
O 108.420000 16.680000 18.765000
O 110.505000 18.765000 22.935000
O 112.590000 18.765000 20.850000
O 110.505000 20.850000 20.850000
O 108.420000 16.680000 22.935000
O 110.505000 18.765000 27.105000
O 112.590000 18.765000 25.020000
O 110.505000 20.850000 25.020000
O 108.420000 16.680000 27.105000
O 110.505000 22.935000 2.085000
O 112.590000 22.935000 0.000000
O 110.505000 25.020000 0.000000
O 108.420000 20.850000 2.085000
O 110.505000 22.935000 6.255000
O 112.590000 22.935000 4.170000
O 110.505000 25.020000 4.170000
O 108.420000 20.850000 6.255000
O 110.505000 22.935000 10.425000
O 112.590000 22.935000 8.340000
O 110.505000 25.020000 8.340000
O 108.420000 20.850000 10.425000
O 110.505000 22.935000 14.595000
O 112.590000 22.935000 12.510000
O 110.505000 25.020000 12.510000
O 108.420000 20.850000 14.595000
O 110.505000 22.935000 18.765000
O 112.590000 22.935000 16.680000
O 110.505000 25.020000 16.680000
O 108.420000 20.850000 18.765000
O 110.505000 22.935000 22.935000
O 112.590000 22.935000 20.850000
O 110.505000 25.020000 20.850000
O 108.420000 20.850000 22.935000
O 110.505000 22.935000 27.105000
O 112.590000 22.935000 25.020000
O 110.505000 25.020000 25.020000
O 110.505000 25.020000 29.190000
O 110.505000 27.105000 2.085000
O 112.590000 27.105000 0.000000
O 110.505000 29.190000 0.000000
O 108.420000 25.020000 2.085000
O 110.505000 27.105000 6.255000
O 112.590000 27.105000 4.170000
O 110.505000 29.190000 4.170000
O 108.420000 25.020000 6.255000
O 110.505000 27.105000 10.425000
O 112.590000 27.105000 8.340000
O 110.505000 29.190000 8.340000
O 108.420000 25.020000 10.425000
O 110.505000 27.105000 14.595000
O 112.590000 27.105000 12.510000
O 110.505000 29.190000 12.510000
O 108.420000 25.020000 14.595000
O 110.505000 27.105000 18.765000
O 112.590000 27.105000 16.680000
O 110.505000 29.190000 16.680000
O 108.420000 25.020000 18.765000
O 110.505000 27.105000 22.935000
O 112.590000 27.105000 20.850000
O 110.505000 29.190000 20.850000
O 108.420000 25.020000 22.935000
O 110.505000 27.105000 27.105000
O 112.590000 27.105000 25.020000
O 110.505000 29.190000 25.020000
O 108.420000 25.020000 27.105000
O 110.505000 27.105000 31.275000
O 112.590000 27.105000 29.190000
O 110.505000 29.190000 29.190000
O 110.505000 29.190000 33.360000
O 110.505000 31.275000 2.085000
O 112.590000 31.275000 0.000000
O 110.505000 33.360000 0.000000
O 108.420000 29.190000 2.085000
O 110.505000 31.275000 6.255000
O 112.590000 31.275000 4.170000
O 110.505000 33.360000 4.170000
O 108.420000 29.190000 6.255000
O 110.505000 31.275000 10.425000
O 112.590000 31.275000 8.340000
O 110.505000 33.360000 8.340000
O 108.420000 29.190000 10.425000
O 110.505000 31.275000 14.595000
O 112.590000 31.275000 12.510000
O 110.505000 33.360000 12.510000
O 108.420000 29.190000 14.595000
O 110.505000 31.275000 18.765000
O 112.590000 31.275000 16.680000
O 110.505000 33.360000 16.680000
O 108.420000 29.190000 18.765000
O 110.505000 31.275000 22.935000
O 112.590000 31.275000 20.850000
O 110.505000 33.360000 20.850000
O 108.420000 29.190000 22.935000
O 110.505000 31.275000 27.105000
O 112.590000 31.275000 25.020000
O 110.505000 33.360000 25.020000
O 108.420000 29.190000 27.105000
O 110.505000 31.275000 31.275000
O 112.590000 31.275000 29.190000
O 110.505000 33.360000 29.190000
O 108.420000 29.190000 31.275000
O 110.505000 31.275000 35.445000
O 112.590000 31.275000 33.360000
O 110.505000 33.360000 33.360000
O 110.505000 33.360000 37.530000
O 110.505000 35.445000 2.085000
O 112.590000 35.445000 0.000000
O 110.505000 37.530000 0.000000
O 108.420000 33.360000 2.085000
O 110.505000 35.445000 6.255000
O 112.590000 35.445000 4.170000
O 110.505000 37.530000 4.170000
O 108.420000 33.360000 6.255000
O 110.505000 35.445000 10.425000
O 112.590000 35.445000 8.340000
O 110.505000 37.530000 8.340000
O 108.420000 33.360000 10.425000
O 110.505000 35.445000 14.595000
O 112.590000 35.445000 12.510000
O 110.505000 37.530000 12.510000
O 108.420000 33.360000 14.595000
O 110.505000 35.445000 18.765000
O 112.590000 35.445000 16.680000
O 110.505000 37.530000 16.680000
O 108.420000 33.360000 18.765000
O 110.505000 35.445000 22.935000
O 112.590000 35.445000 20.850000
O 110.505000 37.530000 20.850000
O 108.420000 33.360000 22.935000
O 110.505000 35.445000 27.105000
O 112.590000 35.445000 25.020000
O 110.505000 37.530000 25.020000
O 108.420000 33.360000 27.105000
O 110.505000 35.445000 31.275000
O 112.590000 35.445000 29.190000
O 110.505000 37.530000 29.190000
O 108.420000 33.360000 31.275000
O 110.505000 35.445000 35.445000
O 112.590000 35.445000 33.360000
O 110.505000 37.530000 33.360000
O 108.420000 33.360000 35.445000
O 110.505000 35.445000 39.615000
O 112.590000 35.445000 37.530000
O 110.505000 37.530000 37.530000
O 110.505000 39.615000 2.085000
O 112.590000 39.615000 0.000000
O 110.505000 0.000000 0.000000
O 108.420000 37.530000 2.085000
O 110.505000 39.615000 6.255000
O 112.590000 39.615000 4.170000
O 110.505000 0.000000 4.170000
O 108.420000 37.530000 6.255000
O 110.505000 39.615000 10.425000
O 112.590000 39.615000 8.340000
O 110.505000 0.000000 8.340000
O 108.420000 37.530000 10.425000
O 110.505000 39.615000 14.595000
O 112.590000 39.615000 12.510000
O 110.505000 0.000000 12.510000
O 108.420000 37.530000 14.595000
O 110.505000 39.615000 18.765000
O 112.590000 39.615000 16.680000
O 110.505000 0.000000 16.680000
O 108.420000 37.530000 18.765000
O 110.505000 39.615000 22.935000
O 112.590000 39.615000 20.850000
O 110.505000 0.000000 20.850000
O 108.420000 37.530000 22.935000
O 110.505000 39.615000 27.105000
O 112.590000 39.615000 25.020000
O 110.505000 0.000000 25.020000
O 108.420000 37.530000 27.105000
O 110.505000 39.615000 31.275000
O 112.590000 39.615000 29.190000
O 110.505000 0.000000 29.190000
O 108.420000 37.530000 31.275000
O 110.505000 39.615000 35.445000
O 112.590000 39.615000 33.360000
O 110.505000 0.000000 33.360000
O 108.420000 37.530000 35.445000
O 110.505000 39.615000 39.615000
O 112.590000 39.615000 37.530000
O 110.505000 0.000000 37.530000
O 108.420000 37.530000 39.615000
O 114.675000 2.085000 2.085000
O 116.760000 2.085000 0.000000
O 114.675000 4.170000 0.000000
O 112.590000 0.000000 2.085000
O 114.675000 2.085000 6.255000
O 116.760000 2.085000 4.170000
O 114.675000 4.170000 4.170000
O 112.590000 0.000000 6.255000
O 114.675000 2.085000 10.425000
O 116.760000 2.085000 8.340000
O 114.675000 4.170000 8.340000
O 112.590000 0.000000 10.425000
O 114.675000 2.085000 14.595000
O 116.760000 2.085000 12.510000
O 114.675000 4.170000 12.510000
O 112.590000 0.000000 14.595000
O 114.675000 2.085000 18.765000
O 116.760000 2.085000 16.680000
O 114.675000 4.170000 16.680000
O 112.590000 0.000000 18.765000
O 114.675000 2.085000 22.935000
O 116.760000 2.085000 20.850000
O 114.675000 4.170000 20.850000
O 112.590000 0.000000 22.935000
O 114.675000 2.085000 27.105000
O 116.760000 2.085000 25.020000
O 114.675000 4.170000 25.020000
O 112.590000 0.000000 27.105000
O 114.675000 2.085000 31.275000
O 116.760000 2.085000 29.190000
O 114.675000 4.170000 29.190000
O 112.590000 0.000000 31.275000
O 114.675000 2.085000 35.445000
O 116.760000 2.085000 33.360000
O 114.675000 4.170000 33.360000
O 112.590000 0.000000 35.445000
O 114.675000 2.085000 39.615000
O 116.760000 2.085000 37.530000
O 114.675000 4.170000 37.530000
O 112.590000 0.000000 39.615000
O 114.675000 6.255000 2.085000
O 116.760000 6.255000 0.000000
O 114.675000 8.340000 0.000000
O 112.590000 4.170000 2.085000
O 114.675000 6.255000 6.255000
O 116.760000 6.255000 4.170000
O 114.675000 8.340000 4.170000
O 112.590000 4.170000 6.255000
O 114.675000 6.255000 10.425000
O 116.760000 6.255000 8.340000
O 114.675000 8.340000 8.340000
O 112.590000 4.170000 10.425000
O 114.675000 6.255000 14.595000
O 116.760000 6.255000 12.510000
O 114.675000 8.340000 12.510000
O 112.590000 4.170000 14.595000
O 114.675000 6.255000 18.765000
O 116.760000 6.255000 16.680000
O 114.675000 8.340000 16.680000
O 112.590000 4.170000 18.765000
O 114.675000 6.255000 22.935000
O 116.760000 6.255000 20.850000
O 114.675000 8.340000 20.850000
O 112.590000 4.170000 22.935000
O 114.675000 6.255000 27.105000
O 116.760000 6.255000 25.020000
O 114.675000 8.340000 25.020000
O 112.590000 4.170000 27.105000
O 114.675000 6.255000 31.275000
O 116.760000 6.255000 29.190000
O 114.675000 8.340000 29.190000
O 112.590000 4.170000 31.275000
O 114.675000 6.255000 35.445000
O 116.760000 6.255000 33.360000
O 114.675000 8.340000 33.360000
O 112.590000 4.170000 35.445000
O 114.675000 6.255000 39.615000
O 116.760000 6.255000 37.530000
O 114.675000 8.340000 37.530000
O 112.590000 4.170000 39.615000
O 114.675000 10.425000 2.085000
O 116.760000 10.425000 0.000000
O 114.675000 12.510000 0.000000
O 112.590000 8.340000 2.085000
O 114.675000 10.425000 6.255000
O 116.760000 10.425000 4.170000
O 114.675000 12.510000 4.170000
O 112.590000 8.340000 6.255000
O 114.675000 10.425000 10.425000
O 116.760000 10.425000 8.340000
O 114.675000 12.510000 8.340000
O 112.590000 8.340000 10.425000
O 114.675000 10.425000 14.595000
O 116.760000 10.425000 12.510000
O 114.675000 12.510000 12.510000
O 112.590000 8.340000 14.595000
O 114.675000 10.425000 18.765000
O 116.760000 10.425000 16.680000
O 114.675000 12.510000 16.680000
O 112.590000 8.340000 18.765000
O 114.675000 10.425000 22.935000
O 116.760000 10.425000 20.850000
O 114.675000 12.510000 20.850000
O 112.590000 8.340000 22.935000
O 114.675000 10.425000 27.105000
O 116.760000 10.425000 25.020000
O 114.675000 12.510000 25.020000
O 112.590000 8.340000 27.105000
O 114.675000 10.425000 31.275000
O 116.760000 10.425000 29.190000
O 114.675000 12.510000 29.190000
O 112.590000 8.340000 31.275000
O 114.675000 10.425000 35.445000
O 116.760000 10.425000 33.360000
O 114.675000 12.510000 33.360000
O 112.590000 8.340000 35.445000
O 114.675000 14.595000 2.085000
O 116.760000 14.595000 0.000000
O 114.675000 16.680000 0.000000
O 112.590000 12.510000 2.085000
O 114.675000 14.595000 6.255000
O 116.760000 14.595000 4.170000
O 114.675000 16.680000 4.170000
O 112.590000 12.510000 6.255000
O 114.675000 14.595000 10.425000
O 116.760000 14.595000 8.340000
O 114.675000 16.680000 8.340000
O 112.590000 12.510000 10.425000
O 114.675000 14.595000 14.595000
O 116.760000 14.595000 12.510000
O 114.675000 16.680000 12.510000
O 112.590000 12.510000 14.595000
O 114.675000 14.595000 18.765000
O 116.760000 14.595000 16.680000
O 114.675000 16.680000 16.680000
O 112.590000 12.510000 18.765000
O 114.675000 14.595000 22.935000
O 116.760000 14.595000 20.850000
O 114.675000 16.680000 20.850000
O 112.590000 12.510000 22.935000
O 114.675000 14.595000 27.105000
O 116.760000 14.595000 25.020000
O 114.675000 16.680000 25.020000
O 112.590000 12.510000 27.105000
O 114.675000 14.595000 31.275000
O 116.760000 14.595000 29.190000
O 114.675000 16.680000 29.190000
O 112.590000 12.510000 31.275000
O 114.675000 18.765000 2.085000
O 116.760000 18.765000 0.000000
O 114.675000 20.850000 0.000000
O 112.590000 16.680000 2.085000
O 114.675000 18.765000 6.255000
O 116.760000 18.765000 4.170000
O 114.675000 20.850000 4.170000
O 112.590000 16.680000 6.255000
O 114.675000 18.765000 10.425000
O 116.760000 18.765000 8.340000
O 114.675000 20.850000 8.340000
O 112.590000 16.680000 10.425000
O 114.675000 18.765000 14.595000
O 116.760000 18.765000 12.510000
O 114.675000 20.850000 12.510000
O 112.590000 16.680000 14.595000
O 114.675000 18.765000 18.765000
O 116.760000 18.765000 16.680000
O 114.675000 20.850000 16.680000
O 112.590000 16.680000 18.765000
O 114.675000 18.765000 22.935000
O 116.760000 18.765000 20.850000
O 114.675000 20.850000 20.850000
O 112.590000 16.680000 22.935000
O 114.675000 18.765000 27.105000
O 116.760000 18.765000 25.020000
O 114.675000 20.850000 25.020000
O 112.590000 16.680000 27.105000
O 114.675000 22.935000 2.085000
O 116.760000 22.935000 0.000000
O 114.675000 25.020000 0.000000
O 112.590000 20.850000 2.085000
O 114.675000 22.935000 6.255000
O 116.760000 22.935000 4.170000
O 114.675000 25.020000 4.170000
O 112.590000 20.850000 6.255000
O 114.675000 22.935000 10.425000
O 116.760000 22.935000 8.340000
O 114.675000 25.020000 8.340000
O 112.590000 20.850000 10.425000
O 114.675000 22.935000 14.595000
O 116.760000 22.935000 12.510000
O 114.675000 25.020000 12.510000
O 112.590000 20.850000 14.595000
O 114.675000 22.935000 18.765000
O 116.760000 22.935000 16.680000
O 114.675000 25.020000 16.680000
O 112.590000 20.850000 18.765000
O 114.675000 22.935000 22.935000
O 116.760000 22.935000 20.850000
O 114.675000 25.020000 20.850000
O 112.590000 20.850000 22.935000
O 114.675000 22.935000 27.105000
O 116.760000 22.935000 25.020000
O 114.675000 25.020000 25.020000
O 114.675000 25.020000 29.190000
O 114.675000 27.105000 2.085000
O 116.760000 27.105000 0.000000
O 114.675000 29.190000 0.000000
O 112.590000 25.020000 2.085000
O 114.675000 27.105000 6.255000
O 116.760000 27.105000 4.170000
O 114.675000 29.190000 4.170000
O 112.590000 25.020000 6.255000
O 114.675000 27.105000 10.425000
O 116.760000 27.105000 8.340000
O 114.675000 29.190000 8.340000
O 112.590000 25.020000 10.425000
O 114.675000 27.105000 14.595000
O 116.760000 27.105000 12.510000
O 114.675000 29.190000 12.510000
O 112.590000 25.020000 14.595000
O 114.675000 27.105000 18.765000
O 116.760000 27.105000 16.680000
O 114.675000 29.190000 16.680000
O 112.590000 25.020000 18.765000
O 114.675000 27.105000 22.935000
O 116.760000 27.105000 20.850000
O 114.675000 29.190000 20.850000
O 112.590000 25.020000 22.935000
O 114.675000 27.105000 27.105000
O 116.760000 27.105000 25.020000
O 114.675000 29.190000 25.020000
O 112.590000 25.020000 27.105000
O 114.675000 27.105000 31.275000
O 116.760000 27.105000 29.190000
O 114.675000 29.190000 29.190000
O 114.675000 29.190000 33.360000
O 114.675000 31.275000 2.085000
O 116.760000 31.275000 0.000000
O 114.675000 33.360000 0.000000
O 112.590000 29.190000 2.085000
O 114.675000 31.275000 6.255000
O 116.760000 31.275000 4.170000
O 114.675000 33.360000 4.170000
O 112.590000 29.190000 6.255000
O 114.675000 31.275000 10.425000
O 116.760000 31.275000 8.340000
O 114.675000 33.360000 8.340000
O 112.590000 29.190000 10.425000
O 114.675000 31.275000 14.595000
O 116.760000 31.275000 12.510000
O 114.675000 33.360000 12.510000
O 112.590000 29.190000 14.595000
O 114.675000 31.275000 18.765000
O 116.760000 31.275000 16.680000
O 114.675000 33.360000 16.680000
O 112.590000 29.190000 18.765000
O 114.675000 31.275000 22.935000
O 116.760000 31.275000 20.850000
O 114.675000 33.360000 20.850000
O 112.590000 29.190000 22.935000
O 114.675000 31.275000 27.105000
O 116.760000 31.275000 25.020000
O 114.675000 33.360000 25.020000
O 112.590000 29.190000 27.105000
O 114.675000 31.275000 31.275000
O 116.760000 31.275000 29.190000
O 114.675000 33.360000 29.190000
O 112.590000 29.190000 31.275000
O 114.675000 31.275000 35.445000
O 116.760000 31.275000 33.360000
O 114.675000 33.360000 33.360000
O 114.675000 33.360000 37.530000
O 114.675000 35.445000 2.085000
O 116.760000 35.445000 0.000000
O 114.675000 37.530000 0.000000
O 112.590000 33.360000 2.085000
O 114.675000 35.445000 6.255000
O 116.760000 35.445000 4.170000
O 114.675000 37.530000 4.170000
O 112.590000 33.360000 6.255000
O 114.675000 35.445000 10.425000
O 116.760000 35.445000 8.340000
O 114.675000 37.530000 8.340000
O 112.590000 33.360000 10.425000
O 114.675000 35.445000 14.595000
O 116.760000 35.445000 12.510000
O 114.675000 37.530000 12.510000
O 112.590000 33.360000 14.595000
O 114.675000 35.445000 18.765000
O 116.760000 35.445000 16.680000
O 114.675000 37.530000 16.680000
O 112.590000 33.360000 18.765000
O 114.675000 35.445000 22.935000
O 116.760000 35.445000 20.850000
O 114.675000 37.530000 20.850000
O 112.590000 33.360000 22.935000
O 114.675000 35.445000 27.105000
O 116.760000 35.445000 25.020000
O 114.675000 37.530000 25.020000
O 112.590000 33.360000 27.105000
O 114.675000 35.445000 31.275000
O 116.760000 35.445000 29.190000
O 114.675000 37.530000 29.190000
O 112.590000 33.360000 31.275000
O 114.675000 35.445000 35.445000
O 116.760000 35.445000 33.360000
O 114.675000 37.530000 33.360000
O 112.590000 33.360000 35.445000
O 114.675000 35.445000 39.615000
O 116.760000 35.445000 37.530000
O 114.675000 37.530000 37.530000
O 114.675000 39.615000 2.085000
O 116.760000 39.615000 0.000000
O 114.675000 0.000000 0.000000
O 112.590000 37.530000 2.085000
O 114.675000 39.615000 6.255000
O 116.760000 39.615000 4.170000
O 114.675000 0.000000 4.170000
O 112.590000 37.530000 6.255000
O 114.675000 39.615000 10.425000
O 116.760000 39.615000 8.340000
O 114.675000 0.000000 8.340000
O 112.590000 37.530000 10.425000
O 114.675000 39.615000 14.595000
O 116.760000 39.615000 12.510000
O 114.675000 0.000000 12.510000
O 112.590000 37.530000 14.595000
O 114.675000 39.615000 18.765000
O 116.760000 39.615000 16.680000
O 114.675000 0.000000 16.680000
O 112.590000 37.530000 18.765000
O 114.675000 39.615000 22.935000
O 116.760000 39.615000 20.850000
O 114.675000 0.000000 20.850000
O 112.590000 37.530000 22.935000
O 114.675000 39.615000 27.105000
O 116.760000 39.615000 25.020000
O 114.675000 0.000000 25.020000
O 112.590000 37.530000 27.105000
O 114.675000 39.615000 31.275000
O 116.760000 39.615000 29.190000
O 114.675000 0.000000 29.190000
O 112.590000 37.530000 31.275000
O 114.675000 39.615000 35.445000
O 116.760000 39.615000 33.360000
O 114.675000 0.000000 33.360000
O 112.590000 37.530000 35.445000
O 114.675000 39.615000 39.615000
O 116.760000 39.615000 37.530000
O 114.675000 0.000000 37.530000
O 112.590000 37.530000 39.615000
O 118.845000 2.085000 2.085000
O 120.930000 2.085000 0.000000
O 118.845000 4.170000 0.000000
O 116.760000 0.000000 2.085000
O 118.845000 2.085000 6.255000
O 120.930000 2.085000 4.170000
O 118.845000 4.170000 4.170000
O 116.760000 0.000000 6.255000
O 118.845000 2.085000 10.425000
O 120.930000 2.085000 8.340000
O 118.845000 4.170000 8.340000
O 116.760000 0.000000 10.425000
O 118.845000 2.085000 14.595000
O 120.930000 2.085000 12.510000
O 118.845000 4.170000 12.510000
O 116.760000 0.000000 14.595000
O 118.845000 2.085000 18.765000
O 120.930000 2.085000 16.680000
O 118.845000 4.170000 16.680000
O 116.760000 0.000000 18.765000
O 118.845000 2.085000 22.935000
O 120.930000 2.085000 20.850000
O 118.845000 4.170000 20.850000
O 116.760000 0.000000 22.935000
O 118.845000 2.085000 27.105000
O 120.930000 2.085000 25.020000
O 118.845000 4.170000 25.020000
O 116.760000 0.000000 27.105000
O 118.845000 2.085000 31.275000
O 120.930000 2.085000 29.190000
O 118.845000 4.170000 29.190000
O 116.760000 0.000000 31.275000
O 118.845000 2.085000 35.445000
O 120.930000 2.085000 33.360000
O 118.845000 4.170000 33.360000
O 116.760000 0.000000 35.445000
O 118.845000 2.085000 39.615000
O 120.930000 2.085000 37.530000
O 118.845000 4.170000 37.530000
O 116.760000 0.000000 39.615000
O 118.845000 6.255000 2.085000
O 120.930000 6.255000 0.000000
O 118.845000 8.340000 0.000000
O 116.760000 4.170000 2.085000
O 118.845000 6.255000 6.255000
O 120.930000 6.255000 4.170000
O 118.845000 8.340000 4.170000
O 116.760000 4.170000 6.255000
O 118.845000 6.255000 10.425000
O 120.930000 6.255000 8.340000
O 118.845000 8.340000 8.340000
O 116.760000 4.170000 10.425000
O 118.845000 6.255000 14.595000
O 120.930000 6.255000 12.510000
O 118.845000 8.340000 12.510000
O 116.760000 4.170000 14.595000
O 118.845000 6.255000 18.765000
O 120.930000 6.255000 16.680000
O 118.845000 8.340000 16.680000
O 116.760000 4.170000 18.765000
O 118.845000 6.255000 22.935000
O 120.930000 6.255000 20.850000
O 118.845000 8.340000 20.850000
O 116.760000 4.170000 22.935000
O 118.845000 6.255000 27.105000
O 120.930000 6.255000 25.020000
O 118.845000 8.340000 25.020000
O 116.760000 4.170000 27.105000
O 118.845000 6.255000 31.275000
O 120.930000 6.255000 29.190000
O 118.845000 8.340000 29.190000
O 116.760000 4.170000 31.275000
O 118.845000 6.255000 35.445000
O 120.930000 6.255000 33.360000
O 118.845000 8.340000 33.360000
O 116.760000 4.170000 35.445000
O 118.845000 6.255000 39.615000
O 120.930000 6.255000 37.530000
O 118.845000 8.340000 37.530000
O 116.760000 4.170000 39.615000
O 118.845000 10.425000 2.085000
O 120.930000 10.425000 0.000000
O 118.845000 12.510000 0.000000
O 116.760000 8.340000 2.085000
O 118.845000 10.425000 6.255000
O 120.930000 10.425000 4.170000
O 118.845000 12.510000 4.170000
O 116.760000 8.340000 6.255000
O 118.845000 10.425000 10.425000
O 120.930000 10.425000 8.340000
O 118.845000 12.510000 8.340000
O 116.760000 8.340000 10.425000
O 118.845000 10.425000 14.595000
O 120.930000 10.425000 12.510000
O 118.845000 12.510000 12.510000
O 116.760000 8.340000 14.595000
O 118.845000 10.425000 18.765000
O 120.930000 10.425000 16.680000
O 118.845000 12.510000 16.680000
O 116.760000 8.340000 18.765000
O 118.845000 10.425000 22.935000
O 120.930000 10.425000 20.850000
O 118.845000 12.510000 20.850000
O 116.760000 8.340000 22.935000
O 118.845000 10.425000 27.105000
O 120.930000 10.425000 25.020000
O 118.845000 12.510000 25.020000
O 116.760000 8.340000 27.105000
O 118.845000 10.425000 31.275000
O 120.930000 10.425000 29.190000
O 118.845000 12.510000 29.190000
O 116.760000 8.340000 31.275000
O 118.845000 10.425000 35.445000
O 120.930000 10.425000 33.360000
O 118.845000 12.510000 33.360000
O 116.760000 8.340000 35.445000
O 118.845000 14.595000 2.085000
O 120.930000 14.595000 0.000000
O 118.845000 16.680000 0.000000
O 116.760000 12.510000 2.085000
O 118.845000 14.595000 6.255000
O 120.930000 14.595000 4.170000
O 118.845000 16.680000 4.170000
O 116.760000 12.510000 6.255000
O 118.845000 14.595000 10.425000
O 120.930000 14.595000 8.340000
O 118.845000 16.680000 8.340000
O 116.760000 12.510000 10.425000
O 118.845000 14.595000 14.595000
O 120.930000 14.595000 12.510000
O 118.845000 16.680000 12.510000
O 116.760000 12.510000 14.595000
O 118.845000 14.595000 18.765000
O 120.930000 14.595000 16.680000
O 118.845000 16.680000 16.680000
O 116.760000 12.510000 18.765000
O 118.845000 14.595000 22.935000
O 120.930000 14.595000 20.850000
O 118.845000 16.680000 20.850000
O 116.760000 12.510000 22.935000
O 118.845000 14.595000 27.105000
O 120.930000 14.595000 25.020000
O 118.845000 16.680000 25.020000
O 116.760000 12.510000 27.105000
O 118.845000 14.595000 31.275000
O 120.930000 14.595000 29.190000
O 118.845000 16.680000 29.190000
O 116.760000 12.510000 31.275000
O 118.845000 18.765000 2.085000
O 120.930000 18.765000 0.000000
O 118.845000 20.850000 0.000000
O 116.760000 16.680000 2.085000
O 118.845000 18.765000 6.255000
O 120.930000 18.765000 4.170000
O 118.845000 20.850000 4.170000
O 116.760000 16.680000 6.255000
O 118.845000 18.765000 10.425000
O 120.930000 18.765000 8.340000
O 118.845000 20.850000 8.340000
O 116.760000 16.680000 10.425000
O 118.845000 18.765000 14.595000
O 120.930000 18.765000 12.510000
O 118.845000 20.850000 12.510000
O 116.760000 16.680000 14.595000
O 118.845000 18.765000 18.765000
O 120.930000 18.765000 16.680000
O 118.845000 20.850000 16.680000
O 116.760000 16.680000 18.765000
O 118.845000 18.765000 22.935000
O 120.930000 18.765000 20.850000
O 118.845000 20.850000 20.850000
O 116.760000 16.680000 22.935000
O 118.845000 18.765000 27.105000
O 120.930000 18.765000 25.020000
O 118.845000 20.850000 25.020000
O 116.760000 16.680000 27.105000
O 118.845000 22.935000 2.085000
O 120.930000 22.935000 0.000000
O 118.845000 25.020000 0.000000
O 116.760000 20.850000 2.085000
O 118.845000 22.935000 6.255000
O 120.930000 22.935000 4.170000
O 118.845000 25.020000 4.170000
O 116.760000 20.850000 6.255000
O 118.845000 22.935000 10.425000
O 120.930000 22.935000 8.340000
O 118.845000 25.020000 8.340000
O 116.760000 20.850000 10.425000
O 118.845000 22.935000 14.595000
O 120.930000 22.935000 12.510000
O 118.845000 25.020000 12.510000
O 116.760000 20.850000 14.595000
O 118.845000 22.935000 18.765000
O 120.930000 22.935000 16.680000
O 118.845000 25.020000 16.680000
O 116.760000 20.850000 18.765000
O 118.845000 22.935000 22.935000
O 120.930000 22.935000 20.850000
O 118.845000 25.020000 20.850000
O 116.760000 20.850000 22.935000
O 118.845000 22.935000 27.105000
O 120.930000 22.935000 25.020000
O 118.845000 25.020000 25.020000
O 118.845000 25.020000 29.190000
O 118.845000 27.105000 2.085000
O 120.930000 27.105000 0.000000
O 118.845000 29.190000 0.000000
O 116.760000 25.020000 2.085000
O 118.845000 27.105000 6.255000
O 120.930000 27.105000 4.170000
O 118.845000 29.190000 4.170000
O 116.760000 25.020000 6.255000
O 118.845000 27.105000 10.425000
O 120.930000 27.105000 8.340000
O 118.845000 29.190000 8.340000
O 116.760000 25.020000 10.425000
O 118.845000 27.105000 14.595000
O 120.930000 27.105000 12.510000
O 118.845000 29.190000 12.510000
O 116.760000 25.020000 14.595000
O 118.845000 27.105000 18.765000
O 120.930000 27.105000 16.680000
O 118.845000 29.190000 16.680000
O 116.760000 25.020000 18.765000
O 118.845000 27.105000 22.935000
O 120.930000 27.105000 20.850000
O 118.845000 29.190000 20.850000
O 116.760000 25.020000 22.935000
O 118.845000 27.105000 27.105000
O 120.930000 27.105000 25.020000
O 118.845000 29.190000 25.020000
O 116.760000 25.020000 27.105000
O 118.845000 27.105000 31.275000
O 120.930000 27.105000 29.190000
O 118.845000 29.190000 29.190000
O 118.845000 29.190000 33.360000
O 118.845000 31.275000 2.085000
O 120.930000 31.275000 0.000000
O 118.845000 33.360000 0.000000
O 116.760000 29.190000 2.085000
O 118.845000 31.275000 6.255000
O 120.930000 31.275000 4.170000
O 118.845000 33.360000 4.170000
O 116.760000 29.190000 6.255000
O 118.845000 31.275000 10.425000
O 120.930000 31.275000 8.340000
O 118.845000 33.360000 8.340000
O 116.760000 29.190000 10.425000
O 118.845000 31.275000 14.595000
O 120.930000 31.275000 12.510000
O 118.845000 33.360000 12.510000
O 116.760000 29.190000 14.595000
O 118.845000 31.275000 18.765000
O 120.930000 31.275000 16.680000
O 118.845000 33.360000 16.680000
O 116.760000 29.190000 18.765000
O 118.845000 31.275000 22.935000
O 120.930000 31.275000 20.850000
O 118.845000 33.360000 20.850000
O 116.760000 29.190000 22.935000
O 118.845000 31.275000 27.105000
O 120.930000 31.275000 25.020000
O 118.845000 33.360000 25.020000
O 116.760000 29.190000 27.105000
O 118.845000 31.275000 31.275000
O 120.930000 31.275000 29.190000
O 118.845000 33.360000 29.190000
O 116.760000 29.190000 31.275000
O 118.845000 31.275000 35.445000
O 120.930000 31.275000 33.360000
O 118.845000 33.360000 33.360000
O 118.845000 33.360000 37.530000
O 118.845000 35.445000 2.085000
O 120.930000 35.445000 0.000000
O 118.845000 37.530000 0.000000
O 116.760000 33.360000 2.085000
O 118.845000 35.445000 6.255000
O 120.930000 35.445000 4.170000
O 118.845000 37.530000 4.170000
O 116.760000 33.360000 6.255000
O 118.845000 35.445000 10.425000
O 120.930000 35.445000 8.340000
O 118.845000 37.530000 8.340000
O 116.760000 33.360000 10.425000
O 118.845000 35.445000 14.595000
O 120.930000 35.445000 12.510000
O 118.845000 37.530000 12.510000
O 116.760000 33.360000 14.595000
O 118.845000 35.445000 18.765000
O 120.930000 35.445000 16.680000
O 118.845000 37.530000 16.680000
O 116.760000 33.360000 18.765000
O 118.845000 35.445000 22.935000
O 120.930000 35.445000 20.850000
O 118.845000 37.530000 20.850000
O 116.760000 33.360000 22.935000
O 118.845000 35.445000 27.105000
O 120.930000 35.445000 25.020000
O 118.845000 37.530000 25.020000
O 116.760000 33.360000 27.105000
O 118.845000 35.445000 31.275000
O 120.930000 35.445000 29.190000
O 118.845000 37.530000 29.190000
O 116.760000 33.360000 31.275000
O 118.845000 35.445000 35.445000
O 120.930000 35.445000 33.360000
O 118.845000 37.530000 33.360000
O 116.760000 33.360000 35.445000
O 118.845000 35.445000 39.615000
O 120.930000 35.445000 37.530000
O 118.845000 37.530000 37.530000
O 118.845000 39.615000 2.085000
O 120.930000 39.615000 0.000000
O 118.845000 0.000000 0.000000
O 116.760000 37.530000 2.085000
O 118.845000 39.615000 6.255000
O 120.930000 39.615000 4.170000
O 118.845000 0.000000 4.170000
O 116.760000 37.530000 6.255000
O 118.845000 39.615000 10.425000
O 120.930000 39.615000 8.340000
O 118.845000 0.000000 8.340000
O 116.760000 37.530000 10.425000
O 118.845000 39.615000 14.595000
O 120.930000 39.615000 12.510000
O 118.845000 0.000000 12.510000
O 116.760000 37.530000 14.595000
O 118.845000 39.615000 18.765000
O 120.930000 39.615000 16.680000
O 118.845000 0.000000 16.680000
O 116.760000 37.530000 18.765000
O 118.845000 39.615000 22.935000
O 120.930000 39.615000 20.850000
O 118.845000 0.000000 20.850000
O 116.760000 37.530000 22.935000
O 118.845000 39.615000 27.105000
O 120.930000 39.615000 25.020000
O 118.845000 0.000000 25.020000
O 116.760000 37.530000 27.105000
O 118.845000 39.615000 31.275000
O 120.930000 39.615000 29.190000
O 118.845000 0.000000 29.190000
O 116.760000 37.530000 31.275000
O 118.845000 39.615000 35.445000
O 120.930000 39.615000 33.360000
O 118.845000 0.000000 33.360000
O 116.760000 37.530000 35.445000
O 118.845000 39.615000 39.615000
O 120.930000 39.615000 37.530000
O 118.845000 0.000000 37.530000
O 116.760000 37.530000 39.615000
O 123.015000 2.085000 2.085000
O 0.000000 2.085000 0.000000
O 123.015000 4.170000 0.000000
O 120.930000 0.000000 2.085000
O 123.015000 2.085000 6.255000
O 0.000000 2.085000 4.170000
O 123.015000 4.170000 4.170000
O 120.930000 0.000000 6.255000
O 123.015000 2.085000 10.425000
O 0.000000 2.085000 8.340000
O 123.015000 4.170000 8.340000
O 120.930000 0.000000 10.425000
O 123.015000 2.085000 14.595000
O 0.000000 2.085000 12.510000
O 123.015000 4.170000 12.510000
O 120.930000 0.000000 14.595000
O 123.015000 2.085000 18.765000
O 0.000000 2.085000 16.680000
O 123.015000 4.170000 16.680000
O 120.930000 0.000000 18.765000
O 123.015000 2.085000 22.935000
O 0.000000 2.085000 20.850000
O 123.015000 4.170000 20.850000
O 120.930000 0.000000 22.935000
O 123.015000 2.085000 27.105000
O 0.000000 2.085000 25.020000
O 123.015000 4.170000 25.020000
O 120.930000 0.000000 27.105000
O 123.015000 2.085000 31.275000
O 0.000000 2.085000 29.190000
O 123.015000 4.170000 29.190000
O 120.930000 0.000000 31.275000
O 123.015000 2.085000 35.445000
O 0.000000 2.085000 33.360000
O 123.015000 4.170000 33.360000
O 120.930000 0.000000 35.445000
O 123.015000 2.085000 39.615000
O 0.000000 2.085000 37.530000
O 123.015000 4.170000 37.530000
O 120.930000 0.000000 39.615000
O 123.015000 6.255000 2.085000
O 0.000000 6.255000 0.000000
O 123.015000 8.340000 0.000000
O 120.930000 4.170000 2.085000
O 123.015000 6.255000 6.255000
O 0.000000 6.255000 4.170000
O 123.015000 8.340000 4.170000
O 120.930000 4.170000 6.255000
O 123.015000 6.255000 10.425000
O 0.000000 6.255000 8.340000
O 123.015000 8.340000 8.340000
O 120.930000 4.170000 10.425000
O 123.015000 6.255000 14.595000
O 0.000000 6.255000 12.510000
O 123.015000 8.340000 12.510000
O 120.930000 4.170000 14.595000
O 123.015000 6.255000 18.765000
O 0.000000 6.255000 16.680000
O 123.015000 8.340000 16.680000
O 120.930000 4.170000 18.765000
O 123.015000 6.255000 22.935000
O 0.000000 6.255000 20.850000
O 123.015000 8.340000 20.850000
O 120.930000 4.170000 22.935000
O 123.015000 6.255000 27.105000
O 0.000000 6.255000 25.020000
O 123.015000 8.340000 25.020000
O 120.930000 4.170000 27.105000
O 123.015000 6.255000 31.275000
O 0.000000 6.255000 29.190000
O 123.015000 8.340000 29.190000
O 120.930000 4.170000 31.275000
O 123.015000 6.255000 35.445000
O 0.000000 6.255000 33.360000
O 123.015000 8.340000 33.360000
O 120.930000 4.170000 35.445000
O 123.015000 6.255000 39.615000
O 0.000000 6.255000 37.530000
O 123.015000 8.340000 37.530000
O 120.930000 4.170000 39.615000
O 123.015000 10.425000 2.085000
O 0.000000 10.425000 0.000000
O 123.015000 12.510000 0.000000
O 120.930000 8.340000 2.085000
O 123.015000 10.425000 6.255000
O 0.000000 10.425000 4.170000
O 123.015000 12.510000 4.170000
O 120.930000 8.340000 6.255000
O 123.015000 10.425000 10.425000
O 0.000000 10.425000 8.340000
O 123.015000 12.510000 8.340000
O 120.930000 8.340000 10.425000
O 123.015000 10.425000 14.595000
O 0.000000 10.425000 12.510000
O 123.015000 12.510000 12.510000
O 120.930000 8.340000 14.595000
O 123.015000 10.425000 18.765000
O 0.000000 10.425000 16.680000
O 123.015000 12.510000 16.680000
O 120.930000 8.340000 18.765000
O 123.015000 10.425000 22.935000
O 0.000000 10.425000 20.850000
O 123.015000 12.510000 20.850000
O 120.930000 8.340000 22.935000
O 123.015000 10.425000 27.105000
O 0.000000 10.425000 25.020000
O 123.015000 12.510000 25.020000
O 120.930000 8.340000 27.105000
O 123.015000 10.425000 31.275000
O 0.000000 10.425000 29.190000
O 123.015000 12.510000 29.190000
O 120.930000 8.340000 31.275000
O 123.015000 10.425000 35.445000
O 0.000000 10.425000 33.360000
O 123.015000 12.510000 33.360000
O 120.930000 8.340000 35.445000
O 123.015000 14.595000 2.085000
O 0.000000 14.595000 0.000000
O 123.015000 16.680000 0.000000
O 120.930000 12.510000 2.085000
O 123.015000 14.595000 6.255000
O 0.000000 14.595000 4.170000
O 123.015000 16.680000 4.170000
O 120.930000 12.510000 6.255000
O 123.015000 14.595000 10.425000
O 0.000000 14.595000 8.340000
O 123.015000 16.680000 8.340000
O 120.930000 12.510000 10.425000
O 123.015000 14.595000 14.595000
O 0.000000 14.595000 12.510000
O 123.015000 16.680000 12.510000
O 120.930000 12.510000 14.595000
O 123.015000 14.595000 18.765000
O 0.000000 14.595000 16.680000
O 123.015000 16.680000 16.680000
O 120.930000 12.510000 18.765000
O 123.015000 14.595000 22.935000
O 0.000000 14.595000 20.850000
O 123.015000 16.680000 20.850000
O 120.930000 12.510000 22.935000
O 123.015000 14.595000 27.105000
O 0.000000 14.595000 25.020000
O 123.015000 16.680000 25.020000
O 120.930000 12.510000 27.105000
O 123.015000 14.595000 31.275000
O 0.000000 14.595000 29.190000
O 123.015000 16.680000 29.190000
O 120.930000 12.510000 31.275000
O 123.015000 18.765000 2.085000
O 0.000000 18.765000 0.000000
O 123.015000 20.850000 0.000000
O 120.930000 16.680000 2.085000
O 123.015000 18.765000 6.255000
O 0.000000 18.765000 4.170000
O 123.015000 20.850000 4.170000
O 120.930000 16.680000 6.255000
O 123.015000 18.765000 10.425000
O 0.000000 18.765000 8.340000
O 123.015000 20.850000 8.340000
O 120.930000 16.680000 10.425000
O 123.015000 18.765000 14.595000
O 0.000000 18.765000 12.510000
O 123.015000 20.850000 12.510000
O 120.930000 16.680000 14.595000
O 123.015000 18.765000 18.765000
O 0.000000 18.765000 16.680000
O 123.015000 20.850000 16.680000
O 120.930000 16.680000 18.765000
O 123.015000 18.765000 22.935000
O 0.000000 18.765000 20.850000
O 123.015000 20.850000 20.850000
O 120.930000 16.680000 22.935000
O 123.015000 18.765000 27.105000
O 0.000000 18.765000 25.020000
O 123.015000 20.850000 25.020000
O 120.930000 16.680000 27.105000
O 123.015000 22.935000 2.085000
O 0.000000 22.935000 0.000000
O 123.015000 25.020000 0.000000
O 120.930000 20.850000 2.085000
O 123.015000 22.935000 6.255000
O 0.000000 22.935000 4.170000
O 123.015000 25.020000 4.170000
O 120.930000 20.850000 6.255000
O 123.015000 22.935000 10.425000
O 0.000000 22.935000 8.340000
O 123.015000 25.020000 8.340000
O 120.930000 20.850000 10.425000
O 123.015000 22.935000 14.595000
O 0.000000 22.935000 12.510000
O 123.015000 25.020000 12.510000
O 120.930000 20.850000 14.595000
O 123.015000 22.935000 18.765000
O 0.000000 22.935000 16.680000
O 123.015000 25.020000 16.680000
O 120.930000 20.850000 18.765000
O 123.015000 22.935000 22.935000
O 0.000000 22.935000 20.850000
O 123.015000 25.020000 20.850000
O 120.930000 20.850000 22.935000
O 123.015000 22.935000 27.105000
O 0.000000 22.935000 25.020000
O 123.015000 25.020000 25.020000
O 123.015000 25.020000 29.190000
O 123.015000 27.105000 2.085000
O 0.000000 27.105000 0.000000
O 123.015000 29.190000 0.000000
O 120.930000 25.020000 2.085000
O 123.015000 27.105000 6.255000
O 0.000000 27.105000 4.170000
O 123.015000 29.190000 4.170000
O 120.930000 25.020000 6.255000
O 123.015000 27.105000 10.425000
O 0.000000 27.105000 8.340000
O 123.015000 29.190000 8.340000
O 120.930000 25.020000 10.425000
O 123.015000 27.105000 14.595000
O 0.000000 27.105000 12.510000
O 123.015000 29.190000 12.510000
O 120.930000 25.020000 14.595000
O 123.015000 27.105000 18.765000
O 0.000000 27.105000 16.680000
O 123.015000 29.190000 16.680000
O 120.930000 25.020000 18.765000
O 123.015000 27.105000 22.935000
O 0.000000 27.105000 20.850000
O 123.015000 29.190000 20.850000
O 120.930000 25.020000 22.935000
O 123.015000 27.105000 27.105000
O 0.000000 27.105000 25.020000
O 123.015000 29.190000 25.020000
O 120.930000 25.020000 27.105000
O 123.015000 27.105000 31.275000
O 0.000000 27.105000 29.190000
O 123.015000 29.190000 29.190000
O 123.015000 29.190000 33.360000
O 123.015000 31.275000 2.085000
O 0.000000 31.275000 0.000000
O 123.015000 33.360000 0.000000
O 120.930000 29.190000 2.085000
O 123.015000 31.275000 6.255000
O 0.000000 31.275000 4.170000
O 123.015000 33.360000 4.170000
O 120.930000 29.190000 6.255000
O 123.015000 31.275000 10.425000
O 0.000000 31.275000 8.340000
O 123.015000 33.360000 8.340000
O 120.930000 29.190000 10.425000
O 123.015000 31.275000 14.595000
O 0.000000 31.275000 12.510000
O 123.015000 33.360000 12.510000
O 120.930000 29.190000 14.595000
O 123.015000 31.275000 18.765000
O 0.000000 31.275000 16.680000
O 123.015000 33.360000 16.680000
O 120.930000 29.190000 18.765000
O 123.015000 31.275000 22.935000
O 0.000000 31.275000 20.850000
O 123.015000 33.360000 20.850000
O 120.930000 29.190000 22.935000
O 123.015000 31.275000 27.105000
O 0.000000 31.275000 25.020000
O 123.015000 33.360000 25.020000
O 120.930000 29.190000 27.105000
O 123.015000 31.275000 31.275000
O 0.000000 31.275000 29.190000
O 123.015000 33.360000 29.190000
O 120.930000 29.190000 31.275000
O 123.015000 31.275000 35.445000
O 0.000000 31.275000 33.360000
O 123.015000 33.360000 33.360000
O 123.015000 33.360000 37.530000
O 123.015000 35.445000 2.085000
O 0.000000 35.445000 0.000000
O 123.015000 37.530000 0.000000
O 120.930000 33.360000 2.085000
O 123.015000 35.445000 6.255000
O 0.000000 35.445000 4.170000
O 123.015000 37.530000 4.170000
O 120.930000 33.360000 6.255000
O 123.015000 35.445000 10.425000
O 0.000000 35.445000 8.340000
O 123.015000 37.530000 8.340000
O 120.930000 33.360000 10.425000
O 123.015000 35.445000 14.595000
O 0.000000 35.445000 12.510000
O 123.015000 37.530000 12.510000
O 120.930000 33.360000 14.595000
O 123.015000 35.445000 18.765000
O 0.000000 35.445000 16.680000
O 123.015000 37.530000 16.680000
O 120.930000 33.360000 18.765000
O 123.015000 35.445000 22.935000
O 0.000000 35.445000 20.850000
O 123.015000 37.530000 20.850000
O 120.930000 33.360000 22.935000
O 123.015000 35.445000 27.105000
O 0.000000 35.445000 25.020000
O 123.015000 37.530000 25.020000
O 120.930000 33.360000 27.105000
O 123.015000 35.445000 31.275000
O 0.000000 35.445000 29.190000
O 123.015000 37.530000 29.190000
O 120.930000 33.360000 31.275000
O 123.015000 35.445000 35.445000
O 0.000000 35.445000 33.360000
O 123.015000 37.530000 33.360000
O 120.930000 33.360000 35.445000
O 123.015000 35.445000 39.615000
O 0.000000 35.445000 37.530000
O 123.015000 37.530000 37.530000
O 123.015000 39.615000 2.085000
O 0.000000 39.615000 0.000000
O 123.015000 0.000000 0.000000
O 120.930000 37.530000 2.085000
O 123.015000 39.615000 6.255000
O 0.000000 39.615000 4.170000
O 123.015000 0.000000 4.170000
O 120.930000 37.530000 6.255000
O 123.015000 39.615000 10.425000
O 0.000000 39.615000 8.340000
O 123.015000 0.000000 8.340000
O 120.930000 37.530000 10.425000
O 123.015000 39.615000 14.595000
O 0.000000 39.615000 12.510000
O 123.015000 0.000000 12.510000
O 120.930000 37.530000 14.595000
O 123.015000 39.615000 18.765000
O 0.000000 39.615000 16.680000
O 123.015000 0.000000 16.680000
O 120.930000 37.530000 18.765000
O 123.015000 39.615000 22.935000
O 0.000000 39.615000 20.850000
O 123.015000 0.000000 20.850000
O 120.930000 37.530000 22.935000
O 123.015000 39.615000 27.105000
O 0.000000 39.615000 25.020000
O 123.015000 0.000000 25.020000
O 120.930000 37.530000 27.105000
O 123.015000 39.615000 31.275000
O 0.000000 39.615000 29.190000
O 123.015000 0.000000 29.190000
O 120.930000 37.530000 31.275000
O 123.015000 39.615000 35.445000
O 0.000000 39.615000 33.360000
O 123.015000 0.000000 33.360000
O 120.930000 37.530000 35.445000
O 123.015000 39.615000 39.615000
O 0.000000 39.615000 37.530000
O 123.015000 0.000000 37.530000
O 120.930000 37.530000 39.615000
