ITO extension slab in2o3-111-groove-oh075 generated by nio_md_prep.ito.substrate

10735 atoms

4 atom types

0.00000000 123.90743864 xlo xhi
0.00000000 42.92279583 ylo yhi
-5.00000000 200.00000000 zlo zhi

Masses

1 114.818 # In
2 15.999 # O
3 15.999 # Oh
4 1.008 # Hh

Atoms # full

1 0 1 1.575000 0.000000 0.000000 1.657107
2 0 1 1.575000 22.716364 32.192097 7.498159
3 0 1 1.575000 4.130248 0.000000 7.498159
4 0 1 1.575000 22.716364 39.345896 7.498159
5 0 1 1.575000 24.781488 0.000000 10.418686
6 0 1 1.575000 2.065124 39.345896 4.577633
7 0 1 1.575000 20.651240 0.000000 4.577633
8 0 1 1.575000 2.065124 32.192097 4.577633
9 0 1 1.575000 24.642298 39.586979 1.460263
10 0 1 1.575000 18.725305 42.681713 1.853950
11 0 1 1.575000 2.204313 42.681713 4.774476
12 0 1 1.575000 24.642298 39.586979 10.221842
13 0 1 1.575000 2.958497 30.162564 1.460263
14 0 1 1.575000 3.236875 37.798529 1.853950
15 0 1 1.575000 23.888115 30.644730 4.774476
16 0 1 1.575000 2.958497 30.162564 10.221842
17 0 1 1.575000 21.962180 30.403647 1.460263
18 0 1 1.575000 2.819307 33.980547 1.853950
19 0 1 1.575000 23.470547 41.134346 4.774476
20 0 1 1.575000 21.962180 30.403647 10.221842
21 0 1 1.575000 20.790429 39.104813 4.774476
22 0 1 1.575000 1.925935 36.010080 4.380790
23 0 1 1.575000 22.577174 28.856280 7.301316
24 0 1 1.575000 0.139189 31.951014 1.853950
25 0 1 1.575000 5.301999 41.375429 4.774476
26 0 1 1.575000 5.023621 33.739464 4.380790
27 0 1 1.575000 0.893373 40.893263 7.301316
28 0 1 1.575000 21.822991 41.375429 1.853950
29 0 1 1.575000 23.470547 33.980547 4.774476
30 0 1 1.575000 17.831933 30.403647 4.380790
31 0 1 1.575000 1.310941 30.403647 7.301316
32 0 1 1.575000 2.819307 41.134346 1.853950
33 0 2 -1.050000 23.905049 41.238791 2.688637
34 0 2 -1.050000 21.451682 33.876101 7.980630
35 0 2 -1.050000 4.228548 28.951426 5.366175
36 0 2 -1.050000 24.759184 39.009668 8.116143
37 0 2 -1.050000 1.896610 28.698181 2.688637
38 0 2 -1.050000 21.890314 37.408647 7.980630
39 0 2 -1.050000 22.376031 32.109113 5.366175
40 0 2 -1.050000 3.400020 30.552446 8.116143
41 0 2 -1.050000 23.761316 30.216218 2.688637
42 0 2 -1.050000 6.220979 28.868442 7.980630
43 0 2 -1.050000 22.958396 39.092652 5.366175
44 0 2 -1.050000 21.403771 30.591077 8.116143
45 0 2 -1.050000 23.905049 41.238791 11.450216
46 0 2 -1.050000 0.800442 41.029901 5.060104
47 0 2 -1.050000 20.749540 28.951426 2.445649
48 0 2 -1.050000 4.107945 31.855868 5.195616
49 0 2 -1.050000 1.896610 28.698181 11.450216
50 0 2 -1.050000 1.239074 30.254848 5.060104
51 0 2 -1.050000 1.724792 39.262912 2.445649
52 0 2 -1.050000 19.921012 30.552446 5.195616
53 0 2 -1.050000 23.761316 30.216218 11.450216
54 0 2 -1.050000 22.741971 28.868442 5.060104
55 0 2 -1.050000 2.307157 31.938852 2.445649
56 0 2 -1.050000 0.752531 37.744876 5.195616
57 0 2 -1.050000 0.876439 30.299202 9.387156
58 0 2 -1.050000 3.329806 37.661892 4.095162
59 0 2 -1.050000 20.552940 42.586567 6.709617
60 0 2 -1.050000 0.022303 32.528325 3.959650
61 0 2 -1.050000 22.884878 42.839812 9.387156
62 0 2 -1.050000 2.891174 34.129346 4.095162
63 0 2 -1.050000 2.405456 39.428880 6.709617
64 0 2 -1.050000 21.381468 40.985547 3.959650
65 0 2 -1.050000 1.020171 41.321776 9.387156
66 0 2 -1.050000 18.560508 42.669551 4.095162
67 0 2 -1.050000 1.823091 32.445341 6.709617
68 0 2 -1.050000 3.377717 40.946916 3.959650
69 0 2 -1.050000 0.876439 30.299202 0.625577
70 0 2 -1.050000 23.981046 30.508093 7.015688
71 0 2 -1.050000 4.031948 42.586567 9.630144
72 0 2 -1.050000 20.673543 39.682125 6.880176
73 0 2 -1.050000 22.884878 42.839812 0.625577
74 0 2 -1.050000 23.542413 41.283145 7.015688
75 0 2 -1.050000 23.056696 32.275081 9.630144
76 0 2 -1.050000 4.860476 40.985547 6.880176
77 0 2 -1.050000 1.020171 41.321776 0.625577
78 0 2 -1.050000 2.039516 42.669551 7.015688
79 0 2 -1.050000 22.474331 39.599141 9.630144
80 0 2 -1.050000 24.028957 33.793117 6.880176
81 0 1 1.575000 12.390744 35.768997 1.657107
82 0 1 1.575000 10.325620 39.345896 7.498159
83 0 1 1.575000 16.520992 35.768997 7.498159
84 0 1 1.575000 10.325620 32.192097 7.498159
85 0 1 1.575000 12.390744 35.768997 10.418686
86 0 1 1.575000 14.455868 32.192097 4.577633
87 0 1 1.575000 8.260496 35.768997 4.577633
88 0 1 1.575000 14.455868 39.345896 4.577633
89 0 1 1.575000 12.251555 32.433180 1.460263
90 0 1 1.575000 6.334561 35.527913 1.853950
91 0 1 1.575000 14.595057 35.527913 4.774476
92 0 1 1.575000 12.251555 32.433180 10.221842
93 0 1 1.575000 15.349240 37.316363 1.460263
94 0 1 1.575000 15.627619 30.644730 1.853950
95 0 1 1.575000 11.497371 37.798529 4.774476
96 0 1 1.575000 15.349240 37.316363 10.221842
97 0 1 1.575000 9.571437 37.557446 1.460263
98 0 1 1.575000 15.210051 41.134346 1.853950
99 0 1 1.575000 11.079803 33.980547 4.774476
100 0 1 1.575000 9.571437 37.557446 10.221842
101 0 1 1.575000 8.399685 31.951014 4.774476
102 0 1 1.575000 14.316678 28.856280 4.380790
103 0 1 1.575000 10.186431 36.010080 7.301316
104 0 1 1.575000 12.529933 39.104813 1.853950
105 0 1 1.575000 17.692743 34.221630 4.774476
106 0 1 1.575000 17.414364 40.893263 4.380790
107 0 1 1.575000 13.284116 33.739464 7.301316
108 0 1 1.575000 9.432247 34.221630 1.853950
109 0 1 1.575000 11.079803 41.134346 4.774476
110 0 1 1.575000 5.441189 37.557446 4.380790
111 0 1 1.575000 13.701685 37.557446 7.301316
112 0 1 1.575000 15.210051 33.980547 1.853950
113 0 2 -1.050000 11.514305 34.084992 2.688637
114 0 2 -1.050000 9.060938 41.029901 7.980630
115 0 2 -1.050000 16.619292 36.105225 5.366175
116 0 2 -1.050000 12.368441 31.855868 8.116143
117 0 2 -1.050000 14.287354 35.851981 2.688637
118 0 2 -1.050000 9.499570 30.254848 7.980630
119 0 2 -1.050000 9.985287 39.262912 5.366175
120 0 2 -1.050000 15.790764 37.706245 8.116143
121 0 2 -1.050000 11.370573 37.370017 2.688637
122 0 2 -1.050000 18.611723 36.022241 7.980630
123 0 2 -1.050000 10.567652 31.938852 5.366175
124 0 2 -1.050000 9.013027 37.744876 8.116143
125 0 2 -1.050000 11.514305 34.084992 11.450216
126 0 2 -1.050000 13.191186 33.876101 5.060104
127 0 2 -1.050000 8.358796 36.105225 2.445649
128 0 2 -1.050000 16.498688 39.009668 5.195616
129 0 2 -1.050000 14.287354 35.851981 11.450216
130 0 2 -1.050000 13.629818 37.408647 5.060104
131 0 2 -1.050000 14.115535 32.109113 2.445649
132 0 2 -1.050000 7.530268 37.706245 5.195616
133 0 2 -1.050000 11.370573 37.370017 11.450216
134 0 2 -1.050000 10.351227 36.022241 5.060104
135 0 2 -1.050000 14.697900 39.092652 2.445649
136 0 2 -1.050000 13.143275 30.591077 5.195616
137 0 2 -1.050000 13.267182 37.453001 9.387156
138 0 2 -1.050000 15.720550 30.508093 4.095162
139 0 2 -1.050000 8.162196 35.432768 6.709617
140 0 2 -1.050000 12.413047 39.682125 3.959650
141 0 2 -1.050000 10.494134 35.686012 9.387156
142 0 2 -1.050000 15.281917 41.283145 4.095162
143 0 2 -1.050000 14.796200 32.275081 6.709617
144 0 2 -1.050000 8.990724 33.831748 3.959650
145 0 2 -1.050000 13.410915 34.167976 9.387156
146 0 2 -1.050000 6.169764 35.515752 4.095162
147 0 2 -1.050000 14.213835 39.599141 6.709617
148 0 2 -1.050000 15.768461 33.793117 3.959650
149 0 2 -1.050000 13.267182 37.453001 0.625577
150 0 2 -1.050000 11.590302 37.661892 7.015688
151 0 2 -1.050000 16.422692 35.432768 9.630144
152 0 2 -1.050000 8.282799 32.528325 6.880176
153 0 2 -1.050000 10.494134 35.686012 0.625577
154 0 2 -1.050000 11.151669 34.129346 7.015688
155 0 2 -1.050000 10.665952 39.428880 9.630144
156 0 2 -1.050000 17.251220 33.831748 6.880176
157 0 2 -1.050000 13.410915 34.167976 0.625577
158 0 2 -1.050000 14.430260 35.515752 7.015688
159 0 2 -1.050000 10.083587 32.445341 9.630144
160 0 2 -1.050000 11.638213 40.946916 6.880176
161 0 1 1.575000 4.130248 35.768997 7.498159
162 0 1 1.575000 2.065124 39.345896 13.339212
163 0 1 1.575000 8.260496 35.768997 13.339212
164 0 1 1.575000 2.065124 32.192097 13.339212
165 0 1 1.575000 6.195372 32.192097 10.418686
166 0 1 1.575000 24.781488 35.768997 10.418686
167 0 1 1.575000 6.195372 39.345896 10.418686
168 0 1 1.575000 3.991059 32.433180 7.301316
169 0 1 1.575000 22.855553 35.527913 7.695003
170 0 1 1.575000 6.334561 35.527913 10.615529
171 0 1 1.575000 7.088745 37.316363 7.301316
172 0 1 1.575000 7.367123 30.644730 7.695003
173 0 1 1.575000 3.236875 37.798529 10.615529
174 0 1 1.575000 1.310941 37.557446 7.301316
175 0 1 1.575000 6.949555 41.134346 7.695003
176 0 1 1.575000 2.819307 33.980547 10.615529
177 0 1 1.575000 0.139189 31.951014 10.615529
178 0 1 1.575000 6.056183 28.856280 10.221842
179 0 1 1.575000 1.925935 36.010080 13.142369
180 0 1 1.575000 4.269437 39.104813 7.695003
181 0 1 1.575000 9.432247 34.221630 10.615529
182 0 1 1.575000 9.153869 40.893263 10.221842
183 0 1 1.575000 5.023621 33.739464 13.142369
184 0 1 1.575000 1.171751 34.221630 7.695003
185 0 1 1.575000 2.819307 41.134346 10.615529
186 0 1 1.575000 21.962180 37.557446 10.221842
187 0 1 1.575000 5.441189 37.557446 13.142369
188 0 1 1.575000 6.949555 33.980547 7.695003
189 0 2 -1.050000 3.253809 34.084992 8.529689
190 0 2 -1.050000 0.800442 41.029901 13.821683
191 0 2 -1.050000 8.358796 36.105225 11.207228
192 0 2 -1.050000 4.107945 31.855868 13.957195
193 0 2 -1.050000 6.026858 35.851981 8.529689
194 0 2 -1.050000 1.239074 30.254848 13.821683
195 0 2 -1.050000 1.724792 39.262912 11.207228
196 0 2 -1.050000 7.530268 37.706245 13.957195
197 0 2 -1.050000 3.110077 37.370017 8.529689
198 0 2 -1.050000 10.351227 36.022241 13.821683
199 0 2 -1.050000 2.307157 31.938852 11.207228
200 0 2 -1.050000 0.752531 37.744876 13.957195
201 0 2 -1.050000 4.930690 33.876101 10.901157
202 0 2 -1.050000 0.098300 36.105225 8.286701
203 0 2 -1.050000 8.238193 39.009668 11.036669
204 0 2 -1.050000 5.369322 37.408647 10.901157
205 0 2 -1.050000 5.855040 32.109113 8.286701
206 0 2 -1.050000 24.051260 37.706245 11.036669
207 0 2 -1.050000 2.090732 36.022241 10.901157
208 0 2 -1.050000 6.437404 39.092652 8.286701
209 0 2 -1.050000 4.882779 30.591077 11.036669
210 0 2 -1.050000 7.460054 30.508093 9.936215
211 0 2 -1.050000 24.683188 35.432768 12.550670
212 0 2 -1.050000 4.152551 39.682125 9.800702
213 0 2 -1.050000 7.021422 41.283145 9.936215
214 0 2 -1.050000 6.535704 32.275081 12.550670
215 0 2 -1.050000 0.730228 33.831748 9.800702
216 0 2 -1.050000 22.690756 35.515752 9.936215
217 0 2 -1.050000 5.953339 39.599141 12.550670
218 0 2 -1.050000 7.507965 33.793117 9.800702
219 0 2 -1.050000 5.006687 37.453001 6.466629
220 0 2 -1.050000 3.329806 37.661892 12.856741
221 0 2 -1.050000 0.022303 32.528325 12.721229
222 0 2 -1.050000 2.233638 35.686012 6.466629
223 0 2 -1.050000 2.891174 34.129346 12.856741
224 0 2 -1.050000 8.990724 33.831748 12.721229
225 0 2 -1.050000 5.150419 34.167976 6.466629
226 0 2 -1.050000 6.169764 35.515752 12.856741
227 0 2 -1.050000 3.377717 40.946916 12.721229
228 0 1 1.575000 16.520992 0.000000 7.498159
229 0 1 1.575000 14.455868 32.192097 13.339212
230 0 1 1.575000 20.651240 0.000000 13.339212
231 0 1 1.575000 14.455868 39.345896 13.339212
232 0 1 1.575000 18.586116 39.345896 10.418686
233 0 1 1.575000 12.390744 0.000000 10.418686
234 0 1 1.575000 18.586116 32.192097 10.418686
235 0 1 1.575000 16.381802 39.586979 7.301316
236 0 1 1.575000 10.464809 42.681713 7.695003
237 0 1 1.575000 18.725305 42.681713 10.615529
238 0 1 1.575000 19.479488 30.162564 7.301316
239 0 1 1.575000 19.757867 37.798529 7.695003
240 0 1 1.575000 15.627619 30.644730 10.615529
241 0 1 1.575000 13.701685 30.403647 7.301316
242 0 1 1.575000 19.340299 33.980547 7.695003
243 0 1 1.575000 15.210051 41.134346 10.615529
244 0 1 1.575000 12.529933 39.104813 10.615529
245 0 1 1.575000 18.446926 36.010080 10.221842
246 0 1 1.575000 14.316678 28.856280 13.142369
247 0 1 1.575000 16.660181 31.951014 7.695003
248 0 1 1.575000 21.822991 41.375429 10.615529
249 0 1 1.575000 21.544612 33.739464 10.221842
250 0 1 1.575000 17.414364 40.893263 13.142369
251 0 1 1.575000 13.562495 41.375429 7.695003
252 0 1 1.575000 15.210051 33.980547 10.615529
253 0 1 1.575000 9.571437 30.403647 10.221842
254 0 1 1.575000 17.831933 30.403647 13.142369
255 0 1 1.575000 19.340299 41.134346 7.695003
256 0 2 -1.050000 15.644553 41.238791 8.529689
257 0 2 -1.050000 13.191186 33.876101 13.821683
258 0 2 -1.050000 20.749540 28.951426 11.207228
259 0 2 -1.050000 16.498688 39.009668 13.957195
260 0 2 -1.050000 18.417602 28.698181 8.529689
261 0 2 -1.050000 13.629818 37.408647 13.821683
262 0 2 -1.050000 14.115535 32.109113 11.207228
263 0 2 -1.050000 19.921012 30.552446 13.957195
264 0 2 -1.050000 15.500821 30.216218 8.529689
265 0 2 -1.050000 22.741971 28.868442 13.821683
266 0 2 -1.050000 14.697900 39.092652 11.207228
267 0 2 -1.050000 13.143275 30.591077 13.957195
268 0 2 -1.050000 17.321434 41.029901 10.901157
269 0 2 -1.050000 12.489044 28.951426 8.286701
270 0 2 -1.050000 20.628936 31.855868 11.036669
271 0 2 -1.050000 17.760066 30.254848 10.901157
272 0 2 -1.050000 18.245783 39.262912 8.286701
273 0 2 -1.050000 11.660516 30.552446 11.036669
274 0 2 -1.050000 14.481475 28.868442 10.901157
275 0 2 -1.050000 18.828148 31.938852 8.286701
276 0 2 -1.050000 17.273523 37.744876 11.036669
277 0 2 -1.050000 19.850798 37.661892 9.936215
278 0 2 -1.050000 12.292444 42.586567 12.550670
279 0 2 -1.050000 16.543295 32.528325 9.800702
280 0 2 -1.050000 19.412165 34.129346 9.936215
281 0 2 -1.050000 18.926448 39.428880 12.550670
282 0 2 -1.050000 13.120972 40.985547 9.800702
283 0 2 -1.050000 10.300012 42.669551 9.936215
284 0 2 -1.050000 18.344083 32.445341 12.550670
285 0 2 -1.050000 19.898709 40.946916 9.800702
286 0 2 -1.050000 17.397430 30.299202 6.466629
287 0 2 -1.050000 15.720550 30.508093 12.856741
288 0 2 -1.050000 12.413047 39.682125 12.721229
289 0 2 -1.050000 14.624382 42.839812 6.466629
290 0 2 -1.050000 15.281917 41.283145 12.856741
291 0 2 -1.050000 21.381468 40.985547 12.721229
292 0 2 -1.050000 17.541163 41.321776 6.466629
293 0 2 -1.050000 18.560508 42.669551 12.856741
294 0 2 -1.050000 15.768461 33.793117 12.721229
295 0 1 1.575000 8.260496 0.000000 13.339212
296 0 1 1.575000 6.195372 32.192097 1.657107
297 0 1 1.575000 12.390744 0.000000 1.657107
298 0 1 1.575000 6.195372 39.345896 1.657107
299 0 1 1.575000 8.260496 0.000000 4.577633
300 0 1 1.575000 8.121307 39.586979 13.142369
301 0 1 1.575000 2.204313 42.681713 13.536055
302 0 1 1.575000 8.121307 39.586979 4.380790
303 0 1 1.575000 11.218993 30.162564 13.142369
304 0 1 1.575000 11.497371 37.798529 13.536055
305 0 1 1.575000 11.218993 30.162564 4.380790
306 0 1 1.575000 5.441189 30.403647 13.142369
307 0 1 1.575000 11.079803 33.980547 13.536055
308 0 1 1.575000 5.441189 30.403647 4.380790
309 0 1 1.575000 6.056183 28.856280 1.460263
310 0 1 1.575000 8.399685 31.951014 13.536055
311 0 1 1.575000 9.153869 40.893263 1.460263
312 0 1 1.575000 5.301999 41.375429 13.536055
313 0 1 1.575000 9.571437 30.403647 1.460263
314 0 1 1.575000 11.079803 41.134346 13.536055
315 0 2 -1.050000 7.384057 41.238791 14.370742
316 0 2 -1.050000 4.930690 33.876101 2.139578
317 0 2 -1.050000 8.238193 39.009668 2.275090
318 0 2 -1.050000 10.157106 28.698181 14.370742
319 0 2 -1.050000 5.369322 37.408647 2.139578
320 0 2 -1.050000 11.660516 30.552446 2.275090
321 0 2 -1.050000 7.240325 30.216218 14.370742
322 0 2 -1.050000 14.481475 28.868442 2.139578
323 0 2 -1.050000 4.882779 30.591077 2.275090
324 0 2 -1.050000 7.384057 41.238791 5.609163
325 0 2 -1.050000 4.228548 28.951426 14.127754
326 0 2 -1.050000 10.157106 28.698181 5.609163
327 0 2 -1.050000 9.985287 39.262912 14.127754
328 0 2 -1.050000 7.240325 30.216218 5.609163
329 0 2 -1.050000 10.567652 31.938852 14.127754
330 0 2 -1.050000 9.136935 30.299202 3.546103
331 0 2 -1.050000 4.031948 42.586567 0.868565
332 0 2 -1.050000 6.363886 42.839812 3.546103
333 0 2 -1.050000 10.665952 39.428880 0.868565
334 0 2 -1.050000 9.280667 41.321776 3.546103
335 0 2 -1.050000 10.083587 32.445341 0.868565
336 0 2 -1.050000 9.136935 30.299202 12.307682
337 0 2 -1.050000 7.460054 30.508093 1.174636
338 0 2 -1.050000 12.292444 42.586567 3.789091
339 0 2 -1.050000 4.152551 39.682125 1.039123
340 0 2 -1.050000 6.363886 42.839812 12.307682
341 0 2 -1.050000 7.021422 41.283145 1.174636
342 0 2 -1.050000 6.535704 32.275081 3.789091
343 0 2 -1.050000 13.120972 40.985547 1.039123
344 0 2 -1.050000 9.280667 41.321776 12.307682
345 0 2 -1.050000 10.300012 42.669551 1.174636
346 0 2 -1.050000 5.953339 39.599141 3.789091
347 0 2 -1.050000 7.507965 33.793117 1.039123
348 0 1 1.575000 20.651240 35.768997 13.339212
349 0 1 1.575000 18.586116 39.345896 1.657107
350 0 1 1.575000 24.781488 35.768997 1.657107
351 0 1 1.575000 18.586116 32.192097 1.657107
352 0 1 1.575000 20.651240 35.768997 4.577633
353 0 1 1.575000 20.512050 32.433180 13.142369
354 0 1 1.575000 14.595057 35.527913 13.536055
355 0 1 1.575000 20.512050 32.433180 4.380790
356 0 1 1.575000 23.609736 37.316363 13.142369
357 0 1 1.575000 23.888115 30.644730 13.536055
358 0 1 1.575000 23.609736 37.316363 4.380790
359 0 1 1.575000 17.831933 37.557446 13.142369
360 0 1 1.575000 23.470547 41.134346 13.536055
361 0 1 1.575000 17.831933 37.557446 4.380790
362 0 1 1.575000 18.446926 36.010080 1.460263
363 0 1 1.575000 20.790429 39.104813 13.536055
364 0 1 1.575000 21.544612 33.739464 1.460263
365 0 1 1.575000 17.692743 34.221630 13.536055
366 0 1 1.575000 21.962180 37.557446 1.460263
367 0 1 1.575000 23.470547 33.980547 13.536055
368 0 2 -1.050000 19.774801 34.084992 14.370742
369 0 2 -1.050000 17.321434 41.029901 2.139578
370 0 2 -1.050000 20.628936 31.855868 2.275090
371 0 2 -1.050000 22.547850 35.851981 14.370742
372 0 2 -1.050000 17.760066 30.254848 2.139578
373 0 2 -1.050000 24.051260 37.706245 2.275090
374 0 2 -1.050000 19.631069 37.370017 14.370742
375 0 2 -1.050000 2.090732 36.022241 2.139578
376 0 2 -1.050000 17.273523 37.744876 2.275090
377 0 2 -1.050000 19.774801 34.084992 5.609163
378 0 2 -1.050000 16.619292 36.105225 14.127754
379 0 2 -1.050000 22.547850 35.851981 5.609163
380 0 2 -1.050000 22.376031 32.109113 14.127754
381 0 2 -1.050000 19.631069 37.370017 5.609163
382 0 2 -1.050000 22.958396 39.092652 14.127754
383 0 2 -1.050000 21.527678 37.453001 3.546103
384 0 2 -1.050000 16.422692 35.432768 0.868565
385 0 2 -1.050000 18.754630 35.686012 3.546103
386 0 2 -1.050000 23.056696 32.275081 0.868565
387 0 2 -1.050000 21.671411 34.167976 3.546103
388 0 2 -1.050000 22.474331 39.599141 0.868565
389 0 2 -1.050000 21.527678 37.453001 12.307682
390 0 2 -1.050000 19.850798 37.661892 1.174636
391 0 2 -1.050000 24.683188 35.432768 3.789091
392 0 2 -1.050000 16.543295 32.528325 1.039123
393 0 2 -1.050000 18.754630 35.686012 12.307682
394 0 2 -1.050000 19.412165 34.129346 1.174636
395 0 2 -1.050000 18.926448 39.428880 3.789091
396 0 2 -1.050000 0.730228 33.831748 1.039123
397 0 2 -1.050000 21.671411 34.167976 12.307682
398 0 2 -1.050000 22.690756 35.515752 1.174636
399 0 2 -1.050000 18.344083 32.445341 3.789091
400 0 2 -1.050000 19.898709 40.946916 1.039123
401 0 1 1.575000 0.000000 0.000000 19.180265
402 0 1 1.575000 22.716364 32.192097 25.021317
403 0 1 1.575000 4.130248 0.000000 25.021317
404 0 1 1.575000 22.716364 39.345896 25.021317
405 0 1 1.575000 24.781488 0.000000 27.941844
406 0 1 1.575000 2.065124 39.345896 22.100791
407 0 1 1.575000 20.651240 0.000000 22.100791
408 0 1 1.575000 2.065124 32.192097 22.100791
409 0 1 1.575000 24.642298 39.586979 18.983421
410 0 1 1.575000 18.725305 42.681713 19.377108
411 0 1 1.575000 2.204313 42.681713 22.297634
412 0 1 1.575000 24.642298 39.586979 27.745000
413 0 1 1.575000 2.958497 30.162564 18.983421
414 0 1 1.575000 3.236875 37.798529 19.377108
415 0 1 1.575000 23.888115 30.644730 22.297634
416 0 1 1.575000 21.962180 30.403647 18.983421
417 0 1 1.575000 2.819307 33.980547 19.377108
418 0 1 1.575000 23.470547 41.134346 22.297634
419 0 1 1.575000 20.790429 39.104813 22.297634
420 0 1 1.575000 1.925935 36.010080 21.903948
421 0 1 1.575000 0.139189 31.951014 19.377108
422 0 1 1.575000 5.301999 41.375429 22.297634
423 0 1 1.575000 5.023621 33.739464 21.903948
424 0 1 1.575000 0.893373 40.893263 24.824474
425 0 1 1.575000 21.822991 41.375429 19.377108
426 0 1 1.575000 23.470547 33.980547 22.297634
427 0 1 1.575000 17.831933 30.403647 21.903948
428 0 1 1.575000 2.819307 41.134346 19.377108
429 0 2 -1.050000 23.905049 41.238791 20.211795
430 0 2 -1.050000 21.451682 33.876101 25.503788
431 0 2 -1.050000 24.759184 39.009668 25.639301
432 0 2 -1.050000 1.896610 28.698181 20.211795
433 0 2 -1.050000 21.890314 37.408647 25.503788
434 0 2 -1.050000 22.376031 32.109113 22.889333
435 0 2 -1.050000 23.761316 30.216218 20.211795
436 0 2 -1.050000 22.958396 39.092652 22.889333
437 0 3 -0.950000 23.905049 41.238791 28.973374
438 0 2 -1.050000 0.800442 41.029901 22.583262
439 0 3 -0.950000 20.749540 28.951426 19.968807
440 0 2 -1.050000 4.107945 31.855868 22.718774
441 0 3 -0.950000 1.239074 30.254848 22.583262
442 0 2 -1.050000 1.724792 39.262912 19.968807
443 0 3 -0.950000 19.921012 30.552446 22.718774
444 0 2 -1.050000 2.307157 31.938852 19.968807
445 0 2 -1.050000 0.752531 37.744876 22.718774
446 0 2 -1.050000 3.329806 37.661892 21.618320
447 0 2 -1.050000 20.552940 42.586567 24.232775
448 0 2 -1.050000 0.022303 32.528325 21.482808
449 0 2 -1.050000 22.884878 42.839812 26.910314
450 0 2 -1.050000 2.891174 34.129346 21.618320
451 0 2 -1.050000 2.405456 39.428880 24.232775
452 0 2 -1.050000 21.381468 40.985547 21.482808
453 0 2 -1.050000 1.020171 41.321776 26.910314
454 0 2 -1.050000 18.560508 42.669551 21.618320
455 0 3 -0.950000 1.823091 32.445341 24.232775
456 0 2 -1.050000 3.377717 40.946916 21.482808
457 0 2 -1.050000 0.876439 30.299202 18.148735
458 0 2 -1.050000 4.031948 42.586567 27.153302
459 0 2 -1.050000 20.673543 39.682125 24.403334
460 0 2 -1.050000 22.884878 42.839812 18.148735
461 0 2 -1.050000 23.542413 41.283145 24.538846
462 0 2 -1.050000 4.860476 40.985547 24.403334
463 0 2 -1.050000 1.020171 41.321776 18.148735
464 0 2 -1.050000 2.039516 42.669551 24.538846
465 0 2 -1.050000 22.474331 39.599141 27.153302
466 0 2 -1.050000 24.028957 33.793117 24.403334
467 0 1 1.575000 12.390744 35.768997 19.180265
468 0 1 1.575000 10.325620 39.345896 25.021317
469 0 1 1.575000 16.520992 35.768997 25.021317
470 0 1 1.575000 10.325620 32.192097 25.021317
471 0 1 1.575000 14.455868 32.192097 22.100791
472 0 1 1.575000 8.260496 35.768997 22.100791
473 0 1 1.575000 14.455868 39.345896 22.100791
474 0 1 1.575000 12.251555 32.433180 18.983421
475 0 1 1.575000 6.334561 35.527913 19.377108
476 0 1 1.575000 14.595057 35.527913 22.297634
477 0 1 1.575000 15.349240 37.316363 18.983421
478 0 1 1.575000 15.627619 30.644730 19.377108
479 0 1 1.575000 11.497371 37.798529 22.297634
480 0 1 1.575000 15.349240 37.316363 27.745000
481 0 1 1.575000 9.571437 37.557446 18.983421
482 0 1 1.575000 15.210051 41.134346 19.377108
483 0 1 1.575000 11.079803 33.980547 22.297634
484 0 1 1.575000 9.571437 37.557446 27.745000
485 0 1 1.575000 8.399685 31.951014 22.297634
486 0 1 1.575000 14.316678 28.856280 21.903948
487 0 1 1.575000 10.186431 36.010080 24.824474
488 0 1 1.575000 12.529933 39.104813 19.377108
489 0 1 1.575000 17.692743 34.221630 22.297634
490 0 1 1.575000 17.414364 40.893263 21.903948
491 0 1 1.575000 13.284116 33.739464 24.824474
492 0 1 1.575000 9.432247 34.221630 19.377108
493 0 1 1.575000 11.079803 41.134346 22.297634
494 0 1 1.575000 5.441189 37.557446 21.903948
495 0 1 1.575000 13.701685 37.557446 24.824474
496 0 1 1.575000 15.210051 33.980547 19.377108
497 0 2 -1.050000 11.514305 34.084992 20.211795
498 0 2 -1.050000 9.060938 41.029901 25.503788
499 0 2 -1.050000 16.619292 36.105225 22.889333
500 0 3 -0.950000 12.368441 31.855868 25.639301
501 0 2 -1.050000 14.287354 35.851981 20.211795
502 0 2 -1.050000 9.985287 39.262912 22.889333
503 0 2 -1.050000 15.790764 37.706245 25.639301
504 0 2 -1.050000 11.370573 37.370017 20.211795
505 0 2 -1.050000 18.611723 36.022241 25.503788
506 0 2 -1.050000 10.567652 31.938852 22.889333
507 0 2 -1.050000 9.013027 37.744876 25.639301
508 0 2 -1.050000 13.191186 33.876101 22.583262
509 0 2 -1.050000 8.358796 36.105225 19.968807
510 0 2 -1.050000 16.498688 39.009668 22.718774
511 0 2 -1.050000 13.629818 37.408647 22.583262
512 0 2 -1.050000 14.115535 32.109113 19.968807
513 0 2 -1.050000 7.530268 37.706245 22.718774
514 0 2 -1.050000 10.351227 36.022241 22.583262
515 0 2 -1.050000 14.697900 39.092652 19.968807
516 0 3 -0.950000 13.143275 30.591077 22.718774
517 0 2 -1.050000 13.267182 37.453001 26.910314
518 0 2 -1.050000 15.720550 30.508093 21.618320
519 0 2 -1.050000 8.162196 35.432768 24.232775
520 0 2 -1.050000 12.413047 39.682125 21.482808
521 0 3 -0.950000 10.494134 35.686012 26.910314
522 0 2 -1.050000 15.281917 41.283145 21.618320
523 0 2 -1.050000 14.796200 32.275081 24.232775
524 0 2 -1.050000 8.990724 33.831748 21.482808
525 0 2 -1.050000 6.169764 35.515752 21.618320
526 0 2 -1.050000 14.213835 39.599141 24.232775
527 0 2 -1.050000 15.768461 33.793117 21.482808
528 0 2 -1.050000 13.267182 37.453001 18.148735
529 0 2 -1.050000 11.590302 37.661892 24.538846
530 0 3 -0.950000 16.422692 35.432768 27.153302
531 0 2 -1.050000 8.282799 32.528325 24.403334
532 0 2 -1.050000 10.494134 35.686012 18.148735
533 0 2 -1.050000 11.151669 34.129346 24.538846
534 0 2 -1.050000 10.665952 39.428880 27.153302
535 0 2 -1.050000 17.251220 33.831748 24.403334
536 0 2 -1.050000 13.410915 34.167976 18.148735
537 0 2 -1.050000 14.430260 35.515752 24.538846
538 0 2 -1.050000 11.638213 40.946916 24.403334
539 0 1 1.575000 4.130248 35.768997 25.021317
540 0 1 1.575000 4.130248 35.768997 16.259738
541 0 1 1.575000 24.781488 35.768997 27.941844
542 0 1 1.575000 6.195372 39.345896 27.941844
543 0 1 1.575000 3.991059 32.433180 24.824474
544 0 1 1.575000 22.855553 35.527913 25.218161
545 0 1 1.575000 3.991059 32.433180 16.062895
546 0 1 1.575000 7.088745 37.316363 24.824474
547 0 1 1.575000 3.236875 37.798529 28.138687
548 0 1 1.575000 7.088745 37.316363 16.062895
549 0 1 1.575000 1.310941 37.557446 24.824474
550 0 1 1.575000 6.949555 41.134346 25.218161
551 0 1 1.575000 1.310941 37.557446 16.062895
552 0 1 1.575000 4.269437 39.104813 25.218161
553 0 1 1.575000 9.153869 40.893263 27.745000
554 0 1 1.575000 1.171751 34.221630 25.218161
555 0 1 1.575000 2.819307 41.134346 28.138687
556 0 1 1.575000 21.962180 37.557446 27.745000
557 0 1 1.575000 6.949555 33.980547 25.218161
558 0 3 -0.950000 3.253809 34.084992 26.052847
559 0 3 -0.950000 6.026858 35.851981 26.052847
560 0 3 -0.950000 1.724792 39.262912 28.730386
561 0 2 -1.050000 3.110077 37.370017 26.052847
562 0 2 -1.050000 3.253809 34.084992 17.291268
563 0 2 -1.050000 0.098300 36.105225 25.809859
564 0 3 -0.950000 8.238193 39.009668 28.559827
565 0 2 -1.050000 6.026858 35.851981 17.291268
566 0 3 -0.950000 5.369322 37.408647 28.424315
567 0 3 -0.950000 5.855040 32.109113 25.809859
568 0 3 -0.950000 24.051260 37.706245 28.559827
569 0 2 -1.050000 3.110077 37.370017 17.291268
570 0 3 -0.950000 2.090732 36.022241 28.424315
571 0 2 -1.050000 6.437404 39.092652 25.809859
572 0 2 -1.050000 5.006687 37.453001 15.228208
573 0 2 -1.050000 4.152551 39.682125 27.323860
574 0 2 -1.050000 2.233638 35.686012 15.228208
575 0 2 -1.050000 7.021422 41.283145 27.459373
576 0 2 -1.050000 5.150419 34.167976 15.228208
577 0 2 -1.050000 22.690756 35.515752 27.459373
578 0 2 -1.050000 5.006687 37.453001 23.989787
579 0 2 -1.050000 8.162196 35.432768 15.471196
580 0 2 -1.050000 2.233638 35.686012 23.989787
581 0 2 -1.050000 2.405456 39.428880 15.471196
582 0 2 -1.050000 5.150419 34.167976 23.989787
583 0 2 -1.050000 1.823091 32.445341 15.471196
584 0 1 1.575000 16.520992 0.000000 25.021317
585 0 1 1.575000 16.520992 0.000000 16.259738
586 0 1 1.575000 18.586116 39.345896 27.941844
587 0 1 1.575000 12.390744 0.000000 27.941844
588 0 1 1.575000 16.381802 39.586979 24.824474
589 0 1 1.575000 10.464809 42.681713 25.218161
590 0 1 1.575000 18.725305 42.681713 28.138687
591 0 1 1.575000 16.381802 39.586979 16.062895
592 0 1 1.575000 19.757867 37.798529 25.218161
593 0 1 1.575000 19.479488 30.162564 16.062895
594 0 1 1.575000 19.340299 33.980547 25.218161
595 0 1 1.575000 15.210051 41.134346 28.138687
596 0 1 1.575000 13.701685 30.403647 16.062895
597 0 1 1.575000 12.529933 39.104813 28.138687
598 0 1 1.575000 18.446926 36.010080 27.745000
599 0 1 1.575000 16.660181 31.951014 25.218161
600 0 1 1.575000 21.822991 41.375429 28.138687
601 0 1 1.575000 13.562495 41.375429 25.218161
602 0 1 1.575000 19.340299 41.134346 25.218161
603 0 2 -1.050000 15.644553 41.238791 26.052847
604 0 3 -0.950000 14.697900 39.092652 28.730386
605 0 2 -1.050000 15.644553 41.238791 17.291268
606 0 2 -1.050000 17.321434 41.029901 28.424315
607 0 2 -1.050000 18.417602 28.698181 17.291268
608 0 2 -1.050000 18.245783 39.262912 25.809859
609 0 2 -1.050000 15.500821 30.216218 17.291268
610 0 3 -0.950000 18.828148 31.938852 25.809859
611 0 3 -0.950000 17.273523 37.744876 28.559827
612 0 2 -1.050000 17.397430 30.299202 15.228208
613 0 2 -1.050000 19.850798 37.661892 27.459373
614 0 2 -1.050000 14.624382 42.839812 15.228208
615 0 2 -1.050000 13.120972 40.985547 27.323860
616 0 2 -1.050000 17.541163 41.321776 15.228208
617 0 2 -1.050000 10.300012 42.669551 27.459373
618 0 2 -1.050000 19.898709 40.946916 27.323860
619 0 2 -1.050000 20.552940 42.586567 15.471196
620 0 2 -1.050000 14.624382 42.839812 23.989787
621 0 2 -1.050000 14.796200 32.275081 15.471196
622 0 2 -1.050000 17.541163 41.321776 23.989787
623 0 2 -1.050000 14.213835 39.599141 15.471196
624 0 1 1.575000 6.195372 32.192097 19.180265
625 0 1 1.575000 12.390744 0.000000 19.180265
626 0 1 1.575000 6.195372 39.345896 19.180265
627 0 1 1.575000 8.260496 0.000000 22.100791
628 0 1 1.575000 10.325620 39.345896 16.259738
629 0 1 1.575000 4.130248 0.000000 16.259738
630 0 1 1.575000 10.325620 32.192097 16.259738
631 0 1 1.575000 10.464809 42.681713 16.456582
632 0 1 1.575000 8.121307 39.586979 21.903948
633 0 1 1.575000 7.367123 30.644730 16.456582
634 0 1 1.575000 11.218993 30.162564 21.903948
635 0 1 1.575000 6.949555 41.134346 16.456582
636 0 1 1.575000 5.441189 30.403647 21.903948
637 0 1 1.575000 4.269437 39.104813 16.456582
638 0 1 1.575000 10.186431 36.010080 16.062895
639 0 1 1.575000 6.056183 28.856280 18.983421
640 0 1 1.575000 13.562495 41.375429 16.456582
641 0 1 1.575000 13.284116 33.739464 16.062895
642 0 1 1.575000 9.153869 40.893263 18.983421
643 0 1 1.575000 6.949555 33.980547 16.456582
644 0 1 1.575000 1.310941 30.403647 16.062895
645 0 1 1.575000 9.571437 30.403647 18.983421
646 0 2 -1.050000 4.930690 33.876101 19.662736
647 0 2 -1.050000 12.489044 28.951426 17.048280
648 0 2 -1.050000 8.238193 39.009668 19.798248
649 0 2 -1.050000 5.369322 37.408647 19.662736
650 0 2 -1.050000 5.855040 32.109113 17.048280
651 0 2 -1.050000 11.660516 30.552446 19.798248
652 0 2 -1.050000 14.481475 28.868442 19.662736
653 0 2 -1.050000 6.437404 39.092652 17.048280
654 0 2 -1.050000 4.882779 30.591077 19.798248
655 0 2 -1.050000 7.384057 41.238791 23.132321
656 0 2 -1.050000 9.060938 41.029901 16.742209
657 0 2 -1.050000 12.368441 31.855868 16.877722
658 0 2 -1.050000 9.499570 30.254848 16.742209
659 0 2 -1.050000 3.400020 30.552446 16.877722
660 0 3 -0.950000 7.240325 30.216218 23.132321
661 0 2 -1.050000 6.220979 28.868442 16.742209
662 0 2 -1.050000 9.013027 37.744876 16.877722
663 0 2 -1.050000 9.136935 30.299202 21.069261
664 0 2 -1.050000 11.590302 37.661892 15.777267
665 0 2 -1.050000 4.031948 42.586567 18.391723
666 0 2 -1.050000 8.282799 32.528325 15.641755
667 0 2 -1.050000 6.363886 42.839812 21.069261
668 0 2 -1.050000 11.151669 34.129346 15.777267
669 0 2 -1.050000 10.665952 39.428880 18.391723
670 0 2 -1.050000 4.860476 40.985547 15.641755
671 0 2 -1.050000 9.280667 41.321776 21.069261
672 0 2 -1.050000 2.039516 42.669551 15.777267
673 0 2 -1.050000 10.083587 32.445341 18.391723
674 0 2 -1.050000 11.638213 40.946916 15.641755
675 0 2 -1.050000 7.460054 30.508093 18.697794
676 0 2 -1.050000 12.292444 42.586567 21.312249
677 0 2 -1.050000 4.152551 39.682125 18.562281
678 0 2 -1.050000 7.021422 41.283145 18.697794
679 0 2 -1.050000 6.535704 32.275081 21.312249
680 0 2 -1.050000 13.120972 40.985547 18.562281
681 0 2 -1.050000 10.300012 42.669551 18.697794
682 0 2 -1.050000 5.953339 39.599141 21.312249
683 0 2 -1.050000 7.507965 33.793117 18.562281
684 0 1 1.575000 18.586116 39.345896 19.180265
685 0 1 1.575000 24.781488 35.768997 19.180265
686 0 1 1.575000 18.586116 32.192097 19.180265
687 0 1 1.575000 20.651240 35.768997 22.100791
688 0 1 1.575000 22.716364 32.192097 16.259738
689 0 1 1.575000 16.520992 35.768997 16.259738
690 0 1 1.575000 22.716364 39.345896 16.259738
691 0 1 1.575000 22.855553 35.527913 16.456582
692 0 1 1.575000 20.512050 32.433180 21.903948
693 0 1 1.575000 19.757867 37.798529 16.456582
694 0 1 1.575000 23.609736 37.316363 21.903948
695 0 1 1.575000 19.340299 33.980547 16.456582
696 0 1 1.575000 17.831933 37.557446 21.903948
697 0 1 1.575000 16.660181 31.951014 16.456582
698 0 1 1.575000 22.577174 28.856280 16.062895
699 0 1 1.575000 18.446926 36.010080 18.983421
700 0 1 1.575000 1.171751 34.221630 16.456582
701 0 1 1.575000 0.893373 40.893263 16.062895
702 0 1 1.575000 21.544612 33.739464 18.983421
703 0 1 1.575000 19.340299 41.134346 16.456582
704 0 1 1.575000 13.701685 37.557446 16.062895
705 0 1 1.575000 21.962180 37.557446 18.983421
706 0 2 -1.050000 17.321434 41.029901 19.662736
707 0 2 -1.050000 0.098300 36.105225 17.048280
708 0 2 -1.050000 20.628936 31.855868 19.798248
709 0 2 -1.050000 17.760066 30.254848 19.662736
710 0 2 -1.050000 18.245783 39.262912 17.048280
711 0 2 -1.050000 24.051260 37.706245 19.798248
712 0 2 -1.050000 2.090732 36.022241 19.662736
713 0 2 -1.050000 18.828148 31.938852 17.048280
714 0 2 -1.050000 17.273523 37.744876 19.798248
715 0 2 -1.050000 19.774801 34.084992 23.132321
716 0 2 -1.050000 21.451682 33.876101 16.742209
717 0 2 -1.050000 24.759184 39.009668 16.877722
718 0 2 -1.050000 22.547850 35.851981 23.132321
719 0 2 -1.050000 21.890314 37.408647 16.742209
720 0 2 -1.050000 15.790764 37.706245 16.877722
721 0 2 -1.050000 19.631069 37.370017 23.132321
722 0 2 -1.050000 18.611723 36.022241 16.742209
723 0 2 -1.050000 21.403771 30.591077 16.877722
724 0 2 -1.050000 21.527678 37.453001 21.069261
725 0 2 -1.050000 23.981046 30.508093 15.777267
726 0 2 -1.050000 16.422692 35.432768 18.391723
727 0 2 -1.050000 20.673543 39.682125 15.641755
728 0 2 -1.050000 18.754630 35.686012 21.069261
729 0 2 -1.050000 23.542413 41.283145 15.777267
730 0 2 -1.050000 23.056696 32.275081 18.391723
731 0 2 -1.050000 17.251220 33.831748 15.641755
732 0 2 -1.050000 21.671411 34.167976 21.069261
733 0 2 -1.050000 14.430260 35.515752 15.777267
734 0 2 -1.050000 22.474331 39.599141 18.391723
735 0 2 -1.050000 24.028957 33.793117 15.641755
736 0 2 -1.050000 19.850798 37.661892 18.697794
737 0 2 -1.050000 24.683188 35.432768 21.312249
738 0 2 -1.050000 16.543295 32.528325 18.562281
739 0 2 -1.050000 19.412165 34.129346 18.697794
740 0 2 -1.050000 18.926448 39.428880 21.312249
741 0 2 -1.050000 0.730228 33.831748 18.562281
742 0 2 -1.050000 22.690756 35.515752 18.697794
743 0 2 -1.050000 18.344083 32.445341 21.312249
744 0 2 -1.050000 19.898709 40.946916 18.562281
745 0 1 1.575000 24.781488 0.000000 1.657107
746 0 1 1.575000 47.497851 32.192097 7.498159
747 0 1 1.575000 28.911736 0.000000 7.498159
748 0 1 1.575000 47.497851 39.345896 7.498159
749 0 1 1.575000 49.562975 0.000000 10.418686
750 0 1 1.575000 26.846612 39.345896 4.577633
751 0 1 1.575000 45.432728 0.000000 4.577633
752 0 1 1.575000 26.846612 32.192097 4.577633
753 0 1 1.575000 49.423786 39.586979 1.460263
754 0 1 1.575000 43.506793 42.681713 1.853950
755 0 1 1.575000 26.985801 42.681713 4.774476
756 0 1 1.575000 49.423786 39.586979 10.221842
757 0 1 1.575000 27.739984 30.162564 1.460263
758 0 1 1.575000 28.018363 37.798529 1.853950
759 0 1 1.575000 48.669603 30.644730 4.774476
760 0 1 1.575000 27.739984 30.162564 10.221842
761 0 1 1.575000 46.743668 30.403647 1.460263
762 0 1 1.575000 27.600795 33.980547 1.853950
763 0 1 1.575000 48.252035 41.134346 4.774476
764 0 1 1.575000 46.743668 30.403647 10.221842
765 0 1 1.575000 45.571917 39.104813 4.774476
766 0 1 1.575000 26.707422 36.010080 4.380790
767 0 1 1.575000 47.358662 28.856280 7.301316
768 0 1 1.575000 24.920677 31.951014 1.853950
769 0 1 1.575000 30.083487 41.375429 4.774476
770 0 1 1.575000 29.805108 33.739464 4.380790
771 0 1 1.575000 25.674860 40.893263 7.301316
772 0 1 1.575000 46.604479 41.375429 1.853950
773 0 1 1.575000 48.252035 33.980547 4.774476
774 0 1 1.575000 42.613420 30.403647 4.380790
775 0 1 1.575000 26.092428 30.403647 7.301316
776 0 1 1.575000 27.600795 41.134346 1.853950
777 0 2 -1.050000 48.686537 41.238791 2.688637
778 0 2 -1.050000 46.233170 33.876101 7.980630
779 0 2 -1.050000 29.010036 28.951426 5.366175
780 0 2 -1.050000 49.540672 39.009668 8.116143
781 0 2 -1.050000 26.678098 28.698181 2.688637
782 0 2 -1.050000 46.671802 37.408647 7.980630
783 0 2 -1.050000 47.157519 32.109113 5.366175
784 0 2 -1.050000 28.181508 30.552446 8.116143
785 0 2 -1.050000 48.542804 30.216218 2.688637
786 0 2 -1.050000 31.002467 28.868442 7.980630
787 0 2 -1.050000 47.739884 39.092652 5.366175
788 0 2 -1.050000 46.185259 30.591077 8.116143
789 0 2 -1.050000 48.686537 41.238791 11.450216
790 0 2 -1.050000 25.581930 41.029901 5.060104
791 0 2 -1.050000 45.531027 28.951426 2.445649
792 0 2 -1.050000 28.889432 31.855868 5.195616
793 0 2 -1.050000 26.678098 28.698181 11.450216
794 0 2 -1.050000 26.020562 30.254848 5.060104
795 0 2 -1.050000 26.506279 39.262912 2.445649
796 0 2 -1.050000 44.702500 30.552446 5.195616
797 0 2 -1.050000 48.542804 30.216218 11.450216
798 0 2 -1.050000 47.523459 28.868442 5.060104
799 0 2 -1.050000 27.088644 31.938852 2.445649
800 0 2 -1.050000 25.534019 37.744876 5.195616
801 0 2 -1.050000 25.657926 30.299202 9.387156
802 0 2 -1.050000 28.111294 37.661892 4.095162
803 0 2 -1.050000 45.334428 42.586567 6.709617
804 0 2 -1.050000 24.803791 32.528325 3.959650
805 0 2 -1.050000 47.666366 42.839812 9.387156
806 0 2 -1.050000 27.672661 34.129346 4.095162
807 0 2 -1.050000 27.186944 39.428880 6.709617
808 0 2 -1.050000 46.162955 40.985547 3.959650
809 0 2 -1.050000 25.801659 41.321776 9.387156
810 0 2 -1.050000 43.341996 42.669551 4.095162
811 0 2 -1.050000 26.604579 32.445341 6.709617
812 0 2 -1.050000 28.159205 40.946916 3.959650
813 0 2 -1.050000 25.657926 30.299202 0.625577
814 0 2 -1.050000 48.762533 30.508093 7.015688
815 0 2 -1.050000 28.813436 42.586567 9.630144
816 0 2 -1.050000 45.455031 39.682125 6.880176
817 0 2 -1.050000 47.666366 42.839812 0.625577
818 0 2 -1.050000 48.323901 41.283145 7.015688
819 0 2 -1.050000 47.838184 32.275081 9.630144
820 0 2 -1.050000 29.641964 40.985547 6.880176
821 0 2 -1.050000 25.801659 41.321776 0.625577
822 0 2 -1.050000 26.821004 42.669551 7.015688
823 0 2 -1.050000 47.255819 39.599141 9.630144
824 0 2 -1.050000 48.810444 33.793117 6.880176
825 0 1 1.575000 37.172232 35.768997 1.657107
826 0 1 1.575000 35.107108 39.345896 7.498159
827 0 1 1.575000 41.302480 35.768997 7.498159
828 0 1 1.575000 35.107108 32.192097 7.498159
829 0 1 1.575000 37.172232 35.768997 10.418686
830 0 1 1.575000 39.237356 32.192097 4.577633
831 0 1 1.575000 33.041984 35.768997 4.577633
832 0 1 1.575000 39.237356 39.345896 4.577633
833 0 1 1.575000 37.033042 32.433180 1.460263
834 0 1 1.575000 31.116049 35.527913 1.853950
835 0 1 1.575000 39.376545 35.527913 4.774476
836 0 1 1.575000 37.033042 32.433180 10.221842
837 0 1 1.575000 40.130728 37.316363 1.460263
838 0 1 1.575000 40.409107 30.644730 1.853950
839 0 1 1.575000 36.278859 37.798529 4.774476
840 0 1 1.575000 40.130728 37.316363 10.221842
841 0 1 1.575000 34.352924 37.557446 1.460263
842 0 1 1.575000 39.991539 41.134346 1.853950
843 0 1 1.575000 35.861291 33.980547 4.774476
844 0 1 1.575000 34.352924 37.557446 10.221842
845 0 1 1.575000 33.181173 31.951014 4.774476
846 0 1 1.575000 39.098166 28.856280 4.380790
847 0 1 1.575000 34.967918 36.010080 7.301316
848 0 1 1.575000 37.311421 39.104813 1.853950
849 0 1 1.575000 42.474231 34.221630 4.774476
850 0 1 1.575000 42.195852 40.893263 4.380790
851 0 1 1.575000 38.065604 33.739464 7.301316
852 0 1 1.575000 34.213735 34.221630 1.853950
853 0 1 1.575000 35.861291 41.134346 4.774476
854 0 1 1.575000 30.222676 37.557446 4.380790
855 0 1 1.575000 38.483172 37.557446 7.301316
856 0 1 1.575000 39.991539 33.980547 1.853950
857 0 2 -1.050000 36.295793 34.084992 2.688637
858 0 2 -1.050000 33.842426 41.029901 7.980630
859 0 2 -1.050000 41.400779 36.105225 5.366175
860 0 2 -1.050000 37.149928 31.855868 8.116143
861 0 2 -1.050000 39.068841 35.851981 2.688637
862 0 2 -1.050000 34.281058 30.254848 7.980630
863 0 2 -1.050000 34.766775 39.262912 5.366175
864 0 2 -1.050000 40.572252 37.706245 8.116143
865 0 2 -1.050000 36.152060 37.370017 2.688637
866 0 2 -1.050000 43.393211 36.022241 7.980630
867 0 2 -1.050000 35.349140 31.938852 5.366175
868 0 2 -1.050000 33.794515 37.744876 8.116143
869 0 2 -1.050000 36.295793 34.084992 11.450216
870 0 2 -1.050000 37.972674 33.876101 5.060104
871 0 2 -1.050000 33.140284 36.105225 2.445649
872 0 2 -1.050000 41.280176 39.009668 5.195616
873 0 2 -1.050000 39.068841 35.851981 11.450216
874 0 2 -1.050000 38.411306 37.408647 5.060104
875 0 2 -1.050000 38.897023 32.109113 2.445649
876 0 2 -1.050000 32.311756 37.706245 5.195616
877 0 2 -1.050000 36.152060 37.370017 11.450216
878 0 2 -1.050000 35.132715 36.022241 5.060104
879 0 2 -1.050000 39.479388 39.092652 2.445649
880 0 2 -1.050000 37.924763 30.591077 5.195616
881 0 2 -1.050000 38.048670 37.453001 9.387156
882 0 2 -1.050000 40.502037 30.508093 4.095162
883 0 2 -1.050000 32.943684 35.432768 6.709617
884 0 2 -1.050000 37.194535 39.682125 3.959650
885 0 2 -1.050000 35.275622 35.686012 9.387156
886 0 2 -1.050000 40.063405 41.283145 4.095162
887 0 2 -1.050000 39.577688 32.275081 6.709617
888 0 2 -1.050000 33.772211 33.831748 3.959650
889 0 2 -1.050000 38.192403 34.167976 9.387156
890 0 2 -1.050000 30.951252 35.515752 4.095162
891 0 2 -1.050000 38.995323 39.599141 6.709617
892 0 2 -1.050000 40.549948 33.793117 3.959650
893 0 2 -1.050000 38.048670 37.453001 0.625577
894 0 2 -1.050000 36.371790 37.661892 7.015688
895 0 2 -1.050000 41.204180 35.432768 9.630144
896 0 2 -1.050000 33.064287 32.528325 6.880176
897 0 2 -1.050000 35.275622 35.686012 0.625577
898 0 2 -1.050000 35.933157 34.129346 7.015688
899 0 2 -1.050000 35.447440 39.428880 9.630144
900 0 2 -1.050000 42.032707 33.831748 6.880176
901 0 2 -1.050000 38.192403 34.167976 0.625577
902 0 2 -1.050000 39.211748 35.515752 7.015688
903 0 2 -1.050000 34.865075 32.445341 9.630144
904 0 2 -1.050000 36.419700 40.946916 6.880176
905 0 1 1.575000 28.911736 35.768997 7.498159
906 0 1 1.575000 26.846612 39.345896 13.339212
907 0 1 1.575000 33.041984 35.768997 13.339212
908 0 1 1.575000 26.846612 32.192097 13.339212
909 0 1 1.575000 30.976860 32.192097 10.418686
910 0 1 1.575000 49.562975 35.768997 10.418686
911 0 1 1.575000 30.976860 39.345896 10.418686
912 0 1 1.575000 28.772546 32.433180 7.301316
913 0 1 1.575000 47.637041 35.527913 7.695003
914 0 1 1.575000 31.116049 35.527913 10.615529
915 0 1 1.575000 31.870232 37.316363 7.301316
916 0 1 1.575000 32.148611 30.644730 7.695003
917 0 1 1.575000 28.018363 37.798529 10.615529
918 0 1 1.575000 26.092428 37.557446 7.301316
919 0 1 1.575000 31.731043 41.134346 7.695003
920 0 1 1.575000 27.600795 33.980547 10.615529
921 0 1 1.575000 24.920677 31.951014 10.615529
922 0 1 1.575000 30.837670 28.856280 10.221842
923 0 1 1.575000 26.707422 36.010080 13.142369
924 0 1 1.575000 29.050925 39.104813 7.695003
925 0 1 1.575000 34.213735 34.221630 10.615529
926 0 1 1.575000 33.935356 40.893263 10.221842
927 0 1 1.575000 29.805108 33.739464 13.142369
928 0 1 1.575000 25.953239 34.221630 7.695003
929 0 1 1.575000 27.600795 41.134346 10.615529
930 0 1 1.575000 46.743668 37.557446 10.221842
931 0 1 1.575000 30.222676 37.557446 13.142369
932 0 1 1.575000 31.731043 33.980547 7.695003
933 0 2 -1.050000 28.035297 34.084992 8.529689
934 0 2 -1.050000 25.581930 41.029901 13.821683
935 0 2 -1.050000 33.140284 36.105225 11.207228
936 0 2 -1.050000 28.889432 31.855868 13.957195
937 0 2 -1.050000 30.808346 35.851981 8.529689
938 0 2 -1.050000 26.020562 30.254848 13.821683
939 0 2 -1.050000 26.506279 39.262912 11.207228
940 0 2 -1.050000 32.311756 37.706245 13.957195
941 0 2 -1.050000 27.891564 37.370017 8.529689
942 0 2 -1.050000 35.132715 36.022241 13.821683
943 0 2 -1.050000 27.088644 31.938852 11.207228
944 0 2 -1.050000 25.534019 37.744876 13.957195
945 0 2 -1.050000 29.712178 33.876101 10.901157
946 0 2 -1.050000 24.879788 36.105225 8.286701
947 0 2 -1.050000 33.019680 39.009668 11.036669
948 0 2 -1.050000 30.150810 37.408647 10.901157
949 0 2 -1.050000 30.636527 32.109113 8.286701
950 0 2 -1.050000 48.832748 37.706245 11.036669
951 0 2 -1.050000 26.872219 36.022241 10.901157
952 0 2 -1.050000 31.218892 39.092652 8.286701
953 0 2 -1.050000 29.664267 30.591077 11.036669
954 0 2 -1.050000 32.241542 30.508093 9.936215
955 0 2 -1.050000 49.464676 35.432768 12.550670
956 0 2 -1.050000 28.934039 39.682125 9.800702
957 0 2 -1.050000 31.802909 41.283145 9.936215
958 0 2 -1.050000 31.317192 32.275081 12.550670
959 0 2 -1.050000 25.511716 33.831748 9.800702
960 0 2 -1.050000 47.472244 35.515752 9.936215
961 0 2 -1.050000 30.734827 39.599141 12.550670
962 0 2 -1.050000 32.289452 33.793117 9.800702
963 0 2 -1.050000 29.788174 37.453001 6.466629
964 0 2 -1.050000 28.111294 37.661892 12.856741
965 0 2 -1.050000 24.803791 32.528325 12.721229
966 0 2 -1.050000 27.015126 35.686012 6.466629
967 0 2 -1.050000 27.672661 34.129346 12.856741
968 0 2 -1.050000 33.772211 33.831748 12.721229
969 0 2 -1.050000 29.931907 34.167976 6.466629
970 0 2 -1.050000 30.951252 35.515752 12.856741
971 0 2 -1.050000 28.159205 40.946916 12.721229
972 0 1 1.575000 41.302480 0.000000 7.498159
973 0 1 1.575000 39.237356 32.192097 13.339212
974 0 1 1.575000 45.432728 0.000000 13.339212
975 0 1 1.575000 39.237356 39.345896 13.339212
976 0 1 1.575000 43.367604 39.345896 10.418686
977 0 1 1.575000 37.172232 0.000000 10.418686
978 0 1 1.575000 43.367604 32.192097 10.418686
979 0 1 1.575000 41.163290 39.586979 7.301316
980 0 1 1.575000 35.246297 42.681713 7.695003
981 0 1 1.575000 43.506793 42.681713 10.615529
982 0 1 1.575000 44.260976 30.162564 7.301316
983 0 1 1.575000 44.539355 37.798529 7.695003
984 0 1 1.575000 40.409107 30.644730 10.615529
985 0 1 1.575000 38.483172 30.403647 7.301316
986 0 1 1.575000 44.121787 33.980547 7.695003
987 0 1 1.575000 39.991539 41.134346 10.615529
988 0 1 1.575000 37.311421 39.104813 10.615529
989 0 1 1.575000 43.228414 36.010080 10.221842
990 0 1 1.575000 39.098166 28.856280 13.142369
991 0 1 1.575000 41.441669 31.951014 7.695003
992 0 1 1.575000 46.604479 41.375429 10.615529
993 0 1 1.575000 46.326100 33.739464 10.221842
994 0 1 1.575000 42.195852 40.893263 13.142369
995 0 1 1.575000 38.343983 41.375429 7.695003
996 0 1 1.575000 39.991539 33.980547 10.615529
997 0 1 1.575000 34.352924 30.403647 10.221842
998 0 1 1.575000 42.613420 30.403647 13.142369
999 0 1 1.575000 44.121787 41.134346 7.695003
1000 0 2 -1.050000 40.426041 41.238791 8.529689
1001 0 2 -1.050000 37.972674 33.876101 13.821683
1002 0 2 -1.050000 45.531027 28.951426 11.207228
1003 0 2 -1.050000 41.280176 39.009668 13.957195
1004 0 2 -1.050000 43.199089 28.698181 8.529689
1005 0 2 -1.050000 38.411306 37.408647 13.821683
1006 0 2 -1.050000 38.897023 32.109113 11.207228
1007 0 2 -1.050000 44.702500 30.552446 13.957195
1008 0 2 -1.050000 40.282308 30.216218 8.529689
1009 0 2 -1.050000 47.523459 28.868442 13.821683
1010 0 2 -1.050000 39.479388 39.092652 11.207228
1011 0 2 -1.050000 37.924763 30.591077 13.957195
1012 0 2 -1.050000 42.102922 41.029901 10.901157
1013 0 2 -1.050000 37.270531 28.951426 8.286701
1014 0 2 -1.050000 45.410424 31.855868 11.036669
1015 0 2 -1.050000 42.541554 30.254848 10.901157
1016 0 2 -1.050000 43.027271 39.262912 8.286701
1017 0 2 -1.050000 36.442004 30.552446 11.036669
1018 0 2 -1.050000 39.262963 28.868442 10.901157
1019 0 2 -1.050000 43.609636 31.938852 8.286701
1020 0 2 -1.050000 42.055011 37.744876 11.036669
1021 0 2 -1.050000 44.632285 37.661892 9.936215
1022 0 2 -1.050000 37.073932 42.586567 12.550670
1023 0 2 -1.050000 41.324783 32.528325 9.800702
1024 0 2 -1.050000 44.193653 34.129346 9.936215
1025 0 2 -1.050000 43.707936 39.428880 12.550670
1026 0 2 -1.050000 37.902459 40.985547 9.800702
1027 0 2 -1.050000 35.081500 42.669551 9.936215
1028 0 2 -1.050000 43.125571 32.445341 12.550670
1029 0 2 -1.050000 44.680196 40.946916 9.800702
1030 0 2 -1.050000 42.178918 30.299202 6.466629
1031 0 2 -1.050000 40.502037 30.508093 12.856741
1032 0 2 -1.050000 37.194535 39.682125 12.721229
1033 0 2 -1.050000 39.405870 42.839812 6.466629
1034 0 2 -1.050000 40.063405 41.283145 12.856741
1035 0 2 -1.050000 46.162955 40.985547 12.721229
1036 0 2 -1.050000 42.322651 41.321776 6.466629
1037 0 2 -1.050000 43.341996 42.669551 12.856741
1038 0 2 -1.050000 40.549948 33.793117 12.721229
1039 0 1 1.575000 33.041984 0.000000 13.339212
1040 0 1 1.575000 30.976860 32.192097 1.657107
1041 0 1 1.575000 37.172232 0.000000 1.657107
1042 0 1 1.575000 30.976860 39.345896 1.657107
1043 0 1 1.575000 33.041984 0.000000 4.577633
1044 0 1 1.575000 32.902794 39.586979 13.142369
1045 0 1 1.575000 26.985801 42.681713 13.536055
1046 0 1 1.575000 32.902794 39.586979 4.380790
1047 0 1 1.575000 36.000480 30.162564 13.142369
1048 0 1 1.575000 36.278859 37.798529 13.536055
1049 0 1 1.575000 36.000480 30.162564 4.380790
1050 0 1 1.575000 30.222676 30.403647 13.142369
1051 0 1 1.575000 35.861291 33.980547 13.536055
1052 0 1 1.575000 30.222676 30.403647 4.380790
1053 0 1 1.575000 30.837670 28.856280 1.460263
1054 0 1 1.575000 33.181173 31.951014 13.536055
1055 0 1 1.575000 33.935356 40.893263 1.460263
1056 0 1 1.575000 30.083487 41.375429 13.536055
1057 0 1 1.575000 34.352924 30.403647 1.460263
1058 0 1 1.575000 35.861291 41.134346 13.536055
1059 0 2 -1.050000 32.165545 41.238791 14.370742
1060 0 2 -1.050000 29.712178 33.876101 2.139578
1061 0 2 -1.050000 33.019680 39.009668 2.275090
1062 0 2 -1.050000 34.938593 28.698181 14.370742
1063 0 2 -1.050000 30.150810 37.408647 2.139578
1064 0 2 -1.050000 36.442004 30.552446 2.275090
1065 0 2 -1.050000 32.021812 30.216218 14.370742
1066 0 2 -1.050000 39.262963 28.868442 2.139578
1067 0 2 -1.050000 29.664267 30.591077 2.275090
1068 0 2 -1.050000 32.165545 41.238791 5.609163
1069 0 2 -1.050000 29.010036 28.951426 14.127754
1070 0 2 -1.050000 34.938593 28.698181 5.609163
1071 0 2 -1.050000 34.766775 39.262912 14.127754
1072 0 2 -1.050000 32.021812 30.216218 5.609163
1073 0 2 -1.050000 35.349140 31.938852 14.127754
1074 0 2 -1.050000 33.918422 30.299202 3.546103
1075 0 2 -1.050000 28.813436 42.586567 0.868565
1076 0 2 -1.050000 31.145374 42.839812 3.546103
1077 0 2 -1.050000 35.447440 39.428880 0.868565
1078 0 2 -1.050000 34.062155 41.321776 3.546103
1079 0 2 -1.050000 34.865075 32.445341 0.868565
1080 0 2 -1.050000 33.918422 30.299202 12.307682
1081 0 2 -1.050000 32.241542 30.508093 1.174636
1082 0 2 -1.050000 37.073932 42.586567 3.789091
1083 0 2 -1.050000 28.934039 39.682125 1.039123
1084 0 2 -1.050000 31.145374 42.839812 12.307682
1085 0 2 -1.050000 31.802909 41.283145 1.174636
1086 0 2 -1.050000 31.317192 32.275081 3.789091
1087 0 2 -1.050000 37.902459 40.985547 1.039123
1088 0 2 -1.050000 34.062155 41.321776 12.307682
1089 0 2 -1.050000 35.081500 42.669551 1.174636
1090 0 2 -1.050000 30.734827 39.599141 3.789091
1091 0 2 -1.050000 32.289452 33.793117 1.039123
1092 0 1 1.575000 45.432728 35.768997 13.339212
1093 0 1 1.575000 43.367604 39.345896 1.657107
1094 0 1 1.575000 49.562975 35.768997 1.657107
1095 0 1 1.575000 43.367604 32.192097 1.657107
1096 0 1 1.575000 45.432728 35.768997 4.577633
1097 0 1 1.575000 45.293538 32.433180 13.142369
1098 0 1 1.575000 39.376545 35.527913 13.536055
1099 0 1 1.575000 45.293538 32.433180 4.380790
1100 0 1 1.575000 48.391224 37.316363 13.142369
1101 0 1 1.575000 48.669603 30.644730 13.536055
1102 0 1 1.575000 48.391224 37.316363 4.380790
1103 0 1 1.575000 42.613420 37.557446 13.142369
1104 0 1 1.575000 48.252035 41.134346 13.536055
1105 0 1 1.575000 42.613420 37.557446 4.380790
1106 0 1 1.575000 43.228414 36.010080 1.460263
1107 0 1 1.575000 45.571917 39.104813 13.536055
1108 0 1 1.575000 46.326100 33.739464 1.460263
1109 0 1 1.575000 42.474231 34.221630 13.536055
1110 0 1 1.575000 46.743668 37.557446 1.460263
1111 0 1 1.575000 48.252035 33.980547 13.536055
1112 0 2 -1.050000 44.556289 34.084992 14.370742
1113 0 2 -1.050000 42.102922 41.029901 2.139578
1114 0 2 -1.050000 45.410424 31.855868 2.275090
1115 0 2 -1.050000 47.329337 35.851981 14.370742
1116 0 2 -1.050000 42.541554 30.254848 2.139578
1117 0 2 -1.050000 48.832748 37.706245 2.275090
1118 0 2 -1.050000 44.412556 37.370017 14.370742
1119 0 2 -1.050000 26.872219 36.022241 2.139578
1120 0 2 -1.050000 42.055011 37.744876 2.275090
1121 0 2 -1.050000 44.556289 34.084992 5.609163
1122 0 2 -1.050000 41.400779 36.105225 14.127754
1123 0 2 -1.050000 47.329337 35.851981 5.609163
1124 0 2 -1.050000 47.157519 32.109113 14.127754
1125 0 2 -1.050000 44.412556 37.370017 5.609163
1126 0 2 -1.050000 47.739884 39.092652 14.127754
1127 0 2 -1.050000 46.309166 37.453001 3.546103
1128 0 2 -1.050000 41.204180 35.432768 0.868565
1129 0 2 -1.050000 43.536118 35.686012 3.546103
1130 0 2 -1.050000 47.838184 32.275081 0.868565
1131 0 2 -1.050000 46.452899 34.167976 3.546103
1132 0 2 -1.050000 47.255819 39.599141 0.868565
1133 0 2 -1.050000 46.309166 37.453001 12.307682
1134 0 2 -1.050000 44.632285 37.661892 1.174636
1135 0 2 -1.050000 49.464676 35.432768 3.789091
1136 0 2 -1.050000 41.324783 32.528325 1.039123
1137 0 2 -1.050000 43.536118 35.686012 12.307682
1138 0 2 -1.050000 44.193653 34.129346 1.174636
1139 0 2 -1.050000 43.707936 39.428880 3.789091
1140 0 2 -1.050000 25.511716 33.831748 1.039123
1141 0 2 -1.050000 46.452899 34.167976 12.307682
1142 0 2 -1.050000 47.472244 35.515752 1.174636
1143 0 2 -1.050000 43.125571 32.445341 3.789091
1144 0 2 -1.050000 44.680196 40.946916 1.039123
1145 0 1 1.575000 24.781488 0.000000 19.180265
1146 0 1 1.575000 47.497851 32.192097 25.021317
1147 0 1 1.575000 28.911736 0.000000 25.021317
1148 0 1 1.575000 47.497851 39.345896 25.021317
1149 0 1 1.575000 49.562975 0.000000 27.941844
1150 0 1 1.575000 26.846612 39.345896 22.100791
1151 0 1 1.575000 45.432728 0.000000 22.100791
1152 0 1 1.575000 26.846612 32.192097 22.100791
1153 0 1 1.575000 49.423786 39.586979 18.983421
1154 0 1 1.575000 43.506793 42.681713 19.377108
1155 0 1 1.575000 26.985801 42.681713 22.297634
1156 0 1 1.575000 49.423786 39.586979 27.745000
1157 0 1 1.575000 27.739984 30.162564 18.983421
1158 0 1 1.575000 28.018363 37.798529 19.377108
1159 0 1 1.575000 48.669603 30.644730 22.297634
1160 0 1 1.575000 46.743668 30.403647 18.983421
1161 0 1 1.575000 27.600795 33.980547 19.377108
1162 0 1 1.575000 48.252035 41.134346 22.297634
1163 0 1 1.575000 45.571917 39.104813 22.297634
1164 0 1 1.575000 26.707422 36.010080 21.903948
1165 0 1 1.575000 24.920677 31.951014 19.377108
1166 0 1 1.575000 30.083487 41.375429 22.297634
1167 0 1 1.575000 29.805108 33.739464 21.903948
1168 0 1 1.575000 25.674860 40.893263 24.824474
1169 0 1 1.575000 46.604479 41.375429 19.377108
1170 0 1 1.575000 48.252035 33.980547 22.297634
1171 0 1 1.575000 42.613420 30.403647 21.903948
1172 0 1 1.575000 27.600795 41.134346 19.377108
1173 0 2 -1.050000 48.686537 41.238791 20.211795
1174 0 2 -1.050000 46.233170 33.876101 25.503788
1175 0 2 -1.050000 49.540672 39.009668 25.639301
1176 0 2 -1.050000 26.678098 28.698181 20.211795
1177 0 2 -1.050000 46.671802 37.408647 25.503788
1178 0 2 -1.050000 47.157519 32.109113 22.889333
1179 0 2 -1.050000 48.542804 30.216218 20.211795
1180 0 2 -1.050000 47.739884 39.092652 22.889333
1181 0 2 -1.050000 48.686537 41.238791 28.973374
1182 0 2 -1.050000 25.581930 41.029901 22.583262
1183 0 2 -1.050000 45.531027 28.951426 19.968807
1184 0 2 -1.050000 28.889432 31.855868 22.718774
1185 0 3 -0.950000 26.020562 30.254848 22.583262
1186 0 2 -1.050000 26.506279 39.262912 19.968807
1187 0 3 -0.950000 44.702500 30.552446 22.718774
1188 0 2 -1.050000 27.088644 31.938852 19.968807
1189 0 2 -1.050000 25.534019 37.744876 22.718774
1190 0 2 -1.050000 28.111294 37.661892 21.618320
1191 0 2 -1.050000 45.334428 42.586567 24.232775
1192 0 2 -1.050000 24.803791 32.528325 21.482808
1193 0 2 -1.050000 47.666366 42.839812 26.910314
1194 0 2 -1.050000 27.672661 34.129346 21.618320
1195 0 2 -1.050000 27.186944 39.428880 24.232775
1196 0 2 -1.050000 46.162955 40.985547 21.482808
1197 0 2 -1.050000 25.801659 41.321776 26.910314
1198 0 2 -1.050000 43.341996 42.669551 21.618320
1199 0 3 -0.950000 26.604579 32.445341 24.232775
1200 0 2 -1.050000 28.159205 40.946916 21.482808
1201 0 2 -1.050000 25.657926 30.299202 18.148735
1202 0 2 -1.050000 28.813436 42.586567 27.153302
1203 0 2 -1.050000 45.455031 39.682125 24.403334
1204 0 2 -1.050000 47.666366 42.839812 18.148735
1205 0 2 -1.050000 48.323901 41.283145 24.538846
1206 0 2 -1.050000 29.641964 40.985547 24.403334
1207 0 2 -1.050000 25.801659 41.321776 18.148735
1208 0 2 -1.050000 26.821004 42.669551 24.538846
1209 0 2 -1.050000 47.255819 39.599141 27.153302
1210 0 2 -1.050000 48.810444 33.793117 24.403334
1211 0 1 1.575000 37.172232 35.768997 19.180265
1212 0 1 1.575000 35.107108 39.345896 25.021317
1213 0 1 1.575000 41.302480 35.768997 25.021317
1214 0 1 1.575000 35.107108 32.192097 25.021317
1215 0 1 1.575000 37.172232 35.768997 27.941844
1216 0 1 1.575000 39.237356 32.192097 22.100791
1217 0 1 1.575000 33.041984 35.768997 22.100791
1218 0 1 1.575000 39.237356 39.345896 22.100791
1219 0 1 1.575000 37.033042 32.433180 18.983421
1220 0 1 1.575000 31.116049 35.527913 19.377108
1221 0 1 1.575000 39.376545 35.527913 22.297634
1222 0 1 1.575000 40.130728 37.316363 18.983421
1223 0 1 1.575000 40.409107 30.644730 19.377108
1224 0 1 1.575000 36.278859 37.798529 22.297634
1225 0 1 1.575000 40.130728 37.316363 27.745000
1226 0 1 1.575000 34.352924 37.557446 18.983421
1227 0 1 1.575000 39.991539 41.134346 19.377108
1228 0 1 1.575000 35.861291 33.980547 22.297634
1229 0 1 1.575000 34.352924 37.557446 27.745000
1230 0 1 1.575000 33.181173 31.951014 22.297634
1231 0 1 1.575000 39.098166 28.856280 21.903948
1232 0 1 1.575000 34.967918 36.010080 24.824474
1233 0 1 1.575000 37.311421 39.104813 19.377108
1234 0 1 1.575000 42.474231 34.221630 22.297634
1235 0 1 1.575000 42.195852 40.893263 21.903948
1236 0 1 1.575000 38.065604 33.739464 24.824474
1237 0 1 1.575000 34.213735 34.221630 19.377108
1238 0 1 1.575000 35.861291 41.134346 22.297634
1239 0 1 1.575000 30.222676 37.557446 21.903948
1240 0 1 1.575000 38.483172 37.557446 24.824474
1241 0 1 1.575000 39.991539 33.980547 19.377108
1242 0 2 -1.050000 36.295793 34.084992 20.211795
1243 0 2 -1.050000 33.842426 41.029901 25.503788
1244 0 2 -1.050000 41.400779 36.105225 22.889333
1245 0 3 -0.950000 37.149928 31.855868 25.639301
1246 0 2 -1.050000 39.068841 35.851981 20.211795
1247 0 2 -1.050000 34.766775 39.262912 22.889333
1248 0 2 -1.050000 40.572252 37.706245 25.639301
1249 0 2 -1.050000 36.152060 37.370017 20.211795
1250 0 2 -1.050000 43.393211 36.022241 25.503788
1251 0 2 -1.050000 35.349140 31.938852 22.889333
1252 0 2 -1.050000 33.794515 37.744876 25.639301
1253 0 2 -1.050000 37.972674 33.876101 22.583262
1254 0 2 -1.050000 33.140284 36.105225 19.968807
1255 0 2 -1.050000 41.280176 39.009668 22.718774
1256 0 2 -1.050000 39.068841 35.851981 28.973374
1257 0 2 -1.050000 38.411306 37.408647 22.583262
1258 0 2 -1.050000 38.897023 32.109113 19.968807
1259 0 2 -1.050000 32.311756 37.706245 22.718774
1260 0 3 -0.950000 36.152060 37.370017 28.973374
1261 0 2 -1.050000 35.132715 36.022241 22.583262
1262 0 2 -1.050000 39.479388 39.092652 19.968807
1263 0 3 -0.950000 37.924763 30.591077 22.718774
1264 0 2 -1.050000 38.048670 37.453001 26.910314
1265 0 2 -1.050000 40.502037 30.508093 21.618320
1266 0 2 -1.050000 32.943684 35.432768 24.232775
1267 0 2 -1.050000 37.194535 39.682125 21.482808
1268 0 2 -1.050000 35.275622 35.686012 26.910314
1269 0 2 -1.050000 40.063405 41.283145 21.618320
1270 0 2 -1.050000 39.577688 32.275081 24.232775
1271 0 2 -1.050000 33.772211 33.831748 21.482808
1272 0 2 -1.050000 30.951252 35.515752 21.618320
1273 0 2 -1.050000 38.995323 39.599141 24.232775
1274 0 2 -1.050000 40.549948 33.793117 21.482808
1275 0 2 -1.050000 38.048670 37.453001 18.148735
1276 0 2 -1.050000 36.371790 37.661892 24.538846
1277 0 3 -0.950000 41.204180 35.432768 27.153302
1278 0 2 -1.050000 33.064287 32.528325 24.403334
1279 0 2 -1.050000 35.275622 35.686012 18.148735
1280 0 2 -1.050000 35.933157 34.129346 24.538846
1281 0 2 -1.050000 35.447440 39.428880 27.153302
1282 0 2 -1.050000 42.032707 33.831748 24.403334
1283 0 2 -1.050000 38.192403 34.167976 18.148735
1284 0 2 -1.050000 39.211748 35.515752 24.538846
1285 0 2 -1.050000 36.419700 40.946916 24.403334
1286 0 1 1.575000 28.911736 35.768997 25.021317
1287 0 1 1.575000 28.911736 35.768997 16.259738
1288 0 1 1.575000 49.562975 35.768997 27.941844
1289 0 1 1.575000 30.976860 39.345896 27.941844
1290 0 1 1.575000 28.772546 32.433180 24.824474
1291 0 1 1.575000 47.637041 35.527913 25.218161
1292 0 1 1.575000 28.772546 32.433180 16.062895
1293 0 1 1.575000 31.870232 37.316363 24.824474
1294 0 1 1.575000 28.018363 37.798529 28.138687
1295 0 1 1.575000 31.870232 37.316363 16.062895
1296 0 1 1.575000 26.092428 37.557446 24.824474
1297 0 1 1.575000 31.731043 41.134346 25.218161
1298 0 1 1.575000 26.092428 37.557446 16.062895
1299 0 1 1.575000 29.050925 39.104813 25.218161
1300 0 1 1.575000 33.935356 40.893263 27.745000
1301 0 1 1.575000 25.953239 34.221630 25.218161
1302 0 1 1.575000 27.600795 41.134346 28.138687
1303 0 1 1.575000 46.743668 37.557446 27.745000
1304 0 1 1.575000 31.731043 33.980547 25.218161
1305 0 3 -0.950000 28.035297 34.084992 26.052847
1306 0 2 -1.050000 30.808346 35.851981 26.052847
1307 0 3 -0.950000 26.506279 39.262912 28.730386
1308 0 2 -1.050000 27.891564 37.370017 26.052847
1309 0 2 -1.050000 28.035297 34.084992 17.291268
1310 0 2 -1.050000 24.879788 36.105225 25.809859
1311 0 3 -0.950000 33.019680 39.009668 28.559827
1312 0 2 -1.050000 30.808346 35.851981 17.291268
1313 0 3 -0.950000 30.150810 37.408647 28.424315
1314 0 3 -0.950000 30.636527 32.109113 25.809859
1315 0 3 -0.950000 48.832748 37.706245 28.559827
1316 0 2 -1.050000 27.891564 37.370017 17.291268
1317 0 2 -1.050000 26.872219 36.022241 28.424315
1318 0 2 -1.050000 31.218892 39.092652 25.809859
1319 0 2 -1.050000 29.788174 37.453001 15.228208
1320 0 2 -1.050000 28.934039 39.682125 27.323860
1321 0 2 -1.050000 27.015126 35.686012 15.228208
1322 0 2 -1.050000 31.802909 41.283145 27.459373
1323 0 2 -1.050000 29.931907 34.167976 15.228208
1324 0 3 -0.950000 47.472244 35.515752 27.459373
1325 0 2 -1.050000 29.788174 37.453001 23.989787
1326 0 2 -1.050000 32.943684 35.432768 15.471196
1327 0 2 -1.050000 27.015126 35.686012 23.989787
1328 0 2 -1.050000 27.186944 39.428880 15.471196
1329 0 2 -1.050000 29.931907 34.167976 23.989787
1330 0 2 -1.050000 26.604579 32.445341 15.471196
1331 0 1 1.575000 41.302480 0.000000 25.021317
1332 0 1 1.575000 41.302480 0.000000 16.259738
1333 0 1 1.575000 43.367604 39.345896 27.941844
1334 0 1 1.575000 37.172232 0.000000 27.941844
1335 0 1 1.575000 41.163290 39.586979 24.824474
1336 0 1 1.575000 35.246297 42.681713 25.218161
1337 0 1 1.575000 43.506793 42.681713 28.138687
1338 0 1 1.575000 41.163290 39.586979 16.062895
1339 0 1 1.575000 44.539355 37.798529 25.218161
1340 0 1 1.575000 44.260976 30.162564 16.062895
1341 0 1 1.575000 44.121787 33.980547 25.218161
1342 0 1 1.575000 39.991539 41.134346 28.138687
1343 0 1 1.575000 38.483172 30.403647 16.062895
1344 0 1 1.575000 37.311421 39.104813 28.138687
1345 0 1 1.575000 43.228414 36.010080 27.745000
1346 0 1 1.575000 41.441669 31.951014 25.218161
1347 0 1 1.575000 46.604479 41.375429 28.138687
1348 0 1 1.575000 38.343983 41.375429 25.218161
1349 0 1 1.575000 44.121787 41.134346 25.218161
1350 0 2 -1.050000 40.426041 41.238791 26.052847
1351 0 3 -0.950000 39.479388 39.092652 28.730386
1352 0 2 -1.050000 40.426041 41.238791 17.291268
1353 0 2 -1.050000 42.102922 41.029901 28.424315
1354 0 2 -1.050000 43.199089 28.698181 17.291268
1355 0 2 -1.050000 43.027271 39.262912 25.809859
1356 0 2 -1.050000 40.282308 30.216218 17.291268
1357 0 3 -0.950000 43.609636 31.938852 25.809859
1358 0 3 -0.950000 42.055011 37.744876 28.559827
1359 0 2 -1.050000 42.178918 30.299202 15.228208
1360 0 2 -1.050000 44.632285 37.661892 27.459373
1361 0 2 -1.050000 39.405870 42.839812 15.228208
1362 0 2 -1.050000 37.902459 40.985547 27.323860
1363 0 2 -1.050000 42.322651 41.321776 15.228208
1364 0 2 -1.050000 35.081500 42.669551 27.459373
1365 0 2 -1.050000 44.680196 40.946916 27.323860
1366 0 2 -1.050000 45.334428 42.586567 15.471196
1367 0 2 -1.050000 39.405870 42.839812 23.989787
1368 0 2 -1.050000 39.577688 32.275081 15.471196
1369 0 2 -1.050000 42.322651 41.321776 23.989787
1370 0 2 -1.050000 38.995323 39.599141 15.471196
1371 0 1 1.575000 30.976860 32.192097 19.180265
1372 0 1 1.575000 37.172232 0.000000 19.180265
1373 0 1 1.575000 30.976860 39.345896 19.180265
1374 0 1 1.575000 33.041984 0.000000 22.100791
1375 0 1 1.575000 35.107108 39.345896 16.259738
1376 0 1 1.575000 28.911736 0.000000 16.259738
1377 0 1 1.575000 35.107108 32.192097 16.259738
1378 0 1 1.575000 35.246297 42.681713 16.456582
1379 0 1 1.575000 32.902794 39.586979 21.903948
1380 0 1 1.575000 32.148611 30.644730 16.456582
1381 0 1 1.575000 36.000480 30.162564 21.903948
1382 0 1 1.575000 31.731043 41.134346 16.456582
1383 0 1 1.575000 30.222676 30.403647 21.903948
1384 0 1 1.575000 29.050925 39.104813 16.456582
1385 0 1 1.575000 34.967918 36.010080 16.062895
1386 0 1 1.575000 30.837670 28.856280 18.983421
1387 0 1 1.575000 38.343983 41.375429 16.456582
1388 0 1 1.575000 38.065604 33.739464 16.062895
1389 0 1 1.575000 33.935356 40.893263 18.983421
1390 0 1 1.575000 31.731043 33.980547 16.456582
1391 0 1 1.575000 26.092428 30.403647 16.062895
1392 0 1 1.575000 34.352924 30.403647 18.983421
1393 0 2 -1.050000 29.712178 33.876101 19.662736
1394 0 2 -1.050000 37.270531 28.951426 17.048280
1395 0 2 -1.050000 33.019680 39.009668 19.798248
1396 0 2 -1.050000 30.150810 37.408647 19.662736
1397 0 2 -1.050000 30.636527 32.109113 17.048280
1398 0 2 -1.050000 36.442004 30.552446 19.798248
1399 0 2 -1.050000 39.262963 28.868442 19.662736
1400 0 2 -1.050000 31.218892 39.092652 17.048280
1401 0 2 -1.050000 29.664267 30.591077 19.798248
1402 0 2 -1.050000 32.165545 41.238791 23.132321
1403 0 2 -1.050000 33.842426 41.029901 16.742209
1404 0 2 -1.050000 37.149928 31.855868 16.877722
1405 0 2 -1.050000 34.281058 30.254848 16.742209
1406 0 2 -1.050000 28.181508 30.552446 16.877722
1407 0 3 -0.950000 32.021812 30.216218 23.132321
1408 0 2 -1.050000 31.002467 28.868442 16.742209
1409 0 2 -1.050000 33.794515 37.744876 16.877722
1410 0 2 -1.050000 33.918422 30.299202 21.069261
1411 0 2 -1.050000 36.371790 37.661892 15.777267
1412 0 2 -1.050000 28.813436 42.586567 18.391723
1413 0 2 -1.050000 33.064287 32.528325 15.641755
1414 0 2 -1.050000 31.145374 42.839812 21.069261
1415 0 2 -1.050000 35.933157 34.129346 15.777267
1416 0 2 -1.050000 35.447440 39.428880 18.391723
1417 0 2 -1.050000 29.641964 40.985547 15.641755
1418 0 2 -1.050000 34.062155 41.321776 21.069261
1419 0 2 -1.050000 26.821004 42.669551 15.777267
1420 0 2 -1.050000 34.865075 32.445341 18.391723
1421 0 2 -1.050000 36.419700 40.946916 15.641755
1422 0 2 -1.050000 32.241542 30.508093 18.697794
1423 0 2 -1.050000 37.073932 42.586567 21.312249
1424 0 2 -1.050000 28.934039 39.682125 18.562281
1425 0 2 -1.050000 31.802909 41.283145 18.697794
1426 0 2 -1.050000 31.317192 32.275081 21.312249
1427 0 2 -1.050000 37.902459 40.985547 18.562281
1428 0 2 -1.050000 35.081500 42.669551 18.697794
1429 0 2 -1.050000 30.734827 39.599141 21.312249
1430 0 2 -1.050000 32.289452 33.793117 18.562281
1431 0 1 1.575000 43.367604 39.345896 19.180265
1432 0 1 1.575000 49.562975 35.768997 19.180265
1433 0 1 1.575000 43.367604 32.192097 19.180265
1434 0 1 1.575000 45.432728 35.768997 22.100791
1435 0 1 1.575000 47.497851 32.192097 16.259738
1436 0 1 1.575000 41.302480 35.768997 16.259738
1437 0 1 1.575000 47.497851 39.345896 16.259738
1438 0 1 1.575000 47.637041 35.527913 16.456582
1439 0 1 1.575000 45.293538 32.433180 21.903948
1440 0 1 1.575000 44.539355 37.798529 16.456582
1441 0 1 1.575000 48.391224 37.316363 21.903948
1442 0 1 1.575000 44.121787 33.980547 16.456582
1443 0 1 1.575000 42.613420 37.557446 21.903948
1444 0 1 1.575000 41.441669 31.951014 16.456582
1445 0 1 1.575000 47.358662 28.856280 16.062895
1446 0 1 1.575000 43.228414 36.010080 18.983421
1447 0 1 1.575000 25.953239 34.221630 16.456582
1448 0 1 1.575000 25.674860 40.893263 16.062895
1449 0 1 1.575000 46.326100 33.739464 18.983421
1450 0 1 1.575000 44.121787 41.134346 16.456582
1451 0 1 1.575000 38.483172 37.557446 16.062895
1452 0 1 1.575000 46.743668 37.557446 18.983421
1453 0 2 -1.050000 42.102922 41.029901 19.662736
1454 0 2 -1.050000 24.879788 36.105225 17.048280
1455 0 2 -1.050000 45.410424 31.855868 19.798248
1456 0 2 -1.050000 42.541554 30.254848 19.662736
1457 0 2 -1.050000 43.027271 39.262912 17.048280
1458 0 2 -1.050000 48.832748 37.706245 19.798248
1459 0 2 -1.050000 26.872219 36.022241 19.662736
1460 0 2 -1.050000 43.609636 31.938852 17.048280
1461 0 2 -1.050000 42.055011 37.744876 19.798248
1462 0 2 -1.050000 44.556289 34.084992 23.132321
1463 0 2 -1.050000 46.233170 33.876101 16.742209
1464 0 2 -1.050000 49.540672 39.009668 16.877722
1465 0 2 -1.050000 47.329337 35.851981 23.132321
1466 0 2 -1.050000 46.671802 37.408647 16.742209
1467 0 2 -1.050000 40.572252 37.706245 16.877722
1468 0 2 -1.050000 44.412556 37.370017 23.132321
1469 0 2 -1.050000 43.393211 36.022241 16.742209
1470 0 2 -1.050000 46.185259 30.591077 16.877722
1471 0 2 -1.050000 46.309166 37.453001 21.069261
1472 0 2 -1.050000 48.762533 30.508093 15.777267
1473 0 2 -1.050000 41.204180 35.432768 18.391723
1474 0 2 -1.050000 45.455031 39.682125 15.641755
1475 0 2 -1.050000 43.536118 35.686012 21.069261
1476 0 2 -1.050000 48.323901 41.283145 15.777267
1477 0 2 -1.050000 47.838184 32.275081 18.391723
1478 0 2 -1.050000 42.032707 33.831748 15.641755
1479 0 2 -1.050000 46.452899 34.167976 21.069261
1480 0 2 -1.050000 39.211748 35.515752 15.777267
1481 0 2 -1.050000 47.255819 39.599141 18.391723
1482 0 2 -1.050000 48.810444 33.793117 15.641755
1483 0 2 -1.050000 44.632285 37.661892 18.697794
1484 0 2 -1.050000 49.464676 35.432768 21.312249
1485 0 2 -1.050000 41.324783 32.528325 18.562281
1486 0 2 -1.050000 44.193653 34.129346 18.697794
1487 0 2 -1.050000 43.707936 39.428880 21.312249
1488 0 2 -1.050000 25.511716 33.831748 18.562281
1489 0 2 -1.050000 47.472244 35.515752 18.697794
1490 0 2 -1.050000 43.125571 32.445341 21.312249
1491 0 2 -1.050000 44.680196 40.946916 18.562281
1492 0 1 1.575000 49.562975 0.000000 1.657107
1493 0 1 1.575000 72.279339 32.192097 7.498159
1494 0 1 1.575000 53.693223 0.000000 7.498159
1495 0 1 1.575000 72.279339 39.345896 7.498159
1496 0 1 1.575000 74.344463 0.000000 10.418686
1497 0 1 1.575000 51.628099 39.345896 4.577633
1498 0 1 1.575000 70.214215 0.000000 4.577633
1499 0 1 1.575000 51.628099 32.192097 4.577633
1500 0 1 1.575000 74.205274 39.586979 1.460263
1501 0 1 1.575000 68.288281 42.681713 1.853950
1502 0 1 1.575000 51.767289 42.681713 4.774476
1503 0 1 1.575000 74.205274 39.586979 10.221842
1504 0 1 1.575000 52.521472 30.162564 1.460263
1505 0 1 1.575000 52.799851 37.798529 1.853950
1506 0 1 1.575000 73.451091 30.644730 4.774476
1507 0 1 1.575000 52.521472 30.162564 10.221842
1508 0 1 1.575000 71.525156 30.403647 1.460263
1509 0 1 1.575000 52.382283 33.980547 1.853950
1510 0 1 1.575000 73.033522 41.134346 4.774476
1511 0 1 1.575000 71.525156 30.403647 10.221842
1512 0 1 1.575000 70.353405 39.104813 4.774476
1513 0 1 1.575000 51.488910 36.010080 4.380790
1514 0 1 1.575000 72.140150 28.856280 7.301316
1515 0 1 1.575000 49.702165 31.951014 1.853950
1516 0 1 1.575000 54.864975 41.375429 4.774476
1517 0 1 1.575000 54.586596 33.739464 4.380790
1518 0 1 1.575000 50.456348 40.893263 7.301316
1519 0 1 1.575000 71.385967 41.375429 1.853950
1520 0 1 1.575000 73.033522 33.980547 4.774476
1521 0 1 1.575000 67.394908 30.403647 4.380790
1522 0 1 1.575000 50.873916 30.403647 7.301316
1523 0 1 1.575000 52.382283 41.134346 1.853950
1524 0 2 -1.050000 73.468025 41.238791 2.688637
1525 0 2 -1.050000 71.014657 33.876101 7.980630
1526 0 2 -1.050000 53.791523 28.951426 5.366175
1527 0 2 -1.050000 74.322160 39.009668 8.116143
1528 0 2 -1.050000 51.459585 28.698181 2.688637
1529 0 2 -1.050000 71.453290 37.408647 7.980630
1530 0 2 -1.050000 71.939007 32.109113 5.366175
1531 0 2 -1.050000 52.962996 30.552446 8.116143
1532 0 2 -1.050000 73.324292 30.216218 2.688637
1533 0 2 -1.050000 55.783955 28.868442 7.980630
1534 0 2 -1.050000 72.521372 39.092652 5.366175
1535 0 2 -1.050000 70.966746 30.591077 8.116143
1536 0 2 -1.050000 73.468025 41.238791 11.450216
1537 0 2 -1.050000 50.363418 41.029901 5.060104
1538 0 2 -1.050000 70.312515 28.951426 2.445649
1539 0 2 -1.050000 53.670920 31.855868 5.195616
1540 0 2 -1.050000 51.459585 28.698181 11.450216
1541 0 2 -1.050000 50.802050 30.254848 5.060104
1542 0 2 -1.050000 51.287767 39.262912 2.445649
1543 0 2 -1.050000 69.483987 30.552446 5.195616
1544 0 2 -1.050000 73.324292 30.216218 11.450216
1545 0 2 -1.050000 72.304947 28.868442 5.060104
1546 0 2 -1.050000 51.870132 31.938852 2.445649
1547 0 2 -1.050000 50.315507 37.744876 5.195616
1548 0 2 -1.050000 50.439414 30.299202 9.387156
1549 0 2 -1.050000 52.892781 37.661892 4.095162
1550 0 2 -1.050000 70.115915 42.586567 6.709617
1551 0 2 -1.050000 49.585279 32.528325 3.959650
1552 0 2 -1.050000 72.447853 42.839812 9.387156
1553 0 2 -1.050000 52.454149 34.129346 4.095162
1554 0 2 -1.050000 51.968432 39.428880 6.709617
1555 0 2 -1.050000 70.944443 40.985547 3.959650
1556 0 2 -1.050000 50.583147 41.321776 9.387156
1557 0 2 -1.050000 68.123484 42.669551 4.095162
1558 0 2 -1.050000 51.386067 32.445341 6.709617
1559 0 2 -1.050000 52.940692 40.946916 3.959650
1560 0 2 -1.050000 50.439414 30.299202 0.625577
1561 0 2 -1.050000 73.544021 30.508093 7.015688
1562 0 2 -1.050000 53.594924 42.586567 9.630144
1563 0 2 -1.050000 70.236519 39.682125 6.880176
1564 0 2 -1.050000 72.447853 42.839812 0.625577
1565 0 2 -1.050000 73.105389 41.283145 7.015688
1566 0 2 -1.050000 72.619672 32.275081 9.630144
1567 0 2 -1.050000 54.423451 40.985547 6.880176
1568 0 2 -1.050000 50.583147 41.321776 0.625577
1569 0 2 -1.050000 51.602492 42.669551 7.015688
1570 0 2 -1.050000 72.037307 39.599141 9.630144
1571 0 2 -1.050000 73.591932 33.793117 6.880176
1572 0 1 1.575000 61.953719 35.768997 1.657107
1573 0 1 1.575000 59.888595 39.345896 7.498159
1574 0 1 1.575000 66.083967 35.768997 7.498159
1575 0 1 1.575000 59.888595 32.192097 7.498159
1576 0 1 1.575000 61.953719 35.768997 10.418686
1577 0 1 1.575000 64.018843 32.192097 4.577633
1578 0 1 1.575000 57.823471 35.768997 4.577633
1579 0 1 1.575000 64.018843 39.345896 4.577633
1580 0 1 1.575000 61.814530 32.433180 1.460263
1581 0 1 1.575000 55.897537 35.527913 1.853950
1582 0 1 1.575000 64.158033 35.527913 4.774476
1583 0 1 1.575000 61.814530 32.433180 10.221842
1584 0 1 1.575000 64.912216 37.316363 1.460263
1585 0 1 1.575000 65.190595 30.644730 1.853950
1586 0 1 1.575000 61.060347 37.798529 4.774476
1587 0 1 1.575000 64.912216 37.316363 10.221842
1588 0 1 1.575000 59.134412 37.557446 1.460263
1589 0 1 1.575000 64.773027 41.134346 1.853950
1590 0 1 1.575000 60.642779 33.980547 4.774476
1591 0 1 1.575000 59.134412 37.557446 10.221842
1592 0 1 1.575000 57.962661 31.951014 4.774476
1593 0 1 1.575000 63.879654 28.856280 4.380790
1594 0 1 1.575000 59.749406 36.010080 7.301316
1595 0 1 1.575000 62.092909 39.104813 1.853950
1596 0 1 1.575000 67.255719 34.221630 4.774476
1597 0 1 1.575000 66.977340 40.893263 4.380790
1598 0 1 1.575000 62.847092 33.739464 7.301316
1599 0 1 1.575000 58.995223 34.221630 1.853950
1600 0 1 1.575000 60.642779 41.134346 4.774476
1601 0 1 1.575000 55.004164 37.557446 4.380790
1602 0 1 1.575000 63.264660 37.557446 7.301316
1603 0 1 1.575000 64.773027 33.980547 1.853950
1604 0 2 -1.050000 61.077281 34.084992 2.688637
1605 0 2 -1.050000 58.623913 41.029901 7.980630
1606 0 2 -1.050000 66.182267 36.105225 5.366175
1607 0 2 -1.050000 61.931416 31.855868 8.116143
1608 0 2 -1.050000 63.850329 35.851981 2.688637
1609 0 2 -1.050000 59.062546 30.254848 7.980630
1610 0 2 -1.050000 59.548263 39.262912 5.366175
1611 0 2 -1.050000 65.353739 37.706245 8.116143
1612 0 2 -1.050000 60.933548 37.370017 2.688637
1613 0 2 -1.050000 68.174699 36.022241 7.980630
1614 0 2 -1.050000 60.130628 31.938852 5.366175
1615 0 2 -1.050000 58.576003 37.744876 8.116143
1616 0 2 -1.050000 61.077281 34.084992 11.450216
1617 0 2 -1.050000 62.754161 33.876101 5.060104
1618 0 2 -1.050000 57.921771 36.105225 2.445649
1619 0 2 -1.050000 66.061664 39.009668 5.195616
1620 0 2 -1.050000 63.850329 35.851981 11.450216
1621 0 2 -1.050000 63.192794 37.408647 5.060104
1622 0 2 -1.050000 63.678511 32.109113 2.445649
1623 0 2 -1.050000 57.093244 37.706245 5.195616
1624 0 2 -1.050000 60.933548 37.370017 11.450216
1625 0 2 -1.050000 59.914203 36.022241 5.060104
1626 0 2 -1.050000 64.260876 39.092652 2.445649
1627 0 2 -1.050000 62.706250 30.591077 5.195616
1628 0 2 -1.050000 62.830158 37.453001 9.387156
1629 0 2 -1.050000 65.283525 30.508093 4.095162
1630 0 2 -1.050000 57.725171 35.432768 6.709617
1631 0 2 -1.050000 61.976023 39.682125 3.959650
1632 0 2 -1.050000 60.057109 35.686012 9.387156
1633 0 2 -1.050000 64.844893 41.283145 4.095162
1634 0 2 -1.050000 64.359176 32.275081 6.709617
1635 0 2 -1.050000 58.553699 33.831748 3.959650
1636 0 2 -1.050000 62.973891 34.167976 9.387156
1637 0 2 -1.050000 55.732740 35.515752 4.095162
1638 0 2 -1.050000 63.776811 39.599141 6.709617
1639 0 2 -1.050000 65.331436 33.793117 3.959650
1640 0 2 -1.050000 62.830158 37.453001 0.625577
1641 0 2 -1.050000 61.153277 37.661892 7.015688
1642 0 2 -1.050000 65.985667 35.432768 9.630144
1643 0 2 -1.050000 57.845775 32.528325 6.880176
1644 0 2 -1.050000 60.057109 35.686012 0.625577
1645 0 2 -1.050000 60.714645 34.129346 7.015688
1646 0 2 -1.050000 60.228928 39.428880 9.630144
1647 0 2 -1.050000 66.814195 33.831748 6.880176
1648 0 2 -1.050000 62.973891 34.167976 0.625577
1649 0 2 -1.050000 63.993236 35.515752 7.015688
1650 0 2 -1.050000 59.646563 32.445341 9.630144
1651 0 2 -1.050000 61.201188 40.946916 6.880176
1652 0 1 1.575000 53.693223 35.768997 7.498159
1653 0 1 1.575000 51.628099 39.345896 13.339212
1654 0 1 1.575000 57.823471 35.768997 13.339212
1655 0 1 1.575000 51.628099 32.192097 13.339212
1656 0 1 1.575000 55.758347 32.192097 10.418686
1657 0 1 1.575000 74.344463 35.768997 10.418686
1658 0 1 1.575000 55.758347 39.345896 10.418686
1659 0 1 1.575000 53.554034 32.433180 7.301316
1660 0 1 1.575000 72.418529 35.527913 7.695003
1661 0 1 1.575000 55.897537 35.527913 10.615529
1662 0 1 1.575000 56.651720 37.316363 7.301316
1663 0 1 1.575000 56.930099 30.644730 7.695003
1664 0 1 1.575000 52.799851 37.798529 10.615529
1665 0 1 1.575000 50.873916 37.557446 7.301316
1666 0 1 1.575000 56.512531 41.134346 7.695003
1667 0 1 1.575000 52.382283 33.980547 10.615529
1668 0 1 1.575000 49.702165 31.951014 10.615529
1669 0 1 1.575000 55.619158 28.856280 10.221842
1670 0 1 1.575000 51.488910 36.010080 13.142369
1671 0 1 1.575000 53.832413 39.104813 7.695003
1672 0 1 1.575000 58.995223 34.221630 10.615529
1673 0 1 1.575000 58.716844 40.893263 10.221842
1674 0 1 1.575000 54.586596 33.739464 13.142369
1675 0 1 1.575000 50.734727 34.221630 7.695003
1676 0 1 1.575000 52.382283 41.134346 10.615529
1677 0 1 1.575000 71.525156 37.557446 10.221842
1678 0 1 1.575000 55.004164 37.557446 13.142369
1679 0 1 1.575000 56.512531 33.980547 7.695003
1680 0 2 -1.050000 52.816785 34.084992 8.529689
1681 0 2 -1.050000 50.363418 41.029901 13.821683
1682 0 2 -1.050000 57.921771 36.105225 11.207228
1683 0 2 -1.050000 53.670920 31.855868 13.957195
1684 0 2 -1.050000 55.589833 35.851981 8.529689
1685 0 2 -1.050000 50.802050 30.254848 13.821683
1686 0 2 -1.050000 51.287767 39.262912 11.207228
1687 0 2 -1.050000 57.093244 37.706245 13.957195
1688 0 2 -1.050000 52.673052 37.370017 8.529689
1689 0 2 -1.050000 59.914203 36.022241 13.821683
1690 0 2 -1.050000 51.870132 31.938852 11.207228
1691 0 2 -1.050000 50.315507 37.744876 13.957195
1692 0 2 -1.050000 54.493665 33.876101 10.901157
1693 0 2 -1.050000 49.661275 36.105225 8.286701
1694 0 2 -1.050000 57.801168 39.009668 11.036669
1695 0 2 -1.050000 54.932298 37.408647 10.901157
1696 0 2 -1.050000 55.418015 32.109113 8.286701
1697 0 2 -1.050000 73.614235 37.706245 11.036669
1698 0 2 -1.050000 51.653707 36.022241 10.901157
1699 0 2 -1.050000 56.000380 39.092652 8.286701
1700 0 2 -1.050000 54.445755 30.591077 11.036669
1701 0 2 -1.050000 57.023029 30.508093 9.936215
1702 0 2 -1.050000 74.246163 35.432768 12.550670
1703 0 2 -1.050000 53.715527 39.682125 9.800702
1704 0 2 -1.050000 56.584397 41.283145 9.936215
1705 0 2 -1.050000 56.098680 32.275081 12.550670
1706 0 2 -1.050000 50.293203 33.831748 9.800702
1707 0 2 -1.050000 72.253732 35.515752 9.936215
1708 0 2 -1.050000 55.516315 39.599141 12.550670
1709 0 2 -1.050000 57.070940 33.793117 9.800702
1710 0 2 -1.050000 54.569662 37.453001 6.466629
1711 0 2 -1.050000 52.892781 37.661892 12.856741
1712 0 2 -1.050000 49.585279 32.528325 12.721229
1713 0 2 -1.050000 51.796614 35.686012 6.466629
1714 0 2 -1.050000 52.454149 34.129346 12.856741
1715 0 2 -1.050000 58.553699 33.831748 12.721229
1716 0 2 -1.050000 54.713395 34.167976 6.466629
1717 0 2 -1.050000 55.732740 35.515752 12.856741
1718 0 2 -1.050000 52.940692 40.946916 12.721229
1719 0 1 1.575000 66.083967 0.000000 7.498159
1720 0 1 1.575000 64.018843 32.192097 13.339212
1721 0 1 1.575000 70.214215 0.000000 13.339212
1722 0 1 1.575000 64.018843 39.345896 13.339212
1723 0 1 1.575000 68.149091 39.345896 10.418686
1724 0 1 1.575000 61.953719 0.000000 10.418686
1725 0 1 1.575000 68.149091 32.192097 10.418686
1726 0 1 1.575000 65.944778 39.586979 7.301316
1727 0 1 1.575000 60.027785 42.681713 7.695003
1728 0 1 1.575000 68.288281 42.681713 10.615529
1729 0 1 1.575000 69.042464 30.162564 7.301316
1730 0 1 1.575000 69.320843 37.798529 7.695003
1731 0 1 1.575000 65.190595 30.644730 10.615529
1732 0 1 1.575000 63.264660 30.403647 7.301316
1733 0 1 1.575000 68.903275 33.980547 7.695003
1734 0 1 1.575000 64.773027 41.134346 10.615529
1735 0 1 1.575000 62.092909 39.104813 10.615529
1736 0 1 1.575000 68.009902 36.010080 10.221842
1737 0 1 1.575000 63.879654 28.856280 13.142369
1738 0 1 1.575000 66.223157 31.951014 7.695003
1739 0 1 1.575000 71.385967 41.375429 10.615529
1740 0 1 1.575000 71.107588 33.739464 10.221842
1741 0 1 1.575000 66.977340 40.893263 13.142369
1742 0 1 1.575000 63.125471 41.375429 7.695003
1743 0 1 1.575000 64.773027 33.980547 10.615529
1744 0 1 1.575000 59.134412 30.403647 10.221842
1745 0 1 1.575000 67.394908 30.403647 13.142369
1746 0 1 1.575000 68.903275 41.134346 7.695003
1747 0 2 -1.050000 65.207529 41.238791 8.529689
1748 0 2 -1.050000 62.754161 33.876101 13.821683
1749 0 2 -1.050000 70.312515 28.951426 11.207228
1750 0 2 -1.050000 66.061664 39.009668 13.957195
1751 0 2 -1.050000 67.980577 28.698181 8.529689
1752 0 2 -1.050000 63.192794 37.408647 13.821683
1753 0 2 -1.050000 63.678511 32.109113 11.207228
1754 0 2 -1.050000 69.483987 30.552446 13.957195
1755 0 2 -1.050000 65.063796 30.216218 8.529689
1756 0 2 -1.050000 72.304947 28.868442 13.821683
1757 0 2 -1.050000 64.260876 39.092652 11.207228
1758 0 2 -1.050000 62.706250 30.591077 13.957195
1759 0 2 -1.050000 66.884409 41.029901 10.901157
1760 0 2 -1.050000 62.052019 28.951426 8.286701
1761 0 2 -1.050000 70.191912 31.855868 11.036669
1762 0 2 -1.050000 67.323042 30.254848 10.901157
1763 0 2 -1.050000 67.808759 39.262912 8.286701
1764 0 2 -1.050000 61.223491 30.552446 11.036669
1765 0 2 -1.050000 64.044451 28.868442 10.901157
1766 0 2 -1.050000 68.391124 31.938852 8.286701
1767 0 2 -1.050000 66.836498 37.744876 11.036669
1768 0 2 -1.050000 69.413773 37.661892 9.936215
1769 0 2 -1.050000 61.855419 42.586567 12.550670
1770 0 2 -1.050000 66.106271 32.528325 9.800702
1771 0 2 -1.050000 68.975141 34.129346 9.936215
1772 0 2 -1.050000 68.489424 39.428880 12.550670
1773 0 2 -1.050000 62.683947 40.985547 9.800702
1774 0 2 -1.050000 59.862988 42.669551 9.936215
1775 0 2 -1.050000 67.907059 32.445341 12.550670
1776 0 2 -1.050000 69.461684 40.946916 9.800702
1777 0 2 -1.050000 66.960406 30.299202 6.466629
1778 0 2 -1.050000 65.283525 30.508093 12.856741
1779 0 2 -1.050000 61.976023 39.682125 12.721229
1780 0 2 -1.050000 64.187357 42.839812 6.466629
1781 0 2 -1.050000 64.844893 41.283145 12.856741
1782 0 2 -1.050000 70.944443 40.985547 12.721229
1783 0 2 -1.050000 67.104139 41.321776 6.466629
1784 0 2 -1.050000 68.123484 42.669551 12.856741
1785 0 2 -1.050000 65.331436 33.793117 12.721229
1786 0 1 1.575000 57.823471 0.000000 13.339212
1787 0 1 1.575000 55.758347 32.192097 1.657107
1788 0 1 1.575000 61.953719 0.000000 1.657107
1789 0 1 1.575000 55.758347 39.345896 1.657107
1790 0 1 1.575000 57.823471 0.000000 4.577633
1791 0 1 1.575000 57.684282 39.586979 13.142369
1792 0 1 1.575000 51.767289 42.681713 13.536055
1793 0 1 1.575000 57.684282 39.586979 4.380790
1794 0 1 1.575000 60.781968 30.162564 13.142369
1795 0 1 1.575000 61.060347 37.798529 13.536055
1796 0 1 1.575000 60.781968 30.162564 4.380790
1797 0 1 1.575000 55.004164 30.403647 13.142369
1798 0 1 1.575000 60.642779 33.980547 13.536055
1799 0 1 1.575000 55.004164 30.403647 4.380790
1800 0 1 1.575000 55.619158 28.856280 1.460263
1801 0 1 1.575000 57.962661 31.951014 13.536055
1802 0 1 1.575000 58.716844 40.893263 1.460263
1803 0 1 1.575000 54.864975 41.375429 13.536055
1804 0 1 1.575000 59.134412 30.403647 1.460263
1805 0 1 1.575000 60.642779 41.134346 13.536055
1806 0 2 -1.050000 56.947033 41.238791 14.370742
1807 0 2 -1.050000 54.493665 33.876101 2.139578
1808 0 2 -1.050000 57.801168 39.009668 2.275090
1809 0 2 -1.050000 59.720081 28.698181 14.370742
1810 0 2 -1.050000 54.932298 37.408647 2.139578
1811 0 2 -1.050000 61.223491 30.552446 2.275090
1812 0 2 -1.050000 56.803300 30.216218 14.370742
1813 0 2 -1.050000 64.044451 28.868442 2.139578
1814 0 2 -1.050000 54.445755 30.591077 2.275090
1815 0 2 -1.050000 56.947033 41.238791 5.609163
1816 0 2 -1.050000 53.791523 28.951426 14.127754
1817 0 2 -1.050000 59.720081 28.698181 5.609163
1818 0 2 -1.050000 59.548263 39.262912 14.127754
1819 0 2 -1.050000 56.803300 30.216218 5.609163
1820 0 2 -1.050000 60.130628 31.938852 14.127754
1821 0 2 -1.050000 58.699910 30.299202 3.546103
1822 0 2 -1.050000 53.594924 42.586567 0.868565
1823 0 2 -1.050000 55.926862 42.839812 3.546103
1824 0 2 -1.050000 60.228928 39.428880 0.868565
1825 0 2 -1.050000 58.843643 41.321776 3.546103
1826 0 2 -1.050000 59.646563 32.445341 0.868565
1827 0 2 -1.050000 58.699910 30.299202 12.307682
1828 0 2 -1.050000 57.023029 30.508093 1.174636
1829 0 2 -1.050000 61.855419 42.586567 3.789091
1830 0 2 -1.050000 53.715527 39.682125 1.039123
1831 0 2 -1.050000 55.926862 42.839812 12.307682
1832 0 2 -1.050000 56.584397 41.283145 1.174636
1833 0 2 -1.050000 56.098680 32.275081 3.789091
1834 0 2 -1.050000 62.683947 40.985547 1.039123
1835 0 2 -1.050000 58.843643 41.321776 12.307682
1836 0 2 -1.050000 59.862988 42.669551 1.174636
1837 0 2 -1.050000 55.516315 39.599141 3.789091
1838 0 2 -1.050000 57.070940 33.793117 1.039123
1839 0 1 1.575000 70.214215 35.768997 13.339212
1840 0 1 1.575000 68.149091 39.345896 1.657107
1841 0 1 1.575000 74.344463 35.768997 1.657107
1842 0 1 1.575000 68.149091 32.192097 1.657107
1843 0 1 1.575000 70.214215 35.768997 4.577633
1844 0 1 1.575000 70.075026 32.433180 13.142369
1845 0 1 1.575000 64.158033 35.527913 13.536055
1846 0 1 1.575000 70.075026 32.433180 4.380790
1847 0 1 1.575000 73.172712 37.316363 13.142369
1848 0 1 1.575000 73.451091 30.644730 13.536055
1849 0 1 1.575000 73.172712 37.316363 4.380790
1850 0 1 1.575000 67.394908 37.557446 13.142369
1851 0 1 1.575000 73.033522 41.134346 13.536055
1852 0 1 1.575000 67.394908 37.557446 4.380790
1853 0 1 1.575000 68.009902 36.010080 1.460263
1854 0 1 1.575000 70.353405 39.104813 13.536055
1855 0 1 1.575000 71.107588 33.739464 1.460263
1856 0 1 1.575000 67.255719 34.221630 13.536055
1857 0 1 1.575000 71.525156 37.557446 1.460263
1858 0 1 1.575000 73.033522 33.980547 13.536055
1859 0 2 -1.050000 69.337777 34.084992 14.370742
1860 0 2 -1.050000 66.884409 41.029901 2.139578
1861 0 2 -1.050000 70.191912 31.855868 2.275090
1862 0 2 -1.050000 72.110825 35.851981 14.370742
1863 0 2 -1.050000 67.323042 30.254848 2.139578
1864 0 2 -1.050000 73.614235 37.706245 2.275090
1865 0 2 -1.050000 69.194044 37.370017 14.370742
1866 0 2 -1.050000 51.653707 36.022241 2.139578
1867 0 2 -1.050000 66.836498 37.744876 2.275090
1868 0 2 -1.050000 69.337777 34.084992 5.609163
1869 0 2 -1.050000 66.182267 36.105225 14.127754
1870 0 2 -1.050000 72.110825 35.851981 5.609163
1871 0 2 -1.050000 71.939007 32.109113 14.127754
1872 0 2 -1.050000 69.194044 37.370017 5.609163
1873 0 2 -1.050000 72.521372 39.092652 14.127754
1874 0 2 -1.050000 71.090654 37.453001 3.546103
1875 0 2 -1.050000 65.985667 35.432768 0.868565
1876 0 2 -1.050000 68.317605 35.686012 3.546103
1877 0 2 -1.050000 72.619672 32.275081 0.868565
1878 0 2 -1.050000 71.234386 34.167976 3.546103
1879 0 2 -1.050000 72.037307 39.599141 0.868565
1880 0 2 -1.050000 71.090654 37.453001 12.307682
1881 0 2 -1.050000 69.413773 37.661892 1.174636
1882 0 2 -1.050000 74.246163 35.432768 3.789091
1883 0 2 -1.050000 66.106271 32.528325 1.039123
1884 0 2 -1.050000 68.317605 35.686012 12.307682
1885 0 2 -1.050000 68.975141 34.129346 1.174636
1886 0 2 -1.050000 68.489424 39.428880 3.789091
1887 0 2 -1.050000 50.293203 33.831748 1.039123
1888 0 2 -1.050000 71.234386 34.167976 12.307682
1889 0 2 -1.050000 72.253732 35.515752 1.174636
1890 0 2 -1.050000 67.907059 32.445341 3.789091
1891 0 2 -1.050000 69.461684 40.946916 1.039123
1892 0 1 1.575000 49.562975 0.000000 19.180265
1893 0 1 1.575000 72.279339 32.192097 25.021317
1894 0 1 1.575000 53.693223 0.000000 25.021317
1895 0 1 1.575000 72.279339 39.345896 25.021317
1896 0 1 1.575000 74.344463 0.000000 27.941844
1897 0 1 1.575000 51.628099 39.345896 22.100791
1898 0 1 1.575000 70.214215 0.000000 22.100791
1899 0 1 1.575000 51.628099 32.192097 22.100791
1900 0 1 1.575000 74.205274 39.586979 18.983421
1901 0 1 1.575000 68.288281 42.681713 19.377108
1902 0 1 1.575000 51.767289 42.681713 22.297634
1903 0 1 1.575000 74.205274 39.586979 27.745000
1904 0 1 1.575000 52.521472 30.162564 18.983421
1905 0 1 1.575000 52.799851 37.798529 19.377108
1906 0 1 1.575000 73.451091 30.644730 22.297634
1907 0 1 1.575000 71.525156 30.403647 18.983421
1908 0 1 1.575000 52.382283 33.980547 19.377108
1909 0 1 1.575000 73.033522 41.134346 22.297634
1910 0 1 1.575000 70.353405 39.104813 22.297634
1911 0 1 1.575000 51.488910 36.010080 21.903948
1912 0 1 1.575000 49.702165 31.951014 19.377108
1913 0 1 1.575000 54.864975 41.375429 22.297634
1914 0 1 1.575000 54.586596 33.739464 21.903948
1915 0 1 1.575000 50.456348 40.893263 24.824474
1916 0 1 1.575000 71.385967 41.375429 19.377108
1917 0 1 1.575000 73.033522 33.980547 22.297634
1918 0 1 1.575000 67.394908 30.403647 21.903948
1919 0 1 1.575000 52.382283 41.134346 19.377108
1920 0 2 -1.050000 73.468025 41.238791 20.211795
1921 0 2 -1.050000 71.014657 33.876101 25.503788
1922 0 2 -1.050000 74.322160 39.009668 25.639301
1923 0 2 -1.050000 51.459585 28.698181 20.211795
1924 0 2 -1.050000 71.453290 37.408647 25.503788
1925 0 2 -1.050000 71.939007 32.109113 22.889333
1926 0 2 -1.050000 73.324292 30.216218 20.211795
1927 0 2 -1.050000 72.521372 39.092652 22.889333
1928 0 2 -1.050000 73.468025 41.238791 28.973374
1929 0 2 -1.050000 50.363418 41.029901 22.583262
1930 0 3 -0.950000 70.312515 28.951426 19.968807
1931 0 2 -1.050000 53.670920 31.855868 22.718774
1932 0 3 -0.950000 50.802050 30.254848 22.583262
1933 0 2 -1.050000 51.287767 39.262912 19.968807
1934 0 3 -0.950000 69.483987 30.552446 22.718774
1935 0 2 -1.050000 51.870132 31.938852 19.968807
1936 0 2 -1.050000 50.315507 37.744876 22.718774
1937 0 2 -1.050000 52.892781 37.661892 21.618320
1938 0 2 -1.050000 70.115915 42.586567 24.232775
1939 0 2 -1.050000 49.585279 32.528325 21.482808
1940 0 2 -1.050000 72.447853 42.839812 26.910314
1941 0 2 -1.050000 52.454149 34.129346 21.618320
1942 0 2 -1.050000 51.968432 39.428880 24.232775
1943 0 2 -1.050000 70.944443 40.985547 21.482808
1944 0 2 -1.050000 50.583147 41.321776 26.910314
1945 0 2 -1.050000 68.123484 42.669551 21.618320
1946 0 3 -0.950000 51.386067 32.445341 24.232775
1947 0 2 -1.050000 52.940692 40.946916 21.482808
1948 0 2 -1.050000 50.439414 30.299202 18.148735
1949 0 2 -1.050000 53.594924 42.586567 27.153302
1950 0 2 -1.050000 70.236519 39.682125 24.403334
1951 0 2 -1.050000 72.447853 42.839812 18.148735
1952 0 2 -1.050000 73.105389 41.283145 24.538846
1953 0 2 -1.050000 54.423451 40.985547 24.403334
1954 0 2 -1.050000 50.583147 41.321776 18.148735
1955 0 2 -1.050000 51.602492 42.669551 24.538846
1956 0 2 -1.050000 72.037307 39.599141 27.153302
1957 0 2 -1.050000 73.591932 33.793117 24.403334
1958 0 1 1.575000 61.953719 35.768997 19.180265
1959 0 1 1.575000 59.888595 39.345896 25.021317
1960 0 1 1.575000 66.083967 35.768997 25.021317
1961 0 1 1.575000 59.888595 32.192097 25.021317
1962 0 1 1.575000 61.953719 35.768997 27.941844
1963 0 1 1.575000 64.018843 32.192097 22.100791
1964 0 1 1.575000 57.823471 35.768997 22.100791
1965 0 1 1.575000 64.018843 39.345896 22.100791
1966 0 1 1.575000 61.814530 32.433180 18.983421
1967 0 1 1.575000 55.897537 35.527913 19.377108
1968 0 1 1.575000 64.158033 35.527913 22.297634
1969 0 1 1.575000 64.912216 37.316363 18.983421
1970 0 1 1.575000 65.190595 30.644730 19.377108
1971 0 1 1.575000 61.060347 37.798529 22.297634
1972 0 1 1.575000 64.912216 37.316363 27.745000
1973 0 1 1.575000 59.134412 37.557446 18.983421
1974 0 1 1.575000 64.773027 41.134346 19.377108
1975 0 1 1.575000 60.642779 33.980547 22.297634
1976 0 1 1.575000 59.134412 37.557446 27.745000
1977 0 1 1.575000 57.962661 31.951014 22.297634
1978 0 1 1.575000 63.879654 28.856280 21.903948
1979 0 1 1.575000 59.749406 36.010080 24.824474
1980 0 1 1.575000 62.092909 39.104813 19.377108
1981 0 1 1.575000 67.255719 34.221630 22.297634
1982 0 1 1.575000 66.977340 40.893263 21.903948
1983 0 1 1.575000 62.847092 33.739464 24.824474
1984 0 1 1.575000 58.995223 34.221630 19.377108
1985 0 1 1.575000 60.642779 41.134346 22.297634
1986 0 1 1.575000 55.004164 37.557446 21.903948
1987 0 1 1.575000 63.264660 37.557446 24.824474
1988 0 1 1.575000 64.773027 33.980547 19.377108
1989 0 2 -1.050000 61.077281 34.084992 20.211795
1990 0 2 -1.050000 58.623913 41.029901 25.503788
1991 0 2 -1.050000 66.182267 36.105225 22.889333
1992 0 3 -0.950000 61.931416 31.855868 25.639301
1993 0 2 -1.050000 63.850329 35.851981 20.211795
1994 0 2 -1.050000 59.548263 39.262912 22.889333
1995 0 2 -1.050000 65.353739 37.706245 25.639301
1996 0 2 -1.050000 60.933548 37.370017 20.211795
1997 0 2 -1.050000 68.174699 36.022241 25.503788
1998 0 2 -1.050000 60.130628 31.938852 22.889333
1999 0 2 -1.050000 58.576003 37.744876 25.639301
2000 0 2 -1.050000 62.754161 33.876101 22.583262
2001 0 2 -1.050000 57.921771 36.105225 19.968807
2002 0 2 -1.050000 66.061664 39.009668 22.718774
2003 0 2 -1.050000 63.850329 35.851981 28.973374
2004 0 2 -1.050000 63.192794 37.408647 22.583262
2005 0 2 -1.050000 63.678511 32.109113 19.968807
2006 0 2 -1.050000 57.093244 37.706245 22.718774
2007 0 2 -1.050000 60.933548 37.370017 28.973374
2008 0 2 -1.050000 59.914203 36.022241 22.583262
2009 0 2 -1.050000 64.260876 39.092652 19.968807
2010 0 3 -0.950000 62.706250 30.591077 22.718774
2011 0 2 -1.050000 62.830158 37.453001 26.910314
2012 0 2 -1.050000 65.283525 30.508093 21.618320
2013 0 2 -1.050000 57.725171 35.432768 24.232775
2014 0 2 -1.050000 61.976023 39.682125 21.482808
2015 0 2 -1.050000 60.057109 35.686012 26.910314
2016 0 2 -1.050000 64.844893 41.283145 21.618320
2017 0 2 -1.050000 64.359176 32.275081 24.232775
2018 0 2 -1.050000 58.553699 33.831748 21.482808
2019 0 2 -1.050000 55.732740 35.515752 21.618320
2020 0 2 -1.050000 63.776811 39.599141 24.232775
2021 0 2 -1.050000 65.331436 33.793117 21.482808
2022 0 2 -1.050000 62.830158 37.453001 18.148735
2023 0 2 -1.050000 61.153277 37.661892 24.538846
2024 0 3 -0.950000 65.985667 35.432768 27.153302
2025 0 2 -1.050000 57.845775 32.528325 24.403334
2026 0 2 -1.050000 60.057109 35.686012 18.148735
2027 0 2 -1.050000 60.714645 34.129346 24.538846
2028 0 2 -1.050000 60.228928 39.428880 27.153302
2029 0 2 -1.050000 66.814195 33.831748 24.403334
2030 0 2 -1.050000 62.973891 34.167976 18.148735
2031 0 2 -1.050000 63.993236 35.515752 24.538846
2032 0 2 -1.050000 61.201188 40.946916 24.403334
2033 0 1 1.575000 53.693223 35.768997 25.021317
2034 0 1 1.575000 53.693223 35.768997 16.259738
2035 0 1 1.575000 74.344463 35.768997 27.941844
2036 0 1 1.575000 55.758347 39.345896 27.941844
2037 0 1 1.575000 53.554034 32.433180 24.824474
2038 0 1 1.575000 72.418529 35.527913 25.218161
2039 0 1 1.575000 53.554034 32.433180 16.062895
2040 0 1 1.575000 56.651720 37.316363 24.824474
2041 0 1 1.575000 52.799851 37.798529 28.138687
2042 0 1 1.575000 56.651720 37.316363 16.062895
2043 0 1 1.575000 50.873916 37.557446 24.824474
2044 0 1 1.575000 56.512531 41.134346 25.218161
2045 0 1 1.575000 50.873916 37.557446 16.062895
2046 0 1 1.575000 53.832413 39.104813 25.218161
2047 0 1 1.575000 58.716844 40.893263 27.745000
2048 0 1 1.575000 50.734727 34.221630 25.218161
2049 0 1 1.575000 52.382283 41.134346 28.138687
2050 0 1 1.575000 71.525156 37.557446 27.745000
2051 0 1 1.575000 56.512531 33.980547 25.218161
2052 0 3 -0.950000 52.816785 34.084992 26.052847
2053 0 2 -1.050000 55.589833 35.851981 26.052847
2054 0 3 -0.950000 51.287767 39.262912 28.730386
2055 0 2 -1.050000 52.673052 37.370017 26.052847
2056 0 2 -1.050000 52.816785 34.084992 17.291268
2057 0 2 -1.050000 49.661275 36.105225 25.809859
2058 0 3 -0.950000 57.801168 39.009668 28.559827
2059 0 2 -1.050000 55.589833 35.851981 17.291268
2060 0 3 -0.950000 54.932298 37.408647 28.424315
2061 0 3 -0.950000 55.418015 32.109113 25.809859
2062 0 3 -0.950000 73.614235 37.706245 28.559827
2063 0 2 -1.050000 52.673052 37.370017 17.291268
2064 0 2 -1.050000 51.653707 36.022241 28.424315
2065 0 2 -1.050000 56.000380 39.092652 25.809859
2066 0 2 -1.050000 54.569662 37.453001 15.228208
2067 0 2 -1.050000 53.715527 39.682125 27.323860
2068 0 2 -1.050000 51.796614 35.686012 15.228208
2069 0 2 -1.050000 56.584397 41.283145 27.459373
2070 0 2 -1.050000 54.713395 34.167976 15.228208
2071 0 2 -1.050000 72.253732 35.515752 27.459373
2072 0 2 -1.050000 54.569662 37.453001 23.989787
2073 0 2 -1.050000 57.725171 35.432768 15.471196
2074 0 2 -1.050000 51.796614 35.686012 23.989787
2075 0 2 -1.050000 51.968432 39.428880 15.471196
2076 0 2 -1.050000 54.713395 34.167976 23.989787
2077 0 2 -1.050000 51.386067 32.445341 15.471196
2078 0 1 1.575000 66.083967 0.000000 25.021317
2079 0 1 1.575000 66.083967 0.000000 16.259738
2080 0 1 1.575000 68.149091 39.345896 27.941844
2081 0 1 1.575000 61.953719 0.000000 27.941844
2082 0 1 1.575000 65.944778 39.586979 24.824474
2083 0 1 1.575000 60.027785 42.681713 25.218161
2084 0 1 1.575000 68.288281 42.681713 28.138687
2085 0 1 1.575000 65.944778 39.586979 16.062895
2086 0 1 1.575000 69.320843 37.798529 25.218161
2087 0 1 1.575000 69.042464 30.162564 16.062895
2088 0 1 1.575000 68.903275 33.980547 25.218161
2089 0 1 1.575000 64.773027 41.134346 28.138687
2090 0 1 1.575000 63.264660 30.403647 16.062895
2091 0 1 1.575000 62.092909 39.104813 28.138687
2092 0 1 1.575000 68.009902 36.010080 27.745000
2093 0 1 1.575000 66.223157 31.951014 25.218161
2094 0 1 1.575000 71.385967 41.375429 28.138687
2095 0 1 1.575000 63.125471 41.375429 25.218161
2096 0 1 1.575000 68.903275 41.134346 25.218161
2097 0 2 -1.050000 65.207529 41.238791 26.052847
2098 0 3 -0.950000 64.260876 39.092652 28.730386
2099 0 2 -1.050000 65.207529 41.238791 17.291268
2100 0 2 -1.050000 66.884409 41.029901 28.424315
2101 0 2 -1.050000 67.980577 28.698181 17.291268
2102 0 2 -1.050000 67.808759 39.262912 25.809859
2103 0 2 -1.050000 65.063796 30.216218 17.291268
2104 0 3 -0.950000 68.391124 31.938852 25.809859
2105 0 3 -0.950000 66.836498 37.744876 28.559827
2106 0 2 -1.050000 66.960406 30.299202 15.228208
2107 0 2 -1.050000 69.413773 37.661892 27.459373
2108 0 2 -1.050000 64.187357 42.839812 15.228208
2109 0 2 -1.050000 62.683947 40.985547 27.323860
2110 0 2 -1.050000 67.104139 41.321776 15.228208
2111 0 2 -1.050000 59.862988 42.669551 27.459373
2112 0 2 -1.050000 69.461684 40.946916 27.323860
2113 0 2 -1.050000 70.115915 42.586567 15.471196
2114 0 2 -1.050000 64.187357 42.839812 23.989787
2115 0 2 -1.050000 64.359176 32.275081 15.471196
2116 0 2 -1.050000 67.104139 41.321776 23.989787
2117 0 2 -1.050000 63.776811 39.599141 15.471196
2118 0 1 1.575000 55.758347 32.192097 19.180265
2119 0 1 1.575000 61.953719 0.000000 19.180265
2120 0 1 1.575000 55.758347 39.345896 19.180265
2121 0 1 1.575000 57.823471 0.000000 22.100791
2122 0 1 1.575000 59.888595 39.345896 16.259738
2123 0 1 1.575000 53.693223 0.000000 16.259738
2124 0 1 1.575000 59.888595 32.192097 16.259738
2125 0 1 1.575000 60.027785 42.681713 16.456582
2126 0 1 1.575000 57.684282 39.586979 21.903948
2127 0 1 1.575000 56.930099 30.644730 16.456582
2128 0 1 1.575000 60.781968 30.162564 21.903948
2129 0 1 1.575000 56.512531 41.134346 16.456582
2130 0 1 1.575000 55.004164 30.403647 21.903948
2131 0 1 1.575000 53.832413 39.104813 16.456582
2132 0 1 1.575000 59.749406 36.010080 16.062895
2133 0 1 1.575000 55.619158 28.856280 18.983421
2134 0 1 1.575000 63.125471 41.375429 16.456582
2135 0 1 1.575000 62.847092 33.739464 16.062895
2136 0 1 1.575000 58.716844 40.893263 18.983421
2137 0 1 1.575000 56.512531 33.980547 16.456582
2138 0 1 1.575000 50.873916 30.403647 16.062895
2139 0 1 1.575000 59.134412 30.403647 18.983421
2140 0 2 -1.050000 54.493665 33.876101 19.662736
2141 0 2 -1.050000 62.052019 28.951426 17.048280
2142 0 2 -1.050000 57.801168 39.009668 19.798248
2143 0 2 -1.050000 54.932298 37.408647 19.662736
2144 0 2 -1.050000 55.418015 32.109113 17.048280
2145 0 2 -1.050000 61.223491 30.552446 19.798248
2146 0 2 -1.050000 64.044451 28.868442 19.662736
2147 0 2 -1.050000 56.000380 39.092652 17.048280
2148 0 2 -1.050000 54.445755 30.591077 19.798248
2149 0 2 -1.050000 56.947033 41.238791 23.132321
2150 0 2 -1.050000 58.623913 41.029901 16.742209
2151 0 2 -1.050000 61.931416 31.855868 16.877722
2152 0 2 -1.050000 59.062546 30.254848 16.742209
2153 0 2 -1.050000 52.962996 30.552446 16.877722
2154 0 3 -0.950000 56.803300 30.216218 23.132321
2155 0 2 -1.050000 55.783955 28.868442 16.742209
2156 0 2 -1.050000 58.576003 37.744876 16.877722
2157 0 2 -1.050000 58.699910 30.299202 21.069261
2158 0 2 -1.050000 61.153277 37.661892 15.777267
2159 0 2 -1.050000 53.594924 42.586567 18.391723
2160 0 2 -1.050000 57.845775 32.528325 15.641755
2161 0 2 -1.050000 55.926862 42.839812 21.069261
2162 0 2 -1.050000 60.714645 34.129346 15.777267
2163 0 2 -1.050000 60.228928 39.428880 18.391723
2164 0 2 -1.050000 54.423451 40.985547 15.641755
2165 0 2 -1.050000 58.843643 41.321776 21.069261
2166 0 2 -1.050000 51.602492 42.669551 15.777267
2167 0 2 -1.050000 59.646563 32.445341 18.391723
2168 0 2 -1.050000 61.201188 40.946916 15.641755
2169 0 2 -1.050000 57.023029 30.508093 18.697794
2170 0 2 -1.050000 61.855419 42.586567 21.312249
2171 0 2 -1.050000 53.715527 39.682125 18.562281
2172 0 2 -1.050000 56.584397 41.283145 18.697794
2173 0 2 -1.050000 56.098680 32.275081 21.312249
2174 0 2 -1.050000 62.683947 40.985547 18.562281
2175 0 2 -1.050000 59.862988 42.669551 18.697794
2176 0 2 -1.050000 55.516315 39.599141 21.312249
2177 0 2 -1.050000 57.070940 33.793117 18.562281
2178 0 1 1.575000 68.149091 39.345896 19.180265
2179 0 1 1.575000 74.344463 35.768997 19.180265
2180 0 1 1.575000 68.149091 32.192097 19.180265
2181 0 1 1.575000 70.214215 35.768997 22.100791
2182 0 1 1.575000 72.279339 32.192097 16.259738
2183 0 1 1.575000 66.083967 35.768997 16.259738
2184 0 1 1.575000 72.279339 39.345896 16.259738
2185 0 1 1.575000 72.418529 35.527913 16.456582
2186 0 1 1.575000 70.075026 32.433180 21.903948
2187 0 1 1.575000 69.320843 37.798529 16.456582
2188 0 1 1.575000 73.172712 37.316363 21.903948
2189 0 1 1.575000 68.903275 33.980547 16.456582
2190 0 1 1.575000 67.394908 37.557446 21.903948
2191 0 1 1.575000 66.223157 31.951014 16.456582
2192 0 1 1.575000 72.140150 28.856280 16.062895
2193 0 1 1.575000 68.009902 36.010080 18.983421
2194 0 1 1.575000 50.734727 34.221630 16.456582
2195 0 1 1.575000 50.456348 40.893263 16.062895
2196 0 1 1.575000 71.107588 33.739464 18.983421
2197 0 1 1.575000 68.903275 41.134346 16.456582
2198 0 1 1.575000 63.264660 37.557446 16.062895
2199 0 1 1.575000 71.525156 37.557446 18.983421
2200 0 2 -1.050000 66.884409 41.029901 19.662736
2201 0 2 -1.050000 49.661275 36.105225 17.048280
2202 0 2 -1.050000 70.191912 31.855868 19.798248
2203 0 2 -1.050000 67.323042 30.254848 19.662736
2204 0 2 -1.050000 67.808759 39.262912 17.048280
2205 0 2 -1.050000 73.614235 37.706245 19.798248
2206 0 2 -1.050000 51.653707 36.022241 19.662736
2207 0 2 -1.050000 68.391124 31.938852 17.048280
2208 0 2 -1.050000 66.836498 37.744876 19.798248
2209 0 2 -1.050000 69.337777 34.084992 23.132321
2210 0 2 -1.050000 71.014657 33.876101 16.742209
2211 0 2 -1.050000 74.322160 39.009668 16.877722
2212 0 2 -1.050000 72.110825 35.851981 23.132321
2213 0 2 -1.050000 71.453290 37.408647 16.742209
2214 0 2 -1.050000 65.353739 37.706245 16.877722
2215 0 2 -1.050000 69.194044 37.370017 23.132321
2216 0 2 -1.050000 68.174699 36.022241 16.742209
2217 0 2 -1.050000 70.966746 30.591077 16.877722
2218 0 2 -1.050000 71.090654 37.453001 21.069261
2219 0 2 -1.050000 73.544021 30.508093 15.777267
2220 0 2 -1.050000 65.985667 35.432768 18.391723
2221 0 2 -1.050000 70.236519 39.682125 15.641755
2222 0 2 -1.050000 68.317605 35.686012 21.069261
2223 0 2 -1.050000 73.105389 41.283145 15.777267
2224 0 2 -1.050000 72.619672 32.275081 18.391723
2225 0 2 -1.050000 66.814195 33.831748 15.641755
2226 0 2 -1.050000 71.234386 34.167976 21.069261
2227 0 2 -1.050000 63.993236 35.515752 15.777267
2228 0 2 -1.050000 72.037307 39.599141 18.391723
2229 0 2 -1.050000 73.591932 33.793117 15.641755
2230 0 2 -1.050000 69.413773 37.661892 18.697794
2231 0 2 -1.050000 74.246163 35.432768 21.312249
2232 0 2 -1.050000 66.106271 32.528325 18.562281
2233 0 2 -1.050000 68.975141 34.129346 18.697794
2234 0 2 -1.050000 68.489424 39.428880 21.312249
2235 0 2 -1.050000 50.293203 33.831748 18.562281
2236 0 2 -1.050000 72.253732 35.515752 18.697794
2237 0 2 -1.050000 67.907059 32.445341 21.312249
2238 0 2 -1.050000 69.461684 40.946916 18.562281
2239 0 1 1.575000 74.344463 0.000000 1.657107
2240 0 1 1.575000 97.060827 32.192097 7.498159
2241 0 1 1.575000 78.474711 0.000000 7.498159
2242 0 1 1.575000 97.060827 39.345896 7.498159
2243 0 1 1.575000 99.125951 0.000000 10.418686
2244 0 1 1.575000 76.409587 39.345896 4.577633
2245 0 1 1.575000 94.995703 0.000000 4.577633
2246 0 1 1.575000 76.409587 32.192097 4.577633
2247 0 1 1.575000 98.986762 39.586979 1.460263
2248 0 1 1.575000 93.069768 42.681713 1.853950
2249 0 1 1.575000 76.548777 42.681713 4.774476
2250 0 1 1.575000 98.986762 39.586979 10.221842
2251 0 1 1.575000 77.302960 30.162564 1.460263
2252 0 1 1.575000 77.581339 37.798529 1.853950
2253 0 1 1.575000 98.232578 30.644730 4.774476
2254 0 1 1.575000 77.302960 30.162564 10.221842
2255 0 1 1.575000 96.306644 30.403647 1.460263
2256 0 1 1.575000 77.163770 33.980547 1.853950
2257 0 1 1.575000 97.815010 41.134346 4.774476
2258 0 1 1.575000 96.306644 30.403647 10.221842
2259 0 1 1.575000 95.134892 39.104813 4.774476
2260 0 1 1.575000 76.270398 36.010080 4.380790
2261 0 1 1.575000 96.921638 28.856280 7.301316
2262 0 1 1.575000 74.483653 31.951014 1.853950
2263 0 1 1.575000 79.646462 41.375429 4.774476
2264 0 1 1.575000 79.368084 33.739464 4.380790
2265 0 1 1.575000 75.237836 40.893263 7.301316
2266 0 1 1.575000 96.167454 41.375429 1.853950
2267 0 1 1.575000 97.815010 33.980547 4.774476
2268 0 1 1.575000 92.176396 30.403647 4.380790
2269 0 1 1.575000 75.655404 30.403647 7.301316
2270 0 1 1.575000 77.163770 41.134346 1.853950
2271 0 2 -1.050000 98.249512 41.238791 2.688637
2272 0 2 -1.050000 95.796145 33.876101 7.980630
2273 0 2 -1.050000 78.573011 28.951426 5.366175
2274 0 2 -1.050000 99.103648 39.009668 8.116143
2275 0 2 -1.050000 76.241073 28.698181 2.688637
2276 0 2 -1.050000 96.234777 37.408647 7.980630
2277 0 2 -1.050000 96.720495 32.109113 5.366175
2278 0 2 -1.050000 77.744483 30.552446 8.116143
2279 0 2 -1.050000 98.105780 30.216218 2.688637
2280 0 2 -1.050000 80.565443 28.868442 7.980630
2281 0 2 -1.050000 97.302859 39.092652 5.366175
2282 0 2 -1.050000 95.748234 30.591077 8.116143
2283 0 2 -1.050000 98.249512 41.238791 11.450216
2284 0 2 -1.050000 75.144905 41.029901 5.060104
2285 0 2 -1.050000 95.094003 28.951426 2.445649
2286 0 2 -1.050000 78.452408 31.855868 5.195616
2287 0 2 -1.050000 76.241073 28.698181 11.450216
2288 0 2 -1.050000 75.583538 30.254848 5.060104
2289 0 2 -1.050000 76.069255 39.262912 2.445649
2290 0 2 -1.050000 94.265475 30.552446 5.195616
2291 0 2 -1.050000 98.105780 30.216218 11.450216
2292 0 2 -1.050000 97.086434 28.868442 5.060104
2293 0 2 -1.050000 76.651620 31.938852 2.445649
2294 0 2 -1.050000 75.096994 37.744876 5.195616
2295 0 2 -1.050000 75.220902 30.299202 9.387156
2296 0 2 -1.050000 77.674269 37.661892 4.095162
2297 0 2 -1.050000 94.897403 42.586567 6.709617
2298 0 2 -1.050000 74.366767 32.528325 3.959650
2299 0 2 -1.050000 97.229341 42.839812 9.387156
2300 0 2 -1.050000 77.235637 34.129346 4.095162
2301 0 2 -1.050000 76.749920 39.428880 6.709617
2302 0 2 -1.050000 95.725931 40.985547 3.959650
2303 0 2 -1.050000 75.364634 41.321776 9.387156
2304 0 2 -1.050000 92.904971 42.669551 4.095162
2305 0 2 -1.050000 76.167555 32.445341 6.709617
2306 0 2 -1.050000 77.722180 40.946916 3.959650
2307 0 2 -1.050000 75.220902 30.299202 0.625577
2308 0 2 -1.050000 98.325509 30.508093 7.015688
2309 0 2 -1.050000 78.376411 42.586567 9.630144
2310 0 2 -1.050000 95.018006 39.682125 6.880176
2311 0 2 -1.050000 97.229341 42.839812 0.625577
2312 0 2 -1.050000 97.886877 41.283145 7.015688
2313 0 2 -1.050000 97.401159 32.275081 9.630144
2314 0 2 -1.050000 79.204939 40.985547 6.880176
2315 0 2 -1.050000 75.364634 41.321776 0.625577
2316 0 2 -1.050000 76.383980 42.669551 7.015688
2317 0 2 -1.050000 96.818794 39.599141 9.630144
2318 0 2 -1.050000 98.373420 33.793117 6.880176
2319 0 1 1.575000 86.735207 35.768997 1.657107
2320 0 1 1.575000 84.670083 39.345896 7.498159
2321 0 1 1.575000 90.865455 35.768997 7.498159
2322 0 1 1.575000 84.670083 32.192097 7.498159
2323 0 1 1.575000 86.735207 35.768997 10.418686
2324 0 1 1.575000 88.800331 32.192097 4.577633
2325 0 1 1.575000 82.604959 35.768997 4.577633
2326 0 1 1.575000 88.800331 39.345896 4.577633
2327 0 1 1.575000 86.596018 32.433180 1.460263
2328 0 1 1.575000 80.679024 35.527913 1.853950
2329 0 1 1.575000 88.939520 35.527913 4.774476
2330 0 1 1.575000 86.596018 32.433180 10.221842
2331 0 1 1.575000 89.693704 37.316363 1.460263
2332 0 1 1.575000 89.972082 30.644730 1.853950
2333 0 1 1.575000 85.841834 37.798529 4.774476
2334 0 1 1.575000 89.693704 37.316363 10.221842
2335 0 1 1.575000 83.915900 37.557446 1.460263
2336 0 1 1.575000 89.554514 41.134346 1.853950
2337 0 1 1.575000 85.424266 33.980547 4.774476
2338 0 1 1.575000 83.915900 37.557446 10.221842
2339 0 1 1.575000 82.744148 31.951014 4.774476
2340 0 1 1.575000 88.661142 28.856280 4.380790
2341 0 1 1.575000 84.530894 36.010080 7.301316
2342 0 1 1.575000 86.874396 39.104813 1.853950
2343 0 1 1.575000 92.037206 34.221630 4.774476
2344 0 1 1.575000 91.758828 40.893263 4.380790
2345 0 1 1.575000 87.628580 33.739464 7.301316
2346 0 1 1.575000 83.776710 34.221630 1.853950
2347 0 1 1.575000 85.424266 41.134346 4.774476
2348 0 1 1.575000 79.785652 37.557446 4.380790
2349 0 1 1.575000 88.046148 37.557446 7.301316
2350 0 1 1.575000 89.554514 33.980547 1.853950
2351 0 2 -1.050000 85.858768 34.084992 2.688637
2352 0 2 -1.050000 83.405401 41.029901 7.980630
2353 0 2 -1.050000 90.963755 36.105225 5.366175
2354 0 2 -1.050000 86.712904 31.855868 8.116143
2355 0 2 -1.050000 88.631817 35.851981 2.688637
2356 0 2 -1.050000 83.844033 30.254848 7.980630
2357 0 2 -1.050000 84.329751 39.262912 5.366175
2358 0 2 -1.050000 90.135227 37.706245 8.116143
2359 0 2 -1.050000 85.715036 37.370017 2.688637
2360 0 2 -1.050000 92.956187 36.022241 7.980630
2361 0 2 -1.050000 84.912116 31.938852 5.366175
2362 0 2 -1.050000 83.357490 37.744876 8.116143
2363 0 2 -1.050000 85.858768 34.084992 11.450216
2364 0 2 -1.050000 87.535649 33.876101 5.060104
2365 0 2 -1.050000 82.703259 36.105225 2.445649
2366 0 2 -1.050000 90.843152 39.009668 5.195616
2367 0 2 -1.050000 88.631817 35.851981 11.450216
2368 0 2 -1.050000 87.974281 37.408647 5.060104
2369 0 2 -1.050000 88.459999 32.109113 2.445649
2370 0 2 -1.050000 81.874731 37.706245 5.195616
2371 0 2 -1.050000 85.715036 37.370017 11.450216
2372 0 2 -1.050000 84.695691 36.022241 5.060104
2373 0 2 -1.050000 89.042364 39.092652 2.445649
2374 0 2 -1.050000 87.487738 30.591077 5.195616
2375 0 2 -1.050000 87.611646 37.453001 9.387156
2376 0 2 -1.050000 90.065013 30.508093 4.095162
2377 0 2 -1.050000 82.506659 35.432768 6.709617
2378 0 2 -1.050000 86.757510 39.682125 3.959650
2379 0 2 -1.050000 84.838597 35.686012 9.387156
2380 0 2 -1.050000 89.626381 41.283145 4.095162
2381 0 2 -1.050000 89.140663 32.275081 6.709617
2382 0 2 -1.050000 83.335187 33.831748 3.959650
2383 0 2 -1.050000 87.755378 34.167976 9.387156
2384 0 2 -1.050000 80.514228 35.515752 4.095162
2385 0 2 -1.050000 88.558298 39.599141 6.709617
2386 0 2 -1.050000 90.112924 33.793117 3.959650
2387 0 2 -1.050000 87.611646 37.453001 0.625577
2388 0 2 -1.050000 85.934765 37.661892 7.015688
2389 0 2 -1.050000 90.767155 35.432768 9.630144
2390 0 2 -1.050000 82.627262 32.528325 6.880176
2391 0 2 -1.050000 84.838597 35.686012 0.625577
2392 0 2 -1.050000 85.496133 34.129346 7.015688
2393 0 2 -1.050000 85.010416 39.428880 9.630144
2394 0 2 -1.050000 91.595683 33.831748 6.880176
2395 0 2 -1.050000 87.755378 34.167976 0.625577
2396 0 2 -1.050000 88.774723 35.515752 7.015688
2397 0 2 -1.050000 84.428051 32.445341 9.630144
2398 0 2 -1.050000 85.982676 40.946916 6.880176
2399 0 1 1.575000 78.474711 35.768997 7.498159
2400 0 1 1.575000 76.409587 39.345896 13.339212
2401 0 1 1.575000 82.604959 35.768997 13.339212
2402 0 1 1.575000 76.409587 32.192097 13.339212
2403 0 1 1.575000 80.539835 32.192097 10.418686
2404 0 1 1.575000 99.125951 35.768997 10.418686
2405 0 1 1.575000 80.539835 39.345896 10.418686
2406 0 1 1.575000 78.335522 32.433180 7.301316
2407 0 1 1.575000 97.200016 35.527913 7.695003
2408 0 1 1.575000 80.679024 35.527913 10.615529
2409 0 1 1.575000 81.433208 37.316363 7.301316
2410 0 1 1.575000 81.711586 30.644730 7.695003
2411 0 1 1.575000 77.581339 37.798529 10.615529
2412 0 1 1.575000 75.655404 37.557446 7.301316
2413 0 1 1.575000 81.294018 41.134346 7.695003
2414 0 1 1.575000 77.163770 33.980547 10.615529
2415 0 1 1.575000 74.483653 31.951014 10.615529
2416 0 1 1.575000 80.400646 28.856280 10.221842
2417 0 1 1.575000 76.270398 36.010080 13.142369
2418 0 1 1.575000 78.613900 39.104813 7.695003
2419 0 1 1.575000 83.776710 34.221630 10.615529
2420 0 1 1.575000 83.498332 40.893263 10.221842
2421 0 1 1.575000 79.368084 33.739464 13.142369
2422 0 1 1.575000 75.516215 34.221630 7.695003
2423 0 1 1.575000 77.163770 41.134346 10.615529
2424 0 1 1.575000 96.306644 37.557446 10.221842
2425 0 1 1.575000 79.785652 37.557446 13.142369
2426 0 1 1.575000 81.294018 33.980547 7.695003
2427 0 2 -1.050000 77.598273 34.084992 8.529689
2428 0 2 -1.050000 75.144905 41.029901 13.821683
2429 0 2 -1.050000 82.703259 36.105225 11.207228
2430 0 2 -1.050000 78.452408 31.855868 13.957195
2431 0 2 -1.050000 80.371321 35.851981 8.529689
2432 0 2 -1.050000 75.583538 30.254848 13.821683
2433 0 2 -1.050000 76.069255 39.262912 11.207228
2434 0 2 -1.050000 81.874731 37.706245 13.957195
2435 0 2 -1.050000 77.454540 37.370017 8.529689
2436 0 2 -1.050000 84.695691 36.022241 13.821683
2437 0 2 -1.050000 76.651620 31.938852 11.207228
2438 0 2 -1.050000 75.096994 37.744876 13.957195
2439 0 2 -1.050000 79.275153 33.876101 10.901157
2440 0 2 -1.050000 74.442763 36.105225 8.286701
2441 0 2 -1.050000 82.582656 39.009668 11.036669
2442 0 2 -1.050000 79.713786 37.408647 10.901157
2443 0 2 -1.050000 80.199503 32.109113 8.286701
2444 0 2 -1.050000 98.395723 37.706245 11.036669
2445 0 2 -1.050000 76.435195 36.022241 10.901157
2446 0 2 -1.050000 80.781868 39.092652 8.286701
2447 0 2 -1.050000 79.227242 30.591077 11.036669
2448 0 2 -1.050000 81.804517 30.508093 9.936215
2449 0 2 -1.050000 99.027651 35.432768 12.550670
2450 0 2 -1.050000 78.497014 39.682125 9.800702
2451 0 2 -1.050000 81.365885 41.283145 9.936215
2452 0 2 -1.050000 80.880168 32.275081 12.550670
2453 0 2 -1.050000 75.074691 33.831748 9.800702
2454 0 2 -1.050000 97.035219 35.515752 9.936215
2455 0 2 -1.050000 80.297803 39.599141 12.550670
2456 0 2 -1.050000 81.852428 33.793117 9.800702
2457 0 2 -1.050000 79.351150 37.453001 6.466629
2458 0 2 -1.050000 77.674269 37.661892 12.856741
2459 0 2 -1.050000 74.366767 32.528325 12.721229
2460 0 2 -1.050000 76.578101 35.686012 6.466629
2461 0 2 -1.050000 77.235637 34.129346 12.856741
2462 0 2 -1.050000 83.335187 33.831748 12.721229
2463 0 2 -1.050000 79.494882 34.167976 6.466629
2464 0 2 -1.050000 80.514228 35.515752 12.856741
2465 0 2 -1.050000 77.722180 40.946916 12.721229
2466 0 1 1.575000 90.865455 0.000000 7.498159
2467 0 1 1.575000 88.800331 32.192097 13.339212
2468 0 1 1.575000 94.995703 0.000000 13.339212
2469 0 1 1.575000 88.800331 39.345896 13.339212
2470 0 1 1.575000 92.930579 39.345896 10.418686
2471 0 1 1.575000 86.735207 0.000000 10.418686
2472 0 1 1.575000 92.930579 32.192097 10.418686
2473 0 1 1.575000 90.726266 39.586979 7.301316
2474 0 1 1.575000 84.809272 42.681713 7.695003
2475 0 1 1.575000 93.069768 42.681713 10.615529
2476 0 1 1.575000 93.823952 30.162564 7.301316
2477 0 1 1.575000 94.102330 37.798529 7.695003
2478 0 1 1.575000 89.972082 30.644730 10.615529
2479 0 1 1.575000 88.046148 30.403647 7.301316
2480 0 1 1.575000 93.684762 33.980547 7.695003
2481 0 1 1.575000 89.554514 41.134346 10.615529
2482 0 1 1.575000 86.874396 39.104813 10.615529
2483 0 1 1.575000 92.791390 36.010080 10.221842
2484 0 1 1.575000 88.661142 28.856280 13.142369
2485 0 1 1.575000 91.004644 31.951014 7.695003
2486 0 1 1.575000 96.167454 41.375429 10.615529
2487 0 1 1.575000 95.889076 33.739464 10.221842
2488 0 1 1.575000 91.758828 40.893263 13.142369
2489 0 1 1.575000 87.906958 41.375429 7.695003
2490 0 1 1.575000 89.554514 33.980547 10.615529
2491 0 1 1.575000 83.915900 30.403647 10.221842
2492 0 1 1.575000 92.176396 30.403647 13.142369
2493 0 1 1.575000 93.684762 41.134346 7.695003
2494 0 2 -1.050000 89.989016 41.238791 8.529689
2495 0 2 -1.050000 87.535649 33.876101 13.821683
2496 0 2 -1.050000 95.094003 28.951426 11.207228
2497 0 2 -1.050000 90.843152 39.009668 13.957195
2498 0 2 -1.050000 92.762065 28.698181 8.529689
2499 0 2 -1.050000 87.974281 37.408647 13.821683
2500 0 2 -1.050000 88.459999 32.109113 11.207228
2501 0 2 -1.050000 94.265475 30.552446 13.957195
2502 0 2 -1.050000 89.845284 30.216218 8.529689
2503 0 2 -1.050000 97.086434 28.868442 13.821683
2504 0 2 -1.050000 89.042364 39.092652 11.207228
2505 0 2 -1.050000 87.487738 30.591077 13.957195
2506 0 2 -1.050000 91.665897 41.029901 10.901157
2507 0 2 -1.050000 86.833507 28.951426 8.286701
2508 0 2 -1.050000 94.973400 31.855868 11.036669
2509 0 2 -1.050000 92.104529 30.254848 10.901157
2510 0 2 -1.050000 92.590247 39.262912 8.286701
2511 0 2 -1.050000 86.004979 30.552446 11.036669
2512 0 2 -1.050000 88.825939 28.868442 10.901157
2513 0 2 -1.050000 93.172612 31.938852 8.286701
2514 0 2 -1.050000 91.617986 37.744876 11.036669
2515 0 2 -1.050000 94.195261 37.661892 9.936215
2516 0 2 -1.050000 86.636907 42.586567 12.550670
2517 0 2 -1.050000 90.887758 32.528325 9.800702
2518 0 2 -1.050000 93.756629 34.129346 9.936215
2519 0 2 -1.050000 93.270911 39.428880 12.550670
2520 0 2 -1.050000 87.465435 40.985547 9.800702
2521 0 2 -1.050000 84.644476 42.669551 9.936215
2522 0 2 -1.050000 92.688546 32.445341 12.550670
2523 0 2 -1.050000 94.243172 40.946916 9.800702
2524 0 2 -1.050000 91.741894 30.299202 6.466629
2525 0 2 -1.050000 90.065013 30.508093 12.856741
2526 0 2 -1.050000 86.757510 39.682125 12.721229
2527 0 2 -1.050000 88.968845 42.839812 6.466629
2528 0 2 -1.050000 89.626381 41.283145 12.856741
2529 0 2 -1.050000 95.725931 40.985547 12.721229
2530 0 2 -1.050000 91.885626 41.321776 6.466629
2531 0 2 -1.050000 92.904971 42.669551 12.856741
2532 0 2 -1.050000 90.112924 33.793117 12.721229
2533 0 1 1.575000 82.604959 0.000000 13.339212
2534 0 1 1.575000 80.539835 32.192097 1.657107
2535 0 1 1.575000 86.735207 0.000000 1.657107
2536 0 1 1.575000 80.539835 39.345896 1.657107
2537 0 1 1.575000 82.604959 0.000000 4.577633
2538 0 1 1.575000 82.465770 39.586979 13.142369
2539 0 1 1.575000 76.548777 42.681713 13.536055
2540 0 1 1.575000 82.465770 39.586979 4.380790
2541 0 1 1.575000 85.563456 30.162564 13.142369
2542 0 1 1.575000 85.841834 37.798529 13.536055
2543 0 1 1.575000 85.563456 30.162564 4.380790
2544 0 1 1.575000 79.785652 30.403647 13.142369
2545 0 1 1.575000 85.424266 33.980547 13.536055
2546 0 1 1.575000 79.785652 30.403647 4.380790
2547 0 1 1.575000 80.400646 28.856280 1.460263
2548 0 1 1.575000 82.744148 31.951014 13.536055
2549 0 1 1.575000 83.498332 40.893263 1.460263
2550 0 1 1.575000 79.646462 41.375429 13.536055
2551 0 1 1.575000 83.915900 30.403647 1.460263
2552 0 1 1.575000 85.424266 41.134346 13.536055
2553 0 2 -1.050000 81.728520 41.238791 14.370742
2554 0 2 -1.050000 79.275153 33.876101 2.139578
2555 0 2 -1.050000 82.582656 39.009668 2.275090
2556 0 2 -1.050000 84.501569 28.698181 14.370742
2557 0 2 -1.050000 79.713786 37.408647 2.139578
2558 0 2 -1.050000 86.004979 30.552446 2.275090
2559 0 2 -1.050000 81.584788 30.216218 14.370742
2560 0 2 -1.050000 88.825939 28.868442 2.139578
2561 0 2 -1.050000 79.227242 30.591077 2.275090
2562 0 2 -1.050000 81.728520 41.238791 5.609163
2563 0 2 -1.050000 78.573011 28.951426 14.127754
2564 0 2 -1.050000 84.501569 28.698181 5.609163
2565 0 2 -1.050000 84.329751 39.262912 14.127754
2566 0 2 -1.050000 81.584788 30.216218 5.609163
2567 0 2 -1.050000 84.912116 31.938852 14.127754
2568 0 2 -1.050000 83.481398 30.299202 3.546103
2569 0 2 -1.050000 78.376411 42.586567 0.868565
2570 0 2 -1.050000 80.708349 42.839812 3.546103
2571 0 2 -1.050000 85.010416 39.428880 0.868565
2572 0 2 -1.050000 83.625130 41.321776 3.546103
2573 0 2 -1.050000 84.428051 32.445341 0.868565
2574 0 2 -1.050000 83.481398 30.299202 12.307682
2575 0 2 -1.050000 81.804517 30.508093 1.174636
2576 0 2 -1.050000 86.636907 42.586567 3.789091
2577 0 2 -1.050000 78.497014 39.682125 1.039123
2578 0 2 -1.050000 80.708349 42.839812 12.307682
2579 0 2 -1.050000 81.365885 41.283145 1.174636
2580 0 2 -1.050000 80.880168 32.275081 3.789091
2581 0 2 -1.050000 87.465435 40.985547 1.039123
2582 0 2 -1.050000 83.625130 41.321776 12.307682
2583 0 2 -1.050000 84.644476 42.669551 1.174636
2584 0 2 -1.050000 80.297803 39.599141 3.789091
2585 0 2 -1.050000 81.852428 33.793117 1.039123
2586 0 1 1.575000 94.995703 35.768997 13.339212
2587 0 1 1.575000 92.930579 39.345896 1.657107
2588 0 1 1.575000 99.125951 35.768997 1.657107
2589 0 1 1.575000 92.930579 32.192097 1.657107
2590 0 1 1.575000 94.995703 35.768997 4.577633
2591 0 1 1.575000 94.856514 32.433180 13.142369
2592 0 1 1.575000 88.939520 35.527913 13.536055
2593 0 1 1.575000 94.856514 32.433180 4.380790
2594 0 1 1.575000 97.954200 37.316363 13.142369
2595 0 1 1.575000 98.232578 30.644730 13.536055
2596 0 1 1.575000 97.954200 37.316363 4.380790
2597 0 1 1.575000 92.176396 37.557446 13.142369
2598 0 1 1.575000 97.815010 41.134346 13.536055
2599 0 1 1.575000 92.176396 37.557446 4.380790
2600 0 1 1.575000 92.791390 36.010080 1.460263
2601 0 1 1.575000 95.134892 39.104813 13.536055
2602 0 1 1.575000 95.889076 33.739464 1.460263
2603 0 1 1.575000 92.037206 34.221630 13.536055
2604 0 1 1.575000 96.306644 37.557446 1.460263
2605 0 1 1.575000 97.815010 33.980547 13.536055
2606 0 2 -1.050000 94.119264 34.084992 14.370742
2607 0 2 -1.050000 91.665897 41.029901 2.139578
2608 0 2 -1.050000 94.973400 31.855868 2.275090
2609 0 2 -1.050000 96.892313 35.851981 14.370742
2610 0 2 -1.050000 92.104529 30.254848 2.139578
2611 0 2 -1.050000 98.395723 37.706245 2.275090
2612 0 2 -1.050000 93.975532 37.370017 14.370742
2613 0 2 -1.050000 76.435195 36.022241 2.139578
2614 0 2 -1.050000 91.617986 37.744876 2.275090
2615 0 2 -1.050000 94.119264 34.084992 5.609163
2616 0 2 -1.050000 90.963755 36.105225 14.127754
2617 0 2 -1.050000 96.892313 35.851981 5.609163
2618 0 2 -1.050000 96.720495 32.109113 14.127754
2619 0 2 -1.050000 93.975532 37.370017 5.609163
2620 0 2 -1.050000 97.302859 39.092652 14.127754
2621 0 2 -1.050000 95.872142 37.453001 3.546103
2622 0 2 -1.050000 90.767155 35.432768 0.868565
2623 0 2 -1.050000 93.099093 35.686012 3.546103
2624 0 2 -1.050000 97.401159 32.275081 0.868565
2625 0 2 -1.050000 96.015874 34.167976 3.546103
2626 0 2 -1.050000 96.818794 39.599141 0.868565
2627 0 2 -1.050000 95.872142 37.453001 12.307682
2628 0 2 -1.050000 94.195261 37.661892 1.174636
2629 0 2 -1.050000 99.027651 35.432768 3.789091
2630 0 2 -1.050000 90.887758 32.528325 1.039123
2631 0 2 -1.050000 93.099093 35.686012 12.307682
2632 0 2 -1.050000 93.756629 34.129346 1.174636
2633 0 2 -1.050000 93.270911 39.428880 3.789091
2634 0 2 -1.050000 75.074691 33.831748 1.039123
2635 0 2 -1.050000 96.015874 34.167976 12.307682
2636 0 2 -1.050000 97.035219 35.515752 1.174636
2637 0 2 -1.050000 92.688546 32.445341 3.789091
2638 0 2 -1.050000 94.243172 40.946916 1.039123
2639 0 1 1.575000 74.344463 0.000000 19.180265
2640 0 1 1.575000 97.060827 32.192097 25.021317
2641 0 1 1.575000 78.474711 0.000000 25.021317
2642 0 1 1.575000 97.060827 39.345896 25.021317
2643 0 1 1.575000 99.125951 0.000000 27.941844
2644 0 1 1.575000 76.409587 39.345896 22.100791
2645 0 1 1.575000 94.995703 0.000000 22.100791
2646 0 1 1.575000 76.409587 32.192097 22.100791
2647 0 1 1.575000 98.986762 39.586979 18.983421
2648 0 1 1.575000 93.069768 42.681713 19.377108
2649 0 1 1.575000 76.548777 42.681713 22.297634
2650 0 1 1.575000 98.986762 39.586979 27.745000
2651 0 1 1.575000 77.302960 30.162564 18.983421
2652 0 1 1.575000 77.581339 37.798529 19.377108
2653 0 1 1.575000 98.232578 30.644730 22.297634
2654 0 1 1.575000 96.306644 30.403647 18.983421
2655 0 1 1.575000 77.163770 33.980547 19.377108
2656 0 1 1.575000 97.815010 41.134346 22.297634
2657 0 1 1.575000 95.134892 39.104813 22.297634
2658 0 1 1.575000 76.270398 36.010080 21.903948
2659 0 1 1.575000 74.483653 31.951014 19.377108
2660 0 1 1.575000 79.646462 41.375429 22.297634
2661 0 1 1.575000 79.368084 33.739464 21.903948
2662 0 1 1.575000 75.237836 40.893263 24.824474
2663 0 1 1.575000 96.167454 41.375429 19.377108
2664 0 1 1.575000 97.815010 33.980547 22.297634
2665 0 1 1.575000 92.176396 30.403647 21.903948
2666 0 1 1.575000 77.163770 41.134346 19.377108
2667 0 2 -1.050000 98.249512 41.238791 20.211795
2668 0 2 -1.050000 95.796145 33.876101 25.503788
2669 0 2 -1.050000 99.103648 39.009668 25.639301
2670 0 2 -1.050000 76.241073 28.698181 20.211795
2671 0 2 -1.050000 96.234777 37.408647 25.503788
2672 0 2 -1.050000 96.720495 32.109113 22.889333
2673 0 2 -1.050000 98.105780 30.216218 20.211795
2674 0 2 -1.050000 97.302859 39.092652 22.889333
2675 0 2 -1.050000 98.249512 41.238791 28.973374
2676 0 2 -1.050000 75.144905 41.029901 22.583262
2677 0 2 -1.050000 95.094003 28.951426 19.968807
2678 0 2 -1.050000 78.452408 31.855868 22.718774
2679 0 3 -0.950000 75.583538 30.254848 22.583262
2680 0 2 -1.050000 76.069255 39.262912 19.968807
2681 0 3 -0.950000 94.265475 30.552446 22.718774
2682 0 2 -1.050000 76.651620 31.938852 19.968807
2683 0 2 -1.050000 75.096994 37.744876 22.718774
2684 0 2 -1.050000 77.674269 37.661892 21.618320
2685 0 2 -1.050000 94.897403 42.586567 24.232775
2686 0 2 -1.050000 74.366767 32.528325 21.482808
2687 0 2 -1.050000 97.229341 42.839812 26.910314
2688 0 2 -1.050000 77.235637 34.129346 21.618320
2689 0 2 -1.050000 76.749920 39.428880 24.232775
2690 0 2 -1.050000 95.725931 40.985547 21.482808
2691 0 2 -1.050000 75.364634 41.321776 26.910314
2692 0 2 -1.050000 92.904971 42.669551 21.618320
2693 0 2 -1.050000 76.167555 32.445341 24.232775
2694 0 2 -1.050000 77.722180 40.946916 21.482808
2695 0 2 -1.050000 75.220902 30.299202 18.148735
2696 0 2 -1.050000 78.376411 42.586567 27.153302
2697 0 2 -1.050000 95.018006 39.682125 24.403334
2698 0 2 -1.050000 97.229341 42.839812 18.148735
2699 0 2 -1.050000 97.886877 41.283145 24.538846
2700 0 2 -1.050000 79.204939 40.985547 24.403334
2701 0 2 -1.050000 75.364634 41.321776 18.148735
2702 0 2 -1.050000 76.383980 42.669551 24.538846
2703 0 2 -1.050000 96.818794 39.599141 27.153302
2704 0 2 -1.050000 98.373420 33.793117 24.403334
2705 0 1 1.575000 86.735207 35.768997 19.180265
2706 0 1 1.575000 84.670083 39.345896 25.021317
2707 0 1 1.575000 90.865455 35.768997 25.021317
2708 0 1 1.575000 84.670083 32.192097 25.021317
2709 0 1 1.575000 86.735207 35.768997 27.941844
2710 0 1 1.575000 88.800331 32.192097 22.100791
2711 0 1 1.575000 82.604959 35.768997 22.100791
2712 0 1 1.575000 88.800331 39.345896 22.100791
2713 0 1 1.575000 86.596018 32.433180 18.983421
2714 0 1 1.575000 80.679024 35.527913 19.377108
2715 0 1 1.575000 88.939520 35.527913 22.297634
2716 0 1 1.575000 89.693704 37.316363 18.983421
2717 0 1 1.575000 89.972082 30.644730 19.377108
2718 0 1 1.575000 85.841834 37.798529 22.297634
2719 0 1 1.575000 89.693704 37.316363 27.745000
2720 0 1 1.575000 83.915900 37.557446 18.983421
2721 0 1 1.575000 89.554514 41.134346 19.377108
2722 0 1 1.575000 85.424266 33.980547 22.297634
2723 0 1 1.575000 83.915900 37.557446 27.745000
2724 0 1 1.575000 82.744148 31.951014 22.297634
2725 0 1 1.575000 88.661142 28.856280 21.903948
2726 0 1 1.575000 84.530894 36.010080 24.824474
2727 0 1 1.575000 86.874396 39.104813 19.377108
2728 0 1 1.575000 92.037206 34.221630 22.297634
2729 0 1 1.575000 91.758828 40.893263 21.903948
2730 0 1 1.575000 87.628580 33.739464 24.824474
2731 0 1 1.575000 83.776710 34.221630 19.377108
2732 0 1 1.575000 85.424266 41.134346 22.297634
2733 0 1 1.575000 79.785652 37.557446 21.903948
2734 0 1 1.575000 88.046148 37.557446 24.824474
2735 0 1 1.575000 89.554514 33.980547 19.377108
2736 0 2 -1.050000 85.858768 34.084992 20.211795
2737 0 2 -1.050000 83.405401 41.029901 25.503788
2738 0 2 -1.050000 90.963755 36.105225 22.889333
2739 0 3 -0.950000 86.712904 31.855868 25.639301
2740 0 2 -1.050000 88.631817 35.851981 20.211795
2741 0 2 -1.050000 84.329751 39.262912 22.889333
2742 0 2 -1.050000 90.135227 37.706245 25.639301
2743 0 2 -1.050000 85.715036 37.370017 20.211795
2744 0 2 -1.050000 92.956187 36.022241 25.503788
2745 0 2 -1.050000 84.912116 31.938852 22.889333
2746 0 2 -1.050000 83.357490 37.744876 25.639301
2747 0 2 -1.050000 87.535649 33.876101 22.583262
2748 0 2 -1.050000 82.703259 36.105225 19.968807
2749 0 2 -1.050000 90.843152 39.009668 22.718774
2750 0 3 -0.950000 88.631817 35.851981 28.973374
2751 0 2 -1.050000 87.974281 37.408647 22.583262
2752 0 2 -1.050000 88.459999 32.109113 19.968807
2753 0 2 -1.050000 81.874731 37.706245 22.718774
2754 0 3 -0.950000 85.715036 37.370017 28.973374
2755 0 2 -1.050000 84.695691 36.022241 22.583262
2756 0 2 -1.050000 89.042364 39.092652 19.968807
2757 0 3 -0.950000 87.487738 30.591077 22.718774
2758 0 2 -1.050000 87.611646 37.453001 26.910314
2759 0 2 -1.050000 90.065013 30.508093 21.618320
2760 0 2 -1.050000 82.506659 35.432768 24.232775
2761 0 2 -1.050000 86.757510 39.682125 21.482808
2762 0 2 -1.050000 84.838597 35.686012 26.910314
2763 0 2 -1.050000 89.626381 41.283145 21.618320
2764 0 2 -1.050000 89.140663 32.275081 24.232775
2765 0 2 -1.050000 83.335187 33.831748 21.482808
2766 0 2 -1.050000 80.514228 35.515752 21.618320
2767 0 2 -1.050000 88.558298 39.599141 24.232775
2768 0 2 -1.050000 90.112924 33.793117 21.482808
2769 0 2 -1.050000 87.611646 37.453001 18.148735
2770 0 2 -1.050000 85.934765 37.661892 24.538846
2771 0 3 -0.950000 90.767155 35.432768 27.153302
2772 0 2 -1.050000 82.627262 32.528325 24.403334
2773 0 2 -1.050000 84.838597 35.686012 18.148735
2774 0 2 -1.050000 85.496133 34.129346 24.538846
2775 0 2 -1.050000 85.010416 39.428880 27.153302
2776 0 2 -1.050000 91.595683 33.831748 24.403334
2777 0 2 -1.050000 87.755378 34.167976 18.148735
2778 0 2 -1.050000 88.774723 35.515752 24.538846
2779 0 2 -1.050000 85.982676 40.946916 24.403334
2780 0 1 1.575000 78.474711 35.768997 25.021317
2781 0 1 1.575000 78.474711 35.768997 16.259738
2782 0 1 1.575000 99.125951 35.768997 27.941844
2783 0 1 1.575000 80.539835 39.345896 27.941844
2784 0 1 1.575000 78.335522 32.433180 24.824474
2785 0 1 1.575000 97.200016 35.527913 25.218161
2786 0 1 1.575000 78.335522 32.433180 16.062895
2787 0 1 1.575000 81.433208 37.316363 24.824474
2788 0 1 1.575000 77.581339 37.798529 28.138687
2789 0 1 1.575000 81.433208 37.316363 16.062895
2790 0 1 1.575000 75.655404 37.557446 24.824474
2791 0 1 1.575000 81.294018 41.134346 25.218161
2792 0 1 1.575000 75.655404 37.557446 16.062895
2793 0 1 1.575000 78.613900 39.104813 25.218161
2794 0 1 1.575000 83.498332 40.893263 27.745000
2795 0 1 1.575000 75.516215 34.221630 25.218161
2796 0 1 1.575000 77.163770 41.134346 28.138687
2797 0 1 1.575000 96.306644 37.557446 27.745000
2798 0 1 1.575000 81.294018 33.980547 25.218161
2799 0 3 -0.950000 77.598273 34.084992 26.052847
2800 0 3 -0.950000 80.371321 35.851981 26.052847
2801 0 3 -0.950000 76.069255 39.262912 28.730386
2802 0 2 -1.050000 77.454540 37.370017 26.052847
2803 0 2 -1.050000 77.598273 34.084992 17.291268
2804 0 2 -1.050000 74.442763 36.105225 25.809859
2805 0 3 -0.950000 82.582656 39.009668 28.559827
2806 0 2 -1.050000 80.371321 35.851981 17.291268
2807 0 3 -0.950000 79.713786 37.408647 28.424315
2808 0 3 -0.950000 80.199503 32.109113 25.809859
2809 0 3 -0.950000 98.395723 37.706245 28.559827
2810 0 2 -1.050000 77.454540 37.370017 17.291268
2811 0 3 -0.950000 76.435195 36.022241 28.424315
2812 0 2 -1.050000 80.781868 39.092652 25.809859
2813 0 2 -1.050000 79.351150 37.453001 15.228208
2814 0 2 -1.050000 78.497014 39.682125 27.323860
2815 0 2 -1.050000 76.578101 35.686012 15.228208
2816 0 2 -1.050000 81.365885 41.283145 27.459373
2817 0 2 -1.050000 79.494882 34.167976 15.228208
2818 0 2 -1.050000 97.035219 35.515752 27.459373
2819 0 2 -1.050000 79.351150 37.453001 23.989787
2820 0 2 -1.050000 82.506659 35.432768 15.471196
2821 0 2 -1.050000 76.578101 35.686012 23.989787
2822 0 2 -1.050000 76.749920 39.428880 15.471196
2823 0 2 -1.050000 79.494882 34.167976 23.989787
2824 0 2 -1.050000 76.167555 32.445341 15.471196
2825 0 1 1.575000 90.865455 0.000000 25.021317
2826 0 1 1.575000 90.865455 0.000000 16.259738
2827 0 1 1.575000 92.930579 39.345896 27.941844
2828 0 1 1.575000 86.735207 0.000000 27.941844
2829 0 1 1.575000 90.726266 39.586979 24.824474
2830 0 1 1.575000 84.809272 42.681713 25.218161
2831 0 1 1.575000 93.069768 42.681713 28.138687
2832 0 1 1.575000 90.726266 39.586979 16.062895
2833 0 1 1.575000 94.102330 37.798529 25.218161
2834 0 1 1.575000 93.823952 30.162564 16.062895
2835 0 1 1.575000 93.684762 33.980547 25.218161
2836 0 1 1.575000 89.554514 41.134346 28.138687
2837 0 1 1.575000 88.046148 30.403647 16.062895
2838 0 1 1.575000 86.874396 39.104813 28.138687
2839 0 1 1.575000 92.791390 36.010080 27.745000
2840 0 1 1.575000 91.004644 31.951014 25.218161
2841 0 1 1.575000 96.167454 41.375429 28.138687
2842 0 1 1.575000 87.906958 41.375429 25.218161
2843 0 1 1.575000 93.684762 41.134346 25.218161
2844 0 2 -1.050000 89.989016 41.238791 26.052847
2845 0 3 -0.950000 89.042364 39.092652 28.730386
2846 0 2 -1.050000 89.989016 41.238791 17.291268
2847 0 2 -1.050000 91.665897 41.029901 28.424315
2848 0 2 -1.050000 92.762065 28.698181 17.291268
2849 0 2 -1.050000 92.590247 39.262912 25.809859
2850 0 2 -1.050000 89.845284 30.216218 17.291268
2851 0 3 -0.950000 93.172612 31.938852 25.809859
2852 0 3 -0.950000 91.617986 37.744876 28.559827
2853 0 2 -1.050000 91.741894 30.299202 15.228208
2854 0 2 -1.050000 94.195261 37.661892 27.459373
2855 0 2 -1.050000 88.968845 42.839812 15.228208
2856 0 2 -1.050000 87.465435 40.985547 27.323860
2857 0 2 -1.050000 91.885626 41.321776 15.228208
2858 0 2 -1.050000 84.644476 42.669551 27.459373
2859 0 2 -1.050000 94.243172 40.946916 27.323860
2860 0 2 -1.050000 94.897403 42.586567 15.471196
2861 0 2 -1.050000 88.968845 42.839812 23.989787
2862 0 2 -1.050000 89.140663 32.275081 15.471196
2863 0 2 -1.050000 91.885626 41.321776 23.989787
2864 0 2 -1.050000 88.558298 39.599141 15.471196
2865 0 1 1.575000 80.539835 32.192097 19.180265
2866 0 1 1.575000 86.735207 0.000000 19.180265
2867 0 1 1.575000 80.539835 39.345896 19.180265
2868 0 1 1.575000 82.604959 0.000000 22.100791
2869 0 1 1.575000 84.670083 39.345896 16.259738
2870 0 1 1.575000 78.474711 0.000000 16.259738
2871 0 1 1.575000 84.670083 32.192097 16.259738
2872 0 1 1.575000 84.809272 42.681713 16.456582
2873 0 1 1.575000 82.465770 39.586979 21.903948
2874 0 1 1.575000 81.711586 30.644730 16.456582
2875 0 1 1.575000 85.563456 30.162564 21.903948
2876 0 1 1.575000 81.294018 41.134346 16.456582
2877 0 1 1.575000 79.785652 30.403647 21.903948
2878 0 1 1.575000 78.613900 39.104813 16.456582
2879 0 1 1.575000 84.530894 36.010080 16.062895
2880 0 1 1.575000 80.400646 28.856280 18.983421
2881 0 1 1.575000 87.906958 41.375429 16.456582
2882 0 1 1.575000 87.628580 33.739464 16.062895
2883 0 1 1.575000 83.498332 40.893263 18.983421
2884 0 1 1.575000 81.294018 33.980547 16.456582
2885 0 1 1.575000 75.655404 30.403647 16.062895
2886 0 1 1.575000 83.915900 30.403647 18.983421
2887 0 2 -1.050000 79.275153 33.876101 19.662736
2888 0 2 -1.050000 86.833507 28.951426 17.048280
2889 0 2 -1.050000 82.582656 39.009668 19.798248
2890 0 2 -1.050000 79.713786 37.408647 19.662736
2891 0 2 -1.050000 80.199503 32.109113 17.048280
2892 0 2 -1.050000 86.004979 30.552446 19.798248
2893 0 2 -1.050000 88.825939 28.868442 19.662736
2894 0 2 -1.050000 80.781868 39.092652 17.048280
2895 0 2 -1.050000 79.227242 30.591077 19.798248
2896 0 2 -1.050000 81.728520 41.238791 23.132321
2897 0 2 -1.050000 83.405401 41.029901 16.742209
2898 0 2 -1.050000 86.712904 31.855868 16.877722
2899 0 2 -1.050000 83.844033 30.254848 16.742209
2900 0 2 -1.050000 77.744483 30.552446 16.877722
2901 0 3 -0.950000 81.584788 30.216218 23.132321
2902 0 2 -1.050000 80.565443 28.868442 16.742209
2903 0 2 -1.050000 83.357490 37.744876 16.877722
2904 0 2 -1.050000 83.481398 30.299202 21.069261
2905 0 2 -1.050000 85.934765 37.661892 15.777267
2906 0 2 -1.050000 78.376411 42.586567 18.391723
2907 0 2 -1.050000 82.627262 32.528325 15.641755
2908 0 2 -1.050000 80.708349 42.839812 21.069261
2909 0 2 -1.050000 85.496133 34.129346 15.777267
2910 0 2 -1.050000 85.010416 39.428880 18.391723
2911 0 2 -1.050000 79.204939 40.985547 15.641755
2912 0 2 -1.050000 83.625130 41.321776 21.069261
2913 0 2 -1.050000 76.383980 42.669551 15.777267
2914 0 2 -1.050000 84.428051 32.445341 18.391723
2915 0 2 -1.050000 85.982676 40.946916 15.641755
2916 0 2 -1.050000 81.804517 30.508093 18.697794
2917 0 2 -1.050000 86.636907 42.586567 21.312249
2918 0 2 -1.050000 78.497014 39.682125 18.562281
2919 0 2 -1.050000 81.365885 41.283145 18.697794
2920 0 2 -1.050000 80.880168 32.275081 21.312249
2921 0 2 -1.050000 87.465435 40.985547 18.562281
2922 0 2 -1.050000 84.644476 42.669551 18.697794
2923 0 2 -1.050000 80.297803 39.599141 21.312249
2924 0 2 -1.050000 81.852428 33.793117 18.562281
2925 0 1 1.575000 92.930579 39.345896 19.180265
2926 0 1 1.575000 99.125951 35.768997 19.180265
2927 0 1 1.575000 92.930579 32.192097 19.180265
2928 0 1 1.575000 94.995703 35.768997 22.100791
2929 0 1 1.575000 97.060827 32.192097 16.259738
2930 0 1 1.575000 90.865455 35.768997 16.259738
2931 0 1 1.575000 97.060827 39.345896 16.259738
2932 0 1 1.575000 97.200016 35.527913 16.456582
2933 0 1 1.575000 94.856514 32.433180 21.903948
2934 0 1 1.575000 94.102330 37.798529 16.456582
2935 0 1 1.575000 97.954200 37.316363 21.903948
2936 0 1 1.575000 93.684762 33.980547 16.456582
2937 0 1 1.575000 92.176396 37.557446 21.903948
2938 0 1 1.575000 91.004644 31.951014 16.456582
2939 0 1 1.575000 96.921638 28.856280 16.062895
2940 0 1 1.575000 92.791390 36.010080 18.983421
2941 0 1 1.575000 75.516215 34.221630 16.456582
2942 0 1 1.575000 75.237836 40.893263 16.062895
2943 0 1 1.575000 95.889076 33.739464 18.983421
2944 0 1 1.575000 93.684762 41.134346 16.456582
2945 0 1 1.575000 88.046148 37.557446 16.062895
2946 0 1 1.575000 96.306644 37.557446 18.983421
2947 0 2 -1.050000 91.665897 41.029901 19.662736
2948 0 2 -1.050000 74.442763 36.105225 17.048280
2949 0 2 -1.050000 94.973400 31.855868 19.798248
2950 0 2 -1.050000 92.104529 30.254848 19.662736
2951 0 2 -1.050000 92.590247 39.262912 17.048280
2952 0 2 -1.050000 98.395723 37.706245 19.798248
2953 0 2 -1.050000 76.435195 36.022241 19.662736
2954 0 2 -1.050000 93.172612 31.938852 17.048280
2955 0 2 -1.050000 91.617986 37.744876 19.798248
2956 0 2 -1.050000 94.119264 34.084992 23.132321
2957 0 2 -1.050000 95.796145 33.876101 16.742209
2958 0 2 -1.050000 99.103648 39.009668 16.877722
2959 0 2 -1.050000 96.892313 35.851981 23.132321
2960 0 2 -1.050000 96.234777 37.408647 16.742209
2961 0 2 -1.050000 90.135227 37.706245 16.877722
2962 0 2 -1.050000 93.975532 37.370017 23.132321
2963 0 2 -1.050000 92.956187 36.022241 16.742209
2964 0 2 -1.050000 95.748234 30.591077 16.877722
2965 0 2 -1.050000 95.872142 37.453001 21.069261
2966 0 2 -1.050000 98.325509 30.508093 15.777267
2967 0 2 -1.050000 90.767155 35.432768 18.391723
2968 0 2 -1.050000 95.018006 39.682125 15.641755
2969 0 2 -1.050000 93.099093 35.686012 21.069261
2970 0 2 -1.050000 97.886877 41.283145 15.777267
2971 0 2 -1.050000 97.401159 32.275081 18.391723
2972 0 2 -1.050000 91.595683 33.831748 15.641755
2973 0 2 -1.050000 96.015874 34.167976 21.069261
2974 0 2 -1.050000 88.774723 35.515752 15.777267
2975 0 2 -1.050000 96.818794 39.599141 18.391723
2976 0 2 -1.050000 98.373420 33.793117 15.641755
2977 0 2 -1.050000 94.195261 37.661892 18.697794
2978 0 2 -1.050000 99.027651 35.432768 21.312249
2979 0 2 -1.050000 90.887758 32.528325 18.562281
2980 0 2 -1.050000 93.756629 34.129346 18.697794
2981 0 2 -1.050000 93.270911 39.428880 21.312249
2982 0 2 -1.050000 75.074691 33.831748 18.562281
2983 0 2 -1.050000 97.035219 35.515752 18.697794
2984 0 2 -1.050000 92.688546 32.445341 21.312249
2985 0 2 -1.050000 94.243172 40.946916 18.562281
2986 0 1 1.575000 99.125951 0.000000 1.657107
2987 0 1 1.575000 121.842315 32.192097 7.498159
2988 0 1 1.575000 103.256199 0.000000 7.498159
2989 0 1 1.575000 121.842315 39.345896 7.498159
2990 0 1 1.575000 0.000000 0.000000 10.418686
2991 0 1 1.575000 101.191075 39.345896 4.577633
2992 0 1 1.575000 119.777191 0.000000 4.577633
2993 0 1 1.575000 101.191075 32.192097 4.577633
2994 0 1 1.575000 123.768249 39.586979 1.460263
2995 0 1 1.575000 117.851256 42.681713 1.853950
2996 0 1 1.575000 101.330264 42.681713 4.774476
2997 0 1 1.575000 123.768249 39.586979 10.221842
2998 0 1 1.575000 102.084448 30.162564 1.460263
2999 0 1 1.575000 102.362826 37.798529 1.853950
3000 0 1 1.575000 123.014066 30.644730 4.774476
3001 0 1 1.575000 102.084448 30.162564 10.221842
3002 0 1 1.575000 121.088131 30.403647 1.460263
3003 0 1 1.575000 101.945258 33.980547 1.853950
3004 0 1 1.575000 122.596498 41.134346 4.774476
3005 0 1 1.575000 121.088131 30.403647 10.221842
3006 0 1 1.575000 119.916380 39.104813 4.774476
3007 0 1 1.575000 101.051886 36.010080 4.380790
3008 0 1 1.575000 121.703125 28.856280 7.301316
3009 0 1 1.575000 99.265140 31.951014 1.853950
3010 0 1 1.575000 104.427950 41.375429 4.774476
3011 0 1 1.575000 104.149571 33.739464 4.380790
3012 0 1 1.575000 100.019324 40.893263 7.301316
3013 0 1 1.575000 120.948942 41.375429 1.853950
3014 0 1 1.575000 122.596498 33.980547 4.774476
3015 0 1 1.575000 116.957883 30.403647 4.380790
3016 0 1 1.575000 100.436892 30.403647 7.301316
3017 0 1 1.575000 101.945258 41.134346 1.853950
3018 0 2 -1.050000 123.031000 41.238791 2.688637
3019 0 2 -1.050000 120.577633 33.876101 7.980630
3020 0 2 -1.050000 103.354499 28.951426 5.366175
3021 0 2 -1.050000 123.885135 39.009668 8.116143
3022 0 2 -1.050000 101.022561 28.698181 2.688637
3023 0 2 -1.050000 121.016265 37.408647 7.980630
3024 0 2 -1.050000 121.501982 32.109113 5.366175
3025 0 2 -1.050000 102.525971 30.552446 8.116143
3026 0 2 -1.050000 122.887267 30.216218 2.688637
3027 0 2 -1.050000 105.346930 28.868442 7.980630
3028 0 2 -1.050000 122.084347 39.092652 5.366175
3029 0 2 -1.050000 120.529722 30.591077 8.116143
3030 0 2 -1.050000 123.031000 41.238791 11.450216
3031 0 2 -1.050000 99.926393 41.029901 5.060104
3032 0 2 -1.050000 119.875491 28.951426 2.445649
3033 0 2 -1.050000 103.233896 31.855868 5.195616
3034 0 2 -1.050000 101.022561 28.698181 11.450216
3035 0 2 -1.050000 100.365025 30.254848 5.060104
3036 0 2 -1.050000 100.850742 39.262912 2.445649
3037 0 2 -1.050000 119.046963 30.552446 5.195616
3038 0 2 -1.050000 122.887267 30.216218 11.450216
3039 0 2 -1.050000 121.867922 28.868442 5.060104
3040 0 2 -1.050000 101.433107 31.938852 2.445649
3041 0 2 -1.050000 99.878482 37.744876 5.195616
3042 0 2 -1.050000 100.002390 30.299202 9.387156
3043 0 2 -1.050000 102.455757 37.661892 4.095162
3044 0 2 -1.050000 119.678891 42.586567 6.709617
3045 0 2 -1.050000 99.148254 32.528325 3.959650
3046 0 2 -1.050000 122.010829 42.839812 9.387156
3047 0 2 -1.050000 102.017124 34.129346 4.095162
3048 0 2 -1.050000 101.531407 39.428880 6.709617
3049 0 2 -1.050000 120.507419 40.985547 3.959650
3050 0 2 -1.050000 100.146122 41.321776 9.387156
3051 0 2 -1.050000 117.686459 42.669551 4.095162
3052 0 2 -1.050000 100.949042 32.445341 6.709617
3053 0 2 -1.050000 102.503668 40.946916 3.959650
3054 0 2 -1.050000 100.002390 30.299202 0.625577
3055 0 2 -1.050000 123.106997 30.508093 7.015688
3056 0 2 -1.050000 103.157899 42.586567 9.630144
3057 0 2 -1.050000 119.799494 39.682125 6.880176
3058 0 2 -1.050000 122.010829 42.839812 0.625577
3059 0 2 -1.050000 122.668364 41.283145 7.015688
3060 0 2 -1.050000 122.182647 32.275081 9.630144
3061 0 2 -1.050000 103.986427 40.985547 6.880176
3062 0 2 -1.050000 100.146122 41.321776 0.625577
3063 0 2 -1.050000 101.165467 42.669551 7.015688
3064 0 2 -1.050000 121.600282 39.599141 9.630144
3065 0 2 -1.050000 123.154907 33.793117 6.880176
3066 0 1 1.575000 111.516695 35.768997 1.657107
3067 0 1 1.575000 109.451571 39.345896 7.498159
3068 0 1 1.575000 115.646943 35.768997 7.498159
3069 0 1 1.575000 109.451571 32.192097 7.498159
3070 0 1 1.575000 111.516695 35.768997 10.418686
3071 0 1 1.575000 113.581819 32.192097 4.577633
3072 0 1 1.575000 107.386447 35.768997 4.577633
3073 0 1 1.575000 113.581819 39.345896 4.577633
3074 0 1 1.575000 111.377505 32.433180 1.460263
3075 0 1 1.575000 105.460512 35.527913 1.853950
3076 0 1 1.575000 113.721008 35.527913 4.774476
3077 0 1 1.575000 111.377505 32.433180 10.221842
3078 0 1 1.575000 114.475191 37.316363 1.460263
3079 0 1 1.575000 114.753570 30.644730 1.853950
3080 0 1 1.575000 110.623322 37.798529 4.774476
3081 0 1 1.575000 114.475191 37.316363 10.221842
3082 0 1 1.575000 108.697388 37.557446 1.460263
3083 0 1 1.575000 114.336002 41.134346 1.853950
3084 0 1 1.575000 110.205754 33.980547 4.774476
3085 0 1 1.575000 108.697388 37.557446 10.221842
3086 0 1 1.575000 107.525636 31.951014 4.774476
3087 0 1 1.575000 113.442629 28.856280 4.380790
3088 0 1 1.575000 109.312381 36.010080 7.301316
3089 0 1 1.575000 111.655884 39.104813 1.853950
3090 0 1 1.575000 116.818694 34.221630 4.774476
3091 0 1 1.575000 116.540315 40.893263 4.380790
3092 0 1 1.575000 112.410067 33.739464 7.301316
3093 0 1 1.575000 108.558198 34.221630 1.853950
3094 0 1 1.575000 110.205754 41.134346 4.774476
3095 0 1 1.575000 104.567140 37.557446 4.380790
3096 0 1 1.575000 112.827635 37.557446 7.301316
3097 0 1 1.575000 114.336002 33.980547 1.853950
3098 0 2 -1.050000 110.640256 34.084992 2.688637
3099 0 2 -1.050000 108.186889 41.029901 7.980630
3100 0 2 -1.050000 115.745243 36.105225 5.366175
3101 0 2 -1.050000 111.494391 31.855868 8.116143
3102 0 2 -1.050000 113.413305 35.851981 2.688637
3103 0 2 -1.050000 108.625521 30.254848 7.980630
3104 0 2 -1.050000 109.111238 39.262912 5.366175
3105 0 2 -1.050000 114.916715 37.706245 8.116143
3106 0 2 -1.050000 110.496524 37.370017 2.688637
3107 0 2 -1.050000 117.737674 36.022241 7.980630
3108 0 2 -1.050000 109.693603 31.938852 5.366175
3109 0 2 -1.050000 108.138978 37.744876 8.116143
3110 0 2 -1.050000 110.640256 34.084992 11.450216
3111 0 2 -1.050000 112.317137 33.876101 5.060104
3112 0 2 -1.050000 107.484747 36.105225 2.445649
3113 0 2 -1.050000 115.624639 39.009668 5.195616
3114 0 2 -1.050000 113.413305 35.851981 11.450216
3115 0 2 -1.050000 112.755769 37.408647 5.060104
3116 0 2 -1.050000 113.241486 32.109113 2.445649
3117 0 2 -1.050000 106.656219 37.706245 5.195616
3118 0 2 -1.050000 110.496524 37.370017 11.450216
3119 0 2 -1.050000 109.477178 36.022241 5.060104
3120 0 2 -1.050000 113.823851 39.092652 2.445649
3121 0 2 -1.050000 112.269226 30.591077 5.195616
3122 0 2 -1.050000 112.393133 37.453001 9.387156
3123 0 2 -1.050000 114.846501 30.508093 4.095162
3124 0 2 -1.050000 107.288147 35.432768 6.709617
3125 0 2 -1.050000 111.538998 39.682125 3.959650
3126 0 2 -1.050000 109.620085 35.686012 9.387156
3127 0 2 -1.050000 114.407868 41.283145 4.095162
3128 0 2 -1.050000 113.922151 32.275081 6.709617
3129 0 2 -1.050000 108.116675 33.831748 3.959650
3130 0 2 -1.050000 112.536866 34.167976 9.387156
3131 0 2 -1.050000 105.295715 35.515752 4.095162
3132 0 2 -1.050000 113.339786 39.599141 6.709617
3133 0 2 -1.050000 114.894412 33.793117 3.959650
3134 0 2 -1.050000 112.393133 37.453001 0.625577
3135 0 2 -1.050000 110.716253 37.661892 7.015688
3136 0 2 -1.050000 115.548643 35.432768 9.630144
3137 0 2 -1.050000 107.408750 32.528325 6.880176
3138 0 2 -1.050000 109.620085 35.686012 0.625577
3139 0 2 -1.050000 110.277620 34.129346 7.015688
3140 0 2 -1.050000 109.791903 39.428880 9.630144
3141 0 2 -1.050000 116.377171 33.831748 6.880176
3142 0 2 -1.050000 112.536866 34.167976 0.625577
3143 0 2 -1.050000 113.556211 35.515752 7.015688
3144 0 2 -1.050000 109.209538 32.445341 9.630144
3145 0 2 -1.050000 110.764164 40.946916 6.880176
3146 0 1 1.575000 103.256199 35.768997 7.498159
3147 0 1 1.575000 101.191075 39.345896 13.339212
3148 0 1 1.575000 107.386447 35.768997 13.339212
3149 0 1 1.575000 101.191075 32.192097 13.339212
3150 0 1 1.575000 105.321323 32.192097 10.418686
3151 0 1 1.575000 0.000000 35.768997 10.418686
3152 0 1 1.575000 105.321323 39.345896 10.418686
3153 0 1 1.575000 103.117010 32.433180 7.301316
3154 0 1 1.575000 121.981504 35.527913 7.695003
3155 0 1 1.575000 105.460512 35.527913 10.615529
3156 0 1 1.575000 106.214695 37.316363 7.301316
3157 0 1 1.575000 106.493074 30.644730 7.695003
3158 0 1 1.575000 102.362826 37.798529 10.615529
3159 0 1 1.575000 100.436892 37.557446 7.301316
3160 0 1 1.575000 106.075506 41.134346 7.695003
3161 0 1 1.575000 101.945258 33.980547 10.615529
3162 0 1 1.575000 99.265140 31.951014 10.615529
3163 0 1 1.575000 105.182133 28.856280 10.221842
3164 0 1 1.575000 101.051886 36.010080 13.142369
3165 0 1 1.575000 103.395388 39.104813 7.695003
3166 0 1 1.575000 108.558198 34.221630 10.615529
3167 0 1 1.575000 108.279819 40.893263 10.221842
3168 0 1 1.575000 104.149571 33.739464 13.142369
3169 0 1 1.575000 100.297702 34.221630 7.695003
3170 0 1 1.575000 101.945258 41.134346 10.615529
3171 0 1 1.575000 121.088131 37.557446 10.221842
3172 0 1 1.575000 104.567140 37.557446 13.142369
3173 0 1 1.575000 106.075506 33.980547 7.695003
3174 0 2 -1.050000 102.379760 34.084992 8.529689
3175 0 2 -1.050000 99.926393 41.029901 13.821683
3176 0 2 -1.050000 107.484747 36.105225 11.207228
3177 0 2 -1.050000 103.233896 31.855868 13.957195
3178 0 2 -1.050000 105.152809 35.851981 8.529689
3179 0 2 -1.050000 100.365025 30.254848 13.821683
3180 0 2 -1.050000 100.850742 39.262912 11.207228
3181 0 2 -1.050000 106.656219 37.706245 13.957195
3182 0 2 -1.050000 102.236028 37.370017 8.529689
3183 0 2 -1.050000 109.477178 36.022241 13.821683
3184 0 2 -1.050000 101.433107 31.938852 11.207228
3185 0 2 -1.050000 99.878482 37.744876 13.957195
3186 0 2 -1.050000 104.056641 33.876101 10.901157
3187 0 2 -1.050000 99.224251 36.105225 8.286701
3188 0 2 -1.050000 107.364143 39.009668 11.036669
3189 0 2 -1.050000 104.495273 37.408647 10.901157
3190 0 2 -1.050000 104.980990 32.109113 8.286701
3191 0 2 -1.050000 123.177211 37.706245 11.036669
3192 0 2 -1.050000 101.216682 36.022241 10.901157
3193 0 2 -1.050000 105.563355 39.092652 8.286701
3194 0 2 -1.050000 104.008730 30.591077 11.036669
3195 0 2 -1.050000 106.586005 30.508093 9.936215
3196 0 2 -1.050000 123.809139 35.432768 12.550670
3197 0 2 -1.050000 103.278502 39.682125 9.800702
3198 0 2 -1.050000 106.147372 41.283145 9.936215
3199 0 2 -1.050000 105.661655 32.275081 12.550670
3200 0 2 -1.050000 99.856179 33.831748 9.800702
3201 0 2 -1.050000 121.816707 35.515752 9.936215
3202 0 2 -1.050000 105.079290 39.599141 12.550670
3203 0 2 -1.050000 106.633916 33.793117 9.800702
3204 0 2 -1.050000 104.132637 37.453001 6.466629
3205 0 2 -1.050000 102.455757 37.661892 12.856741
3206 0 2 -1.050000 99.148254 32.528325 12.721229
3207 0 2 -1.050000 101.359589 35.686012 6.466629
3208 0 2 -1.050000 102.017124 34.129346 12.856741
3209 0 2 -1.050000 108.116675 33.831748 12.721229
3210 0 2 -1.050000 104.276370 34.167976 6.466629
3211 0 2 -1.050000 105.295715 35.515752 12.856741
3212 0 2 -1.050000 102.503668 40.946916 12.721229
3213 0 1 1.575000 115.646943 0.000000 7.498159
3214 0 1 1.575000 113.581819 32.192097 13.339212
3215 0 1 1.575000 119.777191 0.000000 13.339212
3216 0 1 1.575000 113.581819 39.345896 13.339212
3217 0 1 1.575000 117.712067 39.345896 10.418686
3218 0 1 1.575000 111.516695 0.000000 10.418686
3219 0 1 1.575000 117.712067 32.192097 10.418686
3220 0 1 1.575000 115.507753 39.586979 7.301316
3221 0 1 1.575000 109.590760 42.681713 7.695003
3222 0 1 1.575000 117.851256 42.681713 10.615529
3223 0 1 1.575000 118.605439 30.162564 7.301316
3224 0 1 1.575000 118.883818 37.798529 7.695003
3225 0 1 1.575000 114.753570 30.644730 10.615529
3226 0 1 1.575000 112.827635 30.403647 7.301316
3227 0 1 1.575000 118.466250 33.980547 7.695003
3228 0 1 1.575000 114.336002 41.134346 10.615529
3229 0 1 1.575000 111.655884 39.104813 10.615529
3230 0 1 1.575000 117.572877 36.010080 10.221842
3231 0 1 1.575000 113.442629 28.856280 13.142369
3232 0 1 1.575000 115.786132 31.951014 7.695003
3233 0 1 1.575000 120.948942 41.375429 10.615529
3234 0 1 1.575000 120.670563 33.739464 10.221842
3235 0 1 1.575000 116.540315 40.893263 13.142369
3236 0 1 1.575000 112.688446 41.375429 7.695003
3237 0 1 1.575000 114.336002 33.980547 10.615529
3238 0 1 1.575000 108.697388 30.403647 10.221842
3239 0 1 1.575000 116.957883 30.403647 13.142369
3240 0 1 1.575000 118.466250 41.134346 7.695003
3241 0 2 -1.050000 114.770504 41.238791 8.529689
3242 0 2 -1.050000 112.317137 33.876101 13.821683
3243 0 2 -1.050000 119.875491 28.951426 11.207228
3244 0 2 -1.050000 115.624639 39.009668 13.957195
3245 0 2 -1.050000 117.543553 28.698181 8.529689
3246 0 2 -1.050000 112.755769 37.408647 13.821683
3247 0 2 -1.050000 113.241486 32.109113 11.207228
3248 0 2 -1.050000 119.046963 30.552446 13.957195
3249 0 2 -1.050000 114.626771 30.216218 8.529689
3250 0 2 -1.050000 121.867922 28.868442 13.821683
3251 0 2 -1.050000 113.823851 39.092652 11.207228
3252 0 2 -1.050000 112.269226 30.591077 13.957195
3253 0 2 -1.050000 116.447385 41.029901 10.901157
3254 0 2 -1.050000 111.614995 28.951426 8.286701
3255 0 2 -1.050000 119.754887 31.855868 11.036669
3256 0 2 -1.050000 116.886017 30.254848 10.901157
3257 0 2 -1.050000 117.371734 39.262912 8.286701
3258 0 2 -1.050000 110.786467 30.552446 11.036669
3259 0 2 -1.050000 113.607426 28.868442 10.901157
3260 0 2 -1.050000 117.954099 31.938852 8.286701
3261 0 2 -1.050000 116.399474 37.744876 11.036669
3262 0 2 -1.050000 118.976749 37.661892 9.936215
3263 0 2 -1.050000 111.418395 42.586567 12.550670
3264 0 2 -1.050000 115.669246 32.528325 9.800702
3265 0 2 -1.050000 118.538116 34.129346 9.936215
3266 0 2 -1.050000 118.052399 39.428880 12.550670
3267 0 2 -1.050000 112.246923 40.985547 9.800702
3268 0 2 -1.050000 109.425963 42.669551 9.936215
3269 0 2 -1.050000 117.470034 32.445341 12.550670
3270 0 2 -1.050000 119.024660 40.946916 9.800702
3271 0 2 -1.050000 116.523381 30.299202 6.466629
3272 0 2 -1.050000 114.846501 30.508093 12.856741
3273 0 2 -1.050000 111.538998 39.682125 12.721229
3274 0 2 -1.050000 113.750333 42.839812 6.466629
3275 0 2 -1.050000 114.407868 41.283145 12.856741
3276 0 2 -1.050000 120.507419 40.985547 12.721229
3277 0 2 -1.050000 116.667114 41.321776 6.466629
3278 0 2 -1.050000 117.686459 42.669551 12.856741
3279 0 2 -1.050000 114.894412 33.793117 12.721229
3280 0 1 1.575000 107.386447 0.000000 13.339212
3281 0 1 1.575000 105.321323 32.192097 1.657107
3282 0 1 1.575000 111.516695 0.000000 1.657107
3283 0 1 1.575000 105.321323 39.345896 1.657107
3284 0 1 1.575000 107.386447 0.000000 4.577633
3285 0 1 1.575000 107.247257 39.586979 13.142369
3286 0 1 1.575000 101.330264 42.681713 13.536055
3287 0 1 1.575000 107.247257 39.586979 4.380790
3288 0 1 1.575000 110.344943 30.162564 13.142369
3289 0 1 1.575000 110.623322 37.798529 13.536055
3290 0 1 1.575000 110.344943 30.162564 4.380790
3291 0 1 1.575000 104.567140 30.403647 13.142369
3292 0 1 1.575000 110.205754 33.980547 13.536055
3293 0 1 1.575000 104.567140 30.403647 4.380790
3294 0 1 1.575000 105.182133 28.856280 1.460263
3295 0 1 1.575000 107.525636 31.951014 13.536055
3296 0 1 1.575000 108.279819 40.893263 1.460263
3297 0 1 1.575000 104.427950 41.375429 13.536055
3298 0 1 1.575000 108.697388 30.403647 1.460263
3299 0 1 1.575000 110.205754 41.134346 13.536055
3300 0 2 -1.050000 106.510008 41.238791 14.370742
3301 0 2 -1.050000 104.056641 33.876101 2.139578
3302 0 2 -1.050000 107.364143 39.009668 2.275090
3303 0 2 -1.050000 109.283057 28.698181 14.370742
3304 0 2 -1.050000 104.495273 37.408647 2.139578
3305 0 2 -1.050000 110.786467 30.552446 2.275090
3306 0 2 -1.050000 106.366276 30.216218 14.370742
3307 0 2 -1.050000 113.607426 28.868442 2.139578
3308 0 2 -1.050000 104.008730 30.591077 2.275090
3309 0 2 -1.050000 106.510008 41.238791 5.609163
3310 0 2 -1.050000 103.354499 28.951426 14.127754
3311 0 2 -1.050000 109.283057 28.698181 5.609163
3312 0 2 -1.050000 109.111238 39.262912 14.127754
3313 0 2 -1.050000 106.366276 30.216218 5.609163
3314 0 2 -1.050000 109.693603 31.938852 14.127754
3315 0 2 -1.050000 108.262885 30.299202 3.546103
3316 0 2 -1.050000 103.157899 42.586567 0.868565
3317 0 2 -1.050000 105.489837 42.839812 3.546103
3318 0 2 -1.050000 109.791903 39.428880 0.868565
3319 0 2 -1.050000 108.406618 41.321776 3.546103
3320 0 2 -1.050000 109.209538 32.445341 0.868565
3321 0 2 -1.050000 108.262885 30.299202 12.307682
3322 0 2 -1.050000 106.586005 30.508093 1.174636
3323 0 2 -1.050000 111.418395 42.586567 3.789091
3324 0 2 -1.050000 103.278502 39.682125 1.039123
3325 0 2 -1.050000 105.489837 42.839812 12.307682
3326 0 2 -1.050000 106.147372 41.283145 1.174636
3327 0 2 -1.050000 105.661655 32.275081 3.789091
3328 0 2 -1.050000 112.246923 40.985547 1.039123
3329 0 2 -1.050000 108.406618 41.321776 12.307682
3330 0 2 -1.050000 109.425963 42.669551 1.174636
3331 0 2 -1.050000 105.079290 39.599141 3.789091
3332 0 2 -1.050000 106.633916 33.793117 1.039123
3333 0 1 1.575000 119.777191 35.768997 13.339212
3334 0 1 1.575000 117.712067 39.345896 1.657107
3335 0 1 1.575000 123.907439 35.768997 1.657107
3336 0 1 1.575000 117.712067 32.192097 1.657107
3337 0 1 1.575000 119.777191 35.768997 4.577633
3338 0 1 1.575000 119.638001 32.433180 13.142369
3339 0 1 1.575000 113.721008 35.527913 13.536055
3340 0 1 1.575000 119.638001 32.433180 4.380790
3341 0 1 1.575000 122.735687 37.316363 13.142369
3342 0 1 1.575000 123.014066 30.644730 13.536055
3343 0 1 1.575000 122.735687 37.316363 4.380790
3344 0 1 1.575000 116.957883 37.557446 13.142369
3345 0 1 1.575000 122.596498 41.134346 13.536055
3346 0 1 1.575000 116.957883 37.557446 4.380790
3347 0 1 1.575000 117.572877 36.010080 1.460263
3348 0 1 1.575000 119.916380 39.104813 13.536055
3349 0 1 1.575000 120.670563 33.739464 1.460263
3350 0 1 1.575000 116.818694 34.221630 13.536055
3351 0 1 1.575000 121.088131 37.557446 1.460263
3352 0 1 1.575000 122.596498 33.980547 13.536055
3353 0 2 -1.050000 118.900752 34.084992 14.370742
3354 0 2 -1.050000 116.447385 41.029901 2.139578
3355 0 2 -1.050000 119.754887 31.855868 2.275090
3356 0 2 -1.050000 121.673801 35.851981 14.370742
3357 0 2 -1.050000 116.886017 30.254848 2.139578
3358 0 2 -1.050000 123.177211 37.706245 2.275090
3359 0 2 -1.050000 118.757019 37.370017 14.370742
3360 0 2 -1.050000 101.216682 36.022241 2.139578
3361 0 2 -1.050000 116.399474 37.744876 2.275090
3362 0 2 -1.050000 118.900752 34.084992 5.609163
3363 0 2 -1.050000 115.745243 36.105225 14.127754
3364 0 2 -1.050000 121.673801 35.851981 5.609163
3365 0 2 -1.050000 121.501982 32.109113 14.127754
3366 0 2 -1.050000 118.757019 37.370017 5.609163
3367 0 2 -1.050000 122.084347 39.092652 14.127754
3368 0 2 -1.050000 120.653629 37.453001 3.546103
3369 0 2 -1.050000 115.548643 35.432768 0.868565
3370 0 2 -1.050000 117.880581 35.686012 3.546103
3371 0 2 -1.050000 122.182647 32.275081 0.868565
3372 0 2 -1.050000 120.797362 34.167976 3.546103
3373 0 2 -1.050000 121.600282 39.599141 0.868565
3374 0 2 -1.050000 120.653629 37.453001 12.307682
3375 0 2 -1.050000 118.976749 37.661892 1.174636
3376 0 2 -1.050000 123.809139 35.432768 3.789091
3377 0 2 -1.050000 115.669246 32.528325 1.039123
3378 0 2 -1.050000 117.880581 35.686012 12.307682
3379 0 2 -1.050000 118.538116 34.129346 1.174636
3380 0 2 -1.050000 118.052399 39.428880 3.789091
3381 0 2 -1.050000 99.856179 33.831748 1.039123
3382 0 2 -1.050000 120.797362 34.167976 12.307682
3383 0 2 -1.050000 121.816707 35.515752 1.174636
3384 0 2 -1.050000 117.470034 32.445341 3.789091
3385 0 2 -1.050000 119.024660 40.946916 1.039123
3386 0 1 1.575000 99.125951 0.000000 19.180265
3387 0 1 1.575000 121.842315 32.192097 25.021317
3388 0 1 1.575000 103.256199 0.000000 25.021317
3389 0 1 1.575000 121.842315 39.345896 25.021317
3390 0 1 1.575000 0.000000 0.000000 27.941844
3391 0 1 1.575000 101.191075 39.345896 22.100791
3392 0 1 1.575000 119.777191 0.000000 22.100791
3393 0 1 1.575000 101.191075 32.192097 22.100791
3394 0 1 1.575000 123.768249 39.586979 18.983421
3395 0 1 1.575000 117.851256 42.681713 19.377108
3396 0 1 1.575000 101.330264 42.681713 22.297634
3397 0 1 1.575000 123.768249 39.586979 27.745000
3398 0 1 1.575000 102.084448 30.162564 18.983421
3399 0 1 1.575000 102.362826 37.798529 19.377108
3400 0 1 1.575000 123.014066 30.644730 22.297634
3401 0 1 1.575000 121.088131 30.403647 18.983421
3402 0 1 1.575000 101.945258 33.980547 19.377108
3403 0 1 1.575000 122.596498 41.134346 22.297634
3404 0 1 1.575000 119.916380 39.104813 22.297634
3405 0 1 1.575000 101.051886 36.010080 21.903948
3406 0 1 1.575000 99.265140 31.951014 19.377108
3407 0 1 1.575000 104.427950 41.375429 22.297634
3408 0 1 1.575000 104.149571 33.739464 21.903948
3409 0 1 1.575000 100.019324 40.893263 24.824474
3410 0 1 1.575000 120.948942 41.375429 19.377108
3411 0 1 1.575000 122.596498 33.980547 22.297634
3412 0 1 1.575000 116.957883 30.403647 21.903948
3413 0 1 1.575000 101.945258 41.134346 19.377108
3414 0 2 -1.050000 123.031000 41.238791 20.211795
3415 0 2 -1.050000 120.577633 33.876101 25.503788
3416 0 2 -1.050000 123.885135 39.009668 25.639301
3417 0 2 -1.050000 101.022561 28.698181 20.211795
3418 0 2 -1.050000 121.016265 37.408647 25.503788
3419 0 2 -1.050000 121.501982 32.109113 22.889333
3420 0 2 -1.050000 122.887267 30.216218 20.211795
3421 0 2 -1.050000 122.084347 39.092652 22.889333
3422 0 2 -1.050000 123.031000 41.238791 28.973374
3423 0 2 -1.050000 99.926393 41.029901 22.583262
3424 0 3 -0.950000 119.875491 28.951426 19.968807
3425 0 2 -1.050000 103.233896 31.855868 22.718774
3426 0 3 -0.950000 100.365025 30.254848 22.583262
3427 0 2 -1.050000 100.850742 39.262912 19.968807
3428 0 3 -0.950000 119.046963 30.552446 22.718774
3429 0 2 -1.050000 101.433107 31.938852 19.968807
3430 0 2 -1.050000 99.878482 37.744876 22.718774
3431 0 2 -1.050000 102.455757 37.661892 21.618320
3432 0 2 -1.050000 119.678891 42.586567 24.232775
3433 0 2 -1.050000 99.148254 32.528325 21.482808
3434 0 2 -1.050000 122.010829 42.839812 26.910314
3435 0 2 -1.050000 102.017124 34.129346 21.618320
3436 0 2 -1.050000 101.531407 39.428880 24.232775
3437 0 2 -1.050000 120.507419 40.985547 21.482808
3438 0 2 -1.050000 100.146122 41.321776 26.910314
3439 0 2 -1.050000 117.686459 42.669551 21.618320
3440 0 3 -0.950000 100.949042 32.445341 24.232775
3441 0 2 -1.050000 102.503668 40.946916 21.482808
3442 0 2 -1.050000 100.002390 30.299202 18.148735
3443 0 2 -1.050000 103.157899 42.586567 27.153302
3444 0 2 -1.050000 119.799494 39.682125 24.403334
3445 0 2 -1.050000 122.010829 42.839812 18.148735
3446 0 2 -1.050000 122.668364 41.283145 24.538846
3447 0 2 -1.050000 103.986427 40.985547 24.403334
3448 0 2 -1.050000 100.146122 41.321776 18.148735
3449 0 2 -1.050000 101.165467 42.669551 24.538846
3450 0 2 -1.050000 121.600282 39.599141 27.153302
3451 0 2 -1.050000 123.154907 33.793117 24.403334
3452 0 1 1.575000 111.516695 35.768997 19.180265
3453 0 1 1.575000 109.451571 39.345896 25.021317
3454 0 1 1.575000 115.646943 35.768997 25.021317
3455 0 1 1.575000 109.451571 32.192097 25.021317
3456 0 1 1.575000 111.516695 35.768997 27.941844
3457 0 1 1.575000 113.581819 32.192097 22.100791
3458 0 1 1.575000 107.386447 35.768997 22.100791
3459 0 1 1.575000 113.581819 39.345896 22.100791
3460 0 1 1.575000 111.377505 32.433180 18.983421
3461 0 1 1.575000 105.460512 35.527913 19.377108
3462 0 1 1.575000 113.721008 35.527913 22.297634
3463 0 1 1.575000 114.475191 37.316363 18.983421
3464 0 1 1.575000 114.753570 30.644730 19.377108
3465 0 1 1.575000 110.623322 37.798529 22.297634
3466 0 1 1.575000 114.475191 37.316363 27.745000
3467 0 1 1.575000 108.697388 37.557446 18.983421
3468 0 1 1.575000 114.336002 41.134346 19.377108
3469 0 1 1.575000 110.205754 33.980547 22.297634
3470 0 1 1.575000 108.697388 37.557446 27.745000
3471 0 1 1.575000 107.525636 31.951014 22.297634
3472 0 1 1.575000 113.442629 28.856280 21.903948
3473 0 1 1.575000 109.312381 36.010080 24.824474
3474 0 1 1.575000 111.655884 39.104813 19.377108
3475 0 1 1.575000 116.818694 34.221630 22.297634
3476 0 1 1.575000 116.540315 40.893263 21.903948
3477 0 1 1.575000 112.410067 33.739464 24.824474
3478 0 1 1.575000 108.558198 34.221630 19.377108
3479 0 1 1.575000 110.205754 41.134346 22.297634
3480 0 1 1.575000 104.567140 37.557446 21.903948
3481 0 1 1.575000 112.827635 37.557446 24.824474
3482 0 1 1.575000 114.336002 33.980547 19.377108
3483 0 2 -1.050000 110.640256 34.084992 20.211795
3484 0 2 -1.050000 108.186889 41.029901 25.503788
3485 0 2 -1.050000 115.745243 36.105225 22.889333
3486 0 3 -0.950000 111.494391 31.855868 25.639301
3487 0 2 -1.050000 113.413305 35.851981 20.211795
3488 0 2 -1.050000 109.111238 39.262912 22.889333
3489 0 2 -1.050000 114.916715 37.706245 25.639301
3490 0 2 -1.050000 110.496524 37.370017 20.211795
3491 0 2 -1.050000 117.737674 36.022241 25.503788
3492 0 2 -1.050000 109.693603 31.938852 22.889333
3493 0 2 -1.050000 108.138978 37.744876 25.639301
3494 0 2 -1.050000 112.317137 33.876101 22.583262
3495 0 2 -1.050000 107.484747 36.105225 19.968807
3496 0 2 -1.050000 115.624639 39.009668 22.718774
3497 0 3 -0.950000 113.413305 35.851981 28.973374
3498 0 2 -1.050000 112.755769 37.408647 22.583262
3499 0 2 -1.050000 113.241486 32.109113 19.968807
3500 0 2 -1.050000 106.656219 37.706245 22.718774
3501 0 3 -0.950000 110.496524 37.370017 28.973374
3502 0 2 -1.050000 109.477178 36.022241 22.583262
3503 0 2 -1.050000 113.823851 39.092652 19.968807
3504 0 3 -0.950000 112.269226 30.591077 22.718774
3505 0 2 -1.050000 112.393133 37.453001 26.910314
3506 0 2 -1.050000 114.846501 30.508093 21.618320
3507 0 2 -1.050000 107.288147 35.432768 24.232775
3508 0 2 -1.050000 111.538998 39.682125 21.482808
3509 0 2 -1.050000 109.620085 35.686012 26.910314
3510 0 2 -1.050000 114.407868 41.283145 21.618320
3511 0 2 -1.050000 113.922151 32.275081 24.232775
3512 0 2 -1.050000 108.116675 33.831748 21.482808
3513 0 2 -1.050000 105.295715 35.515752 21.618320
3514 0 2 -1.050000 113.339786 39.599141 24.232775
3515 0 2 -1.050000 114.894412 33.793117 21.482808
3516 0 2 -1.050000 112.393133 37.453001 18.148735
3517 0 2 -1.050000 110.716253 37.661892 24.538846
3518 0 3 -0.950000 115.548643 35.432768 27.153302
3519 0 2 -1.050000 107.408750 32.528325 24.403334
3520 0 2 -1.050000 109.620085 35.686012 18.148735
3521 0 2 -1.050000 110.277620 34.129346 24.538846
3522 0 2 -1.050000 109.791903 39.428880 27.153302
3523 0 2 -1.050000 116.377171 33.831748 24.403334
3524 0 2 -1.050000 112.536866 34.167976 18.148735
3525 0 2 -1.050000 113.556211 35.515752 24.538846
3526 0 2 -1.050000 110.764164 40.946916 24.403334
3527 0 1 1.575000 103.256199 35.768997 25.021317
3528 0 1 1.575000 103.256199 35.768997 16.259738
3529 0 1 1.575000 0.000000 35.768997 27.941844
3530 0 1 1.575000 105.321323 39.345896 27.941844
3531 0 1 1.575000 103.117010 32.433180 24.824474
3532 0 1 1.575000 121.981504 35.527913 25.218161
3533 0 1 1.575000 103.117010 32.433180 16.062895
3534 0 1 1.575000 106.214695 37.316363 24.824474
3535 0 1 1.575000 102.362826 37.798529 28.138687
3536 0 1 1.575000 106.214695 37.316363 16.062895
3537 0 1 1.575000 100.436892 37.557446 24.824474
3538 0 1 1.575000 106.075506 41.134346 25.218161
3539 0 1 1.575000 100.436892 37.557446 16.062895
3540 0 1 1.575000 103.395388 39.104813 25.218161
3541 0 1 1.575000 108.279819 40.893263 27.745000
3542 0 1 1.575000 100.297702 34.221630 25.218161
3543 0 1 1.575000 101.945258 41.134346 28.138687
3544 0 1 1.575000 121.088131 37.557446 27.745000
3545 0 1 1.575000 106.075506 33.980547 25.218161
3546 0 3 -0.950000 102.379760 34.084992 26.052847
3547 0 3 -0.950000 105.152809 35.851981 26.052847
3548 0 3 -0.950000 100.850742 39.262912 28.730386
3549 0 2 -1.050000 102.236028 37.370017 26.052847
3550 0 2 -1.050000 102.379760 34.084992 17.291268
3551 0 2 -1.050000 99.224251 36.105225 25.809859
3552 0 3 -0.950000 107.364143 39.009668 28.559827
3553 0 2 -1.050000 105.152809 35.851981 17.291268
3554 0 3 -0.950000 104.495273 37.408647 28.424315
3555 0 3 -0.950000 104.980990 32.109113 25.809859
3556 0 3 -0.950000 123.177211 37.706245 28.559827
3557 0 2 -1.050000 102.236028 37.370017 17.291268
3558 0 3 -0.950000 101.216682 36.022241 28.424315
3559 0 2 -1.050000 105.563355 39.092652 25.809859
3560 0 2 -1.050000 104.132637 37.453001 15.228208
3561 0 2 -1.050000 103.278502 39.682125 27.323860
3562 0 2 -1.050000 101.359589 35.686012 15.228208
3563 0 2 -1.050000 106.147372 41.283145 27.459373
3564 0 2 -1.050000 104.276370 34.167976 15.228208
3565 0 2 -1.050000 121.816707 35.515752 27.459373
3566 0 2 -1.050000 104.132637 37.453001 23.989787
3567 0 2 -1.050000 107.288147 35.432768 15.471196
3568 0 2 -1.050000 101.359589 35.686012 23.989787
3569 0 2 -1.050000 101.531407 39.428880 15.471196
3570 0 2 -1.050000 104.276370 34.167976 23.989787
3571 0 2 -1.050000 100.949042 32.445341 15.471196
3572 0 1 1.575000 115.646943 0.000000 25.021317
3573 0 1 1.575000 115.646943 0.000000 16.259738
3574 0 1 1.575000 117.712067 39.345896 27.941844
3575 0 1 1.575000 111.516695 0.000000 27.941844
3576 0 1 1.575000 115.507753 39.586979 24.824474
3577 0 1 1.575000 109.590760 42.681713 25.218161
3578 0 1 1.575000 117.851256 42.681713 28.138687
3579 0 1 1.575000 115.507753 39.586979 16.062895
3580 0 1 1.575000 118.883818 37.798529 25.218161
3581 0 1 1.575000 118.605439 30.162564 16.062895
3582 0 1 1.575000 118.466250 33.980547 25.218161
3583 0 1 1.575000 114.336002 41.134346 28.138687
3584 0 1 1.575000 112.827635 30.403647 16.062895
3585 0 1 1.575000 111.655884 39.104813 28.138687
3586 0 1 1.575000 117.572877 36.010080 27.745000
3587 0 1 1.575000 115.786132 31.951014 25.218161
3588 0 1 1.575000 120.948942 41.375429 28.138687
3589 0 1 1.575000 112.688446 41.375429 25.218161
3590 0 1 1.575000 118.466250 41.134346 25.218161
3591 0 2 -1.050000 114.770504 41.238791 26.052847
3592 0 3 -0.950000 113.823851 39.092652 28.730386
3593 0 2 -1.050000 114.770504 41.238791 17.291268
3594 0 2 -1.050000 116.447385 41.029901 28.424315
3595 0 2 -1.050000 117.543553 28.698181 17.291268
3596 0 2 -1.050000 117.371734 39.262912 25.809859
3597 0 2 -1.050000 114.626771 30.216218 17.291268
3598 0 3 -0.950000 117.954099 31.938852 25.809859
3599 0 3 -0.950000 116.399474 37.744876 28.559827
3600 0 2 -1.050000 116.523381 30.299202 15.228208
3601 0 2 -1.050000 118.976749 37.661892 27.459373
3602 0 2 -1.050000 113.750333 42.839812 15.228208
3603 0 2 -1.050000 112.246923 40.985547 27.323860
3604 0 2 -1.050000 116.667114 41.321776 15.228208
3605 0 2 -1.050000 109.425963 42.669551 27.459373
3606 0 2 -1.050000 119.024660 40.946916 27.323860
3607 0 2 -1.050000 119.678891 42.586567 15.471196
3608 0 2 -1.050000 113.750333 42.839812 23.989787
3609 0 2 -1.050000 113.922151 32.275081 15.471196
3610 0 2 -1.050000 116.667114 41.321776 23.989787
3611 0 2 -1.050000 113.339786 39.599141 15.471196
3612 0 1 1.575000 105.321323 32.192097 19.180265
3613 0 1 1.575000 111.516695 0.000000 19.180265
3614 0 1 1.575000 105.321323 39.345896 19.180265
3615 0 1 1.575000 107.386447 0.000000 22.100791
3616 0 1 1.575000 109.451571 39.345896 16.259738
3617 0 1 1.575000 103.256199 0.000000 16.259738
3618 0 1 1.575000 109.451571 32.192097 16.259738
3619 0 1 1.575000 109.590760 42.681713 16.456582
3620 0 1 1.575000 107.247257 39.586979 21.903948
3621 0 1 1.575000 106.493074 30.644730 16.456582
3622 0 1 1.575000 110.344943 30.162564 21.903948
3623 0 1 1.575000 106.075506 41.134346 16.456582
3624 0 1 1.575000 104.567140 30.403647 21.903948
3625 0 1 1.575000 103.395388 39.104813 16.456582
3626 0 1 1.575000 109.312381 36.010080 16.062895
3627 0 1 1.575000 105.182133 28.856280 18.983421
3628 0 1 1.575000 112.688446 41.375429 16.456582
3629 0 1 1.575000 112.410067 33.739464 16.062895
3630 0 1 1.575000 108.279819 40.893263 18.983421
3631 0 1 1.575000 106.075506 33.980547 16.456582
3632 0 1 1.575000 100.436892 30.403647 16.062895
3633 0 1 1.575000 108.697388 30.403647 18.983421
3634 0 2 -1.050000 104.056641 33.876101 19.662736
3635 0 2 -1.050000 111.614995 28.951426 17.048280
3636 0 2 -1.050000 107.364143 39.009668 19.798248
3637 0 2 -1.050000 104.495273 37.408647 19.662736
3638 0 2 -1.050000 104.980990 32.109113 17.048280
3639 0 2 -1.050000 110.786467 30.552446 19.798248
3640 0 2 -1.050000 113.607426 28.868442 19.662736
3641 0 2 -1.050000 105.563355 39.092652 17.048280
3642 0 2 -1.050000 104.008730 30.591077 19.798248
3643 0 2 -1.050000 106.510008 41.238791 23.132321
3644 0 2 -1.050000 108.186889 41.029901 16.742209
3645 0 2 -1.050000 111.494391 31.855868 16.877722
3646 0 2 -1.050000 108.625521 30.254848 16.742209
3647 0 2 -1.050000 102.525971 30.552446 16.877722
3648 0 2 -1.050000 106.366276 30.216218 23.132321
3649 0 2 -1.050000 105.346930 28.868442 16.742209
3650 0 2 -1.050000 108.138978 37.744876 16.877722
3651 0 2 -1.050000 108.262885 30.299202 21.069261
3652 0 2 -1.050000 110.716253 37.661892 15.777267
3653 0 2 -1.050000 103.157899 42.586567 18.391723
3654 0 2 -1.050000 107.408750 32.528325 15.641755
3655 0 2 -1.050000 105.489837 42.839812 21.069261
3656 0 2 -1.050000 110.277620 34.129346 15.777267
3657 0 2 -1.050000 109.791903 39.428880 18.391723
3658 0 2 -1.050000 103.986427 40.985547 15.641755
3659 0 2 -1.050000 108.406618 41.321776 21.069261
3660 0 2 -1.050000 101.165467 42.669551 15.777267
3661 0 2 -1.050000 109.209538 32.445341 18.391723
3662 0 2 -1.050000 110.764164 40.946916 15.641755
3663 0 2 -1.050000 106.586005 30.508093 18.697794
3664 0 2 -1.050000 111.418395 42.586567 21.312249
3665 0 2 -1.050000 103.278502 39.682125 18.562281
3666 0 2 -1.050000 106.147372 41.283145 18.697794
3667 0 2 -1.050000 105.661655 32.275081 21.312249
3668 0 2 -1.050000 112.246923 40.985547 18.562281
3669 0 2 -1.050000 109.425963 42.669551 18.697794
3670 0 2 -1.050000 105.079290 39.599141 21.312249
3671 0 2 -1.050000 106.633916 33.793117 18.562281
3672 0 1 1.575000 117.712067 39.345896 19.180265
3673 0 1 1.575000 123.907439 35.768997 19.180265
3674 0 1 1.575000 117.712067 32.192097 19.180265
3675 0 1 1.575000 119.777191 35.768997 22.100791
3676 0 1 1.575000 121.842315 32.192097 16.259738
3677 0 1 1.575000 115.646943 35.768997 16.259738
3678 0 1 1.575000 121.842315 39.345896 16.259738
3679 0 1 1.575000 121.981504 35.527913 16.456582
3680 0 1 1.575000 119.638001 32.433180 21.903948
3681 0 1 1.575000 118.883818 37.798529 16.456582
3682 0 1 1.575000 122.735687 37.316363 21.903948
3683 0 1 1.575000 118.466250 33.980547 16.456582
3684 0 1 1.575000 116.957883 37.557446 21.903948
3685 0 1 1.575000 115.786132 31.951014 16.456582
3686 0 1 1.575000 121.703125 28.856280 16.062895
3687 0 1 1.575000 117.572877 36.010080 18.983421
3688 0 1 1.575000 100.297702 34.221630 16.456582
3689 0 1 1.575000 100.019324 40.893263 16.062895
3690 0 1 1.575000 120.670563 33.739464 18.983421
3691 0 1 1.575000 118.466250 41.134346 16.456582
3692 0 1 1.575000 112.827635 37.557446 16.062895
3693 0 1 1.575000 121.088131 37.557446 18.983421
3694 0 2 -1.050000 116.447385 41.029901 19.662736
3695 0 2 -1.050000 99.224251 36.105225 17.048280
3696 0 2 -1.050000 119.754887 31.855868 19.798248
3697 0 2 -1.050000 116.886017 30.254848 19.662736
3698 0 2 -1.050000 117.371734 39.262912 17.048280
3699 0 2 -1.050000 123.177211 37.706245 19.798248
3700 0 2 -1.050000 101.216682 36.022241 19.662736
3701 0 2 -1.050000 117.954099 31.938852 17.048280
3702 0 2 -1.050000 116.399474 37.744876 19.798248
3703 0 2 -1.050000 118.900752 34.084992 23.132321
3704 0 2 -1.050000 120.577633 33.876101 16.742209
3705 0 2 -1.050000 123.885135 39.009668 16.877722
3706 0 2 -1.050000 121.673801 35.851981 23.132321
3707 0 2 -1.050000 121.016265 37.408647 16.742209
3708 0 2 -1.050000 114.916715 37.706245 16.877722
3709 0 2 -1.050000 118.757019 37.370017 23.132321
3710 0 2 -1.050000 117.737674 36.022241 16.742209
3711 0 2 -1.050000 120.529722 30.591077 16.877722
3712 0 2 -1.050000 120.653629 37.453001 21.069261
3713 0 2 -1.050000 123.106997 30.508093 15.777267
3714 0 2 -1.050000 115.548643 35.432768 18.391723
3715 0 2 -1.050000 119.799494 39.682125 15.641755
3716 0 2 -1.050000 117.880581 35.686012 21.069261
3717 0 2 -1.050000 122.668364 41.283145 15.777267
3718 0 2 -1.050000 122.182647 32.275081 18.391723
3719 0 2 -1.050000 116.377171 33.831748 15.641755
3720 0 2 -1.050000 120.797362 34.167976 21.069261
3721 0 2 -1.050000 113.556211 35.515752 15.777267
3722 0 2 -1.050000 121.600282 39.599141 18.391723
3723 0 2 -1.050000 123.154907 33.793117 15.641755
3724 0 2 -1.050000 118.976749 37.661892 18.697794
3725 0 2 -1.050000 123.809139 35.432768 21.312249
3726 0 2 -1.050000 115.669246 32.528325 18.562281
3727 0 2 -1.050000 118.538116 34.129346 18.697794
3728 0 2 -1.050000 118.052399 39.428880 21.312249
3729 0 2 -1.050000 99.856179 33.831748 18.562281
3730 0 2 -1.050000 121.816707 35.515752 18.697794
3731 0 2 -1.050000 117.470034 32.445341 21.312249
3732 0 2 -1.050000 119.024660 40.946916 18.562281
3733 0 1 1.575000 0.000000 28.615197 1.657107
3734 0 1 1.575000 22.716364 17.884498 7.498159
3735 0 1 1.575000 4.130248 28.615197 7.498159
3736 0 1 1.575000 22.716364 25.038298 7.498159
3737 0 1 1.575000 24.781488 28.615197 10.418686
3738 0 1 1.575000 2.065124 25.038298 4.577633
3739 0 1 1.575000 20.651240 28.615197 4.577633
3740 0 1 1.575000 2.065124 17.884498 4.577633
3741 0 1 1.575000 24.642298 25.279381 1.460263
3742 0 1 1.575000 18.725305 28.374114 1.853950
3743 0 1 1.575000 2.204313 28.374114 4.774476
3744 0 1 1.575000 24.642298 25.279381 10.221842
3745 0 1 1.575000 2.958497 15.854965 1.460263
3746 0 1 1.575000 3.236875 23.490931 1.853950
3747 0 1 1.575000 23.888115 16.337131 4.774476
3748 0 1 1.575000 2.958497 15.854965 10.221842
3749 0 1 1.575000 21.962180 16.096048 1.460263
3750 0 1 1.575000 2.819307 19.672948 1.853950
3751 0 1 1.575000 23.470547 26.826747 4.774476
3752 0 1 1.575000 21.962180 16.096048 10.221842
3753 0 1 1.575000 20.790429 24.797215 4.774476
3754 0 1 1.575000 1.925935 21.702481 4.380790
3755 0 1 1.575000 22.577174 14.548682 7.301316
3756 0 1 1.575000 0.139189 17.643415 1.853950
3757 0 1 1.575000 5.301999 27.067830 4.774476
3758 0 1 1.575000 5.023621 19.431865 4.380790
3759 0 1 1.575000 0.893373 26.585664 7.301316
3760 0 1 1.575000 21.822991 27.067830 1.853950
3761 0 1 1.575000 23.470547 19.672948 4.774476
3762 0 1 1.575000 17.831933 16.096048 4.380790
3763 0 1 1.575000 1.310941 16.096048 7.301316
3764 0 1 1.575000 2.819307 26.826747 1.853950
3765 0 2 -1.050000 23.905049 26.931193 2.688637
3766 0 2 -1.050000 21.451682 19.568503 7.980630
3767 0 2 -1.050000 4.228548 14.643827 5.366175
3768 0 2 -1.050000 24.759184 24.702069 8.116143
3769 0 2 -1.050000 1.896610 14.390583 2.688637
3770 0 2 -1.050000 21.890314 23.101049 7.980630
3771 0 2 -1.050000 22.376031 17.801514 5.366175
3772 0 2 -1.050000 3.400020 16.244847 8.116143
3773 0 2 -1.050000 23.761316 15.908619 2.688637
3774 0 2 -1.050000 6.220979 14.560843 7.980630
3775 0 2 -1.050000 22.958396 24.785053 5.366175
3776 0 2 -1.050000 21.403771 16.283478 8.116143
3777 0 2 -1.050000 23.905049 26.931193 11.450216
3778 0 2 -1.050000 0.800442 26.722302 5.060104
3779 0 2 -1.050000 20.749540 14.643827 2.445649
3780 0 2 -1.050000 4.107945 17.548270 5.195616
3781 0 2 -1.050000 1.896610 14.390583 11.450216
3782 0 2 -1.050000 1.239074 15.947249 5.060104
3783 0 2 -1.050000 1.724792 24.955313 2.445649
3784 0 2 -1.050000 19.921012 16.244847 5.195616
3785 0 2 -1.050000 23.761316 15.908619 11.450216
3786 0 2 -1.050000 22.741971 14.560843 5.060104
3787 0 2 -1.050000 2.307157 17.631254 2.445649
3788 0 2 -1.050000 0.752531 23.437277 5.195616
3789 0 2 -1.050000 0.876439 15.991603 9.387156
3790 0 2 -1.050000 3.329806 23.354293 4.095162
3791 0 2 -1.050000 20.552940 28.278969 6.709617
3792 0 2 -1.050000 0.022303 18.220727 3.959650
3793 0 2 -1.050000 22.884878 28.532213 9.387156
3794 0 2 -1.050000 2.891174 19.821747 4.095162
3795 0 2 -1.050000 2.405456 25.121282 6.709617
3796 0 2 -1.050000 21.381468 26.677948 3.959650
3797 0 2 -1.050000 1.020171 27.014177 9.387156
3798 0 2 -1.050000 18.560508 28.361953 4.095162
3799 0 2 -1.050000 1.823091 18.137743 6.709617
3800 0 2 -1.050000 3.377717 26.639318 3.959650
3801 0 2 -1.050000 0.876439 15.991603 0.625577
3802 0 2 -1.050000 23.981046 16.200494 7.015688
3803 0 2 -1.050000 4.031948 28.278969 9.630144
3804 0 2 -1.050000 20.673543 25.374526 6.880176
3805 0 2 -1.050000 22.884878 28.532213 0.625577
3806 0 2 -1.050000 23.542413 26.975546 7.015688
3807 0 2 -1.050000 23.056696 17.967482 9.630144
3808 0 2 -1.050000 4.860476 26.677948 6.880176
3809 0 2 -1.050000 1.020171 27.014177 0.625577
3810 0 2 -1.050000 2.039516 28.361953 7.015688
3811 0 2 -1.050000 22.474331 25.291542 9.630144
3812 0 2 -1.050000 24.028957 19.485519 6.880176
3813 0 1 1.575000 12.390744 21.461398 1.657107
3814 0 1 1.575000 10.325620 25.038298 7.498159
3815 0 1 1.575000 16.520992 21.461398 7.498159
3816 0 1 1.575000 10.325620 17.884498 7.498159
3817 0 1 1.575000 12.390744 21.461398 10.418686
3818 0 1 1.575000 14.455868 17.884498 4.577633
3819 0 1 1.575000 8.260496 21.461398 4.577633
3820 0 1 1.575000 14.455868 25.038298 4.577633
3821 0 1 1.575000 12.251555 18.125581 1.460263
3822 0 1 1.575000 6.334561 21.220315 1.853950
3823 0 1 1.575000 14.595057 21.220315 4.774476
3824 0 1 1.575000 12.251555 18.125581 10.221842
3825 0 1 1.575000 15.349240 23.008765 1.460263
3826 0 1 1.575000 15.627619 16.337131 1.853950
3827 0 1 1.575000 11.497371 23.490931 4.774476
3828 0 1 1.575000 15.349240 23.008765 10.221842
3829 0 1 1.575000 9.571437 23.249848 1.460263
3830 0 1 1.575000 15.210051 26.826747 1.853950
3831 0 1 1.575000 11.079803 19.672948 4.774476
3832 0 1 1.575000 9.571437 23.249848 10.221842
3833 0 1 1.575000 8.399685 17.643415 4.774476
3834 0 1 1.575000 14.316678 14.548682 4.380790
3835 0 1 1.575000 10.186431 21.702481 7.301316
3836 0 1 1.575000 12.529933 24.797215 1.853950
3837 0 1 1.575000 17.692743 19.914031 4.774476
3838 0 1 1.575000 17.414364 26.585664 4.380790
3839 0 1 1.575000 13.284116 19.431865 7.301316
3840 0 1 1.575000 9.432247 19.914031 1.853950
3841 0 1 1.575000 11.079803 26.826747 4.774476
3842 0 1 1.575000 5.441189 23.249848 4.380790
3843 0 1 1.575000 13.701685 23.249848 7.301316
3844 0 1 1.575000 15.210051 19.672948 1.853950
3845 0 2 -1.050000 11.514305 19.777394 2.688637
3846 0 2 -1.050000 9.060938 26.722302 7.980630
3847 0 2 -1.050000 16.619292 21.797626 5.366175
3848 0 2 -1.050000 12.368441 17.548270 8.116143
3849 0 2 -1.050000 14.287354 21.544382 2.688637
3850 0 2 -1.050000 9.499570 15.947249 7.980630
3851 0 2 -1.050000 9.985287 24.955313 5.366175
3852 0 2 -1.050000 15.790764 23.398647 8.116143
3853 0 2 -1.050000 11.370573 23.062418 2.688637
3854 0 2 -1.050000 18.611723 21.714642 7.980630
3855 0 2 -1.050000 10.567652 17.631254 5.366175
3856 0 2 -1.050000 9.013027 23.437277 8.116143
3857 0 2 -1.050000 11.514305 19.777394 11.450216
3858 0 2 -1.050000 13.191186 19.568503 5.060104
3859 0 2 -1.050000 8.358796 21.797626 2.445649
3860 0 2 -1.050000 16.498688 24.702069 5.195616
3861 0 2 -1.050000 14.287354 21.544382 11.450216
3862 0 2 -1.050000 13.629818 23.101049 5.060104
3863 0 2 -1.050000 14.115535 17.801514 2.445649
3864 0 2 -1.050000 7.530268 23.398647 5.195616
3865 0 2 -1.050000 11.370573 23.062418 11.450216
3866 0 2 -1.050000 10.351227 21.714642 5.060104
3867 0 2 -1.050000 14.697900 24.785053 2.445649
3868 0 2 -1.050000 13.143275 16.283478 5.195616
3869 0 2 -1.050000 13.267182 23.145402 9.387156
3870 0 2 -1.050000 15.720550 16.200494 4.095162
3871 0 2 -1.050000 8.162196 21.125169 6.709617
3872 0 2 -1.050000 12.413047 25.374526 3.959650
3873 0 2 -1.050000 10.494134 21.378414 9.387156
3874 0 2 -1.050000 15.281917 26.975546 4.095162
3875 0 2 -1.050000 14.796200 17.967482 6.709617
3876 0 2 -1.050000 8.990724 19.524149 3.959650
3877 0 2 -1.050000 13.410915 19.860378 9.387156
3878 0 2 -1.050000 6.169764 21.208153 4.095162
3879 0 2 -1.050000 14.213835 25.291542 6.709617
3880 0 2 -1.050000 15.768461 19.485519 3.959650
3881 0 2 -1.050000 13.267182 23.145402 0.625577
3882 0 2 -1.050000 11.590302 23.354293 7.015688
3883 0 2 -1.050000 16.422692 21.125169 9.630144
3884 0 2 -1.050000 8.282799 18.220727 6.880176
3885 0 2 -1.050000 10.494134 21.378414 0.625577
3886 0 2 -1.050000 11.151669 19.821747 7.015688
3887 0 2 -1.050000 10.665952 25.121282 9.630144
3888 0 2 -1.050000 17.251220 19.524149 6.880176
3889 0 2 -1.050000 13.410915 19.860378 0.625577
3890 0 2 -1.050000 14.430260 21.208153 7.015688
3891 0 2 -1.050000 10.083587 18.137743 9.630144
3892 0 2 -1.050000 11.638213 26.639318 6.880176
3893 0 1 1.575000 4.130248 21.461398 7.498159
3894 0 1 1.575000 2.065124 25.038298 13.339212
3895 0 1 1.575000 8.260496 21.461398 13.339212
3896 0 1 1.575000 2.065124 17.884498 13.339212
3897 0 1 1.575000 6.195372 17.884498 10.418686
3898 0 1 1.575000 24.781488 21.461398 10.418686
3899 0 1 1.575000 6.195372 25.038298 10.418686
3900 0 1 1.575000 3.991059 18.125581 7.301316
3901 0 1 1.575000 22.855553 21.220315 7.695003
3902 0 1 1.575000 6.334561 21.220315 10.615529
3903 0 1 1.575000 7.088745 23.008765 7.301316
3904 0 1 1.575000 7.367123 16.337131 7.695003
3905 0 1 1.575000 3.236875 23.490931 10.615529
3906 0 1 1.575000 1.310941 23.249848 7.301316
3907 0 1 1.575000 6.949555 26.826747 7.695003
3908 0 1 1.575000 2.819307 19.672948 10.615529
3909 0 1 1.575000 0.139189 17.643415 10.615529
3910 0 1 1.575000 6.056183 14.548682 10.221842
3911 0 1 1.575000 1.925935 21.702481 13.142369
3912 0 1 1.575000 4.269437 24.797215 7.695003
3913 0 1 1.575000 9.432247 19.914031 10.615529
3914 0 1 1.575000 9.153869 26.585664 10.221842
3915 0 1 1.575000 5.023621 19.431865 13.142369
3916 0 1 1.575000 1.171751 19.914031 7.695003
3917 0 1 1.575000 2.819307 26.826747 10.615529
3918 0 1 1.575000 21.962180 23.249848 10.221842
3919 0 1 1.575000 5.441189 23.249848 13.142369
3920 0 1 1.575000 6.949555 19.672948 7.695003
3921 0 2 -1.050000 3.253809 19.777394 8.529689
3922 0 2 -1.050000 0.800442 26.722302 13.821683
3923 0 2 -1.050000 8.358796 21.797626 11.207228
3924 0 2 -1.050000 4.107945 17.548270 13.957195
3925 0 2 -1.050000 6.026858 21.544382 8.529689
3926 0 2 -1.050000 1.239074 15.947249 13.821683
3927 0 2 -1.050000 1.724792 24.955313 11.207228
3928 0 2 -1.050000 7.530268 23.398647 13.957195
3929 0 2 -1.050000 3.110077 23.062418 8.529689
3930 0 2 -1.050000 10.351227 21.714642 13.821683
3931 0 2 -1.050000 2.307157 17.631254 11.207228
3932 0 2 -1.050000 0.752531 23.437277 13.957195
3933 0 2 -1.050000 4.930690 19.568503 10.901157
3934 0 2 -1.050000 0.098300 21.797626 8.286701
3935 0 2 -1.050000 8.238193 24.702069 11.036669
3936 0 2 -1.050000 5.369322 23.101049 10.901157
3937 0 2 -1.050000 5.855040 17.801514 8.286701
3938 0 2 -1.050000 24.051260 23.398647 11.036669
3939 0 2 -1.050000 2.090732 21.714642 10.901157
3940 0 2 -1.050000 6.437404 24.785053 8.286701
3941 0 2 -1.050000 4.882779 16.283478 11.036669
3942 0 2 -1.050000 7.460054 16.200494 9.936215
3943 0 2 -1.050000 24.683188 21.125169 12.550670
3944 0 2 -1.050000 4.152551 25.374526 9.800702
3945 0 2 -1.050000 7.021422 26.975546 9.936215
3946 0 2 -1.050000 6.535704 17.967482 12.550670
3947 0 2 -1.050000 0.730228 19.524149 9.800702
3948 0 2 -1.050000 22.690756 21.208153 9.936215
3949 0 2 -1.050000 5.953339 25.291542 12.550670
3950 0 2 -1.050000 7.507965 19.485519 9.800702
3951 0 2 -1.050000 5.006687 23.145402 6.466629
3952 0 2 -1.050000 3.329806 23.354293 12.856741
3953 0 2 -1.050000 0.022303 18.220727 12.721229
3954 0 2 -1.050000 2.233638 21.378414 6.466629
3955 0 2 -1.050000 2.891174 19.821747 12.856741
3956 0 2 -1.050000 8.990724 19.524149 12.721229
3957 0 2 -1.050000 5.150419 19.860378 6.466629
3958 0 2 -1.050000 6.169764 21.208153 12.856741
3959 0 2 -1.050000 3.377717 26.639318 12.721229
3960 0 1 1.575000 16.520992 28.615197 7.498159
3961 0 1 1.575000 14.455868 17.884498 13.339212
3962 0 1 1.575000 20.651240 28.615197 13.339212
3963 0 1 1.575000 14.455868 25.038298 13.339212
3964 0 1 1.575000 18.586116 25.038298 10.418686
3965 0 1 1.575000 12.390744 28.615197 10.418686
3966 0 1 1.575000 18.586116 17.884498 10.418686
3967 0 1 1.575000 16.381802 25.279381 7.301316
3968 0 1 1.575000 10.464809 28.374114 7.695003
3969 0 1 1.575000 18.725305 28.374114 10.615529
3970 0 1 1.575000 19.479488 15.854965 7.301316
3971 0 1 1.575000 19.757867 23.490931 7.695003
3972 0 1 1.575000 15.627619 16.337131 10.615529
3973 0 1 1.575000 13.701685 16.096048 7.301316
3974 0 1 1.575000 19.340299 19.672948 7.695003
3975 0 1 1.575000 15.210051 26.826747 10.615529
3976 0 1 1.575000 12.529933 24.797215 10.615529
3977 0 1 1.575000 18.446926 21.702481 10.221842
3978 0 1 1.575000 14.316678 14.548682 13.142369
3979 0 1 1.575000 16.660181 17.643415 7.695003
3980 0 1 1.575000 21.822991 27.067830 10.615529
3981 0 1 1.575000 21.544612 19.431865 10.221842
3982 0 1 1.575000 17.414364 26.585664 13.142369
3983 0 1 1.575000 13.562495 27.067830 7.695003
3984 0 1 1.575000 15.210051 19.672948 10.615529
3985 0 1 1.575000 9.571437 16.096048 10.221842
3986 0 1 1.575000 17.831933 16.096048 13.142369
3987 0 1 1.575000 19.340299 26.826747 7.695003
3988 0 2 -1.050000 15.644553 26.931193 8.529689
3989 0 2 -1.050000 13.191186 19.568503 13.821683
3990 0 2 -1.050000 20.749540 14.643827 11.207228
3991 0 2 -1.050000 16.498688 24.702069 13.957195
3992 0 2 -1.050000 18.417602 14.390583 8.529689
3993 0 2 -1.050000 13.629818 23.101049 13.821683
3994 0 2 -1.050000 14.115535 17.801514 11.207228
3995 0 2 -1.050000 19.921012 16.244847 13.957195
3996 0 2 -1.050000 15.500821 15.908619 8.529689
3997 0 2 -1.050000 22.741971 14.560843 13.821683
3998 0 2 -1.050000 14.697900 24.785053 11.207228
3999 0 2 -1.050000 13.143275 16.283478 13.957195
4000 0 2 -1.050000 17.321434 26.722302 10.901157
4001 0 2 -1.050000 12.489044 14.643827 8.286701
4002 0 2 -1.050000 20.628936 17.548270 11.036669
4003 0 2 -1.050000 17.760066 15.947249 10.901157
4004 0 2 -1.050000 18.245783 24.955313 8.286701
4005 0 2 -1.050000 11.660516 16.244847 11.036669
4006 0 2 -1.050000 14.481475 14.560843 10.901157
4007 0 2 -1.050000 18.828148 17.631254 8.286701
4008 0 2 -1.050000 17.273523 23.437277 11.036669
4009 0 2 -1.050000 19.850798 23.354293 9.936215
4010 0 2 -1.050000 12.292444 28.278969 12.550670
4011 0 2 -1.050000 16.543295 18.220727 9.800702
4012 0 2 -1.050000 19.412165 19.821747 9.936215
4013 0 2 -1.050000 18.926448 25.121282 12.550670
4014 0 2 -1.050000 13.120972 26.677948 9.800702
4015 0 2 -1.050000 10.300012 28.361953 9.936215
4016 0 2 -1.050000 18.344083 18.137743 12.550670
4017 0 2 -1.050000 19.898709 26.639318 9.800702
4018 0 2 -1.050000 17.397430 15.991603 6.466629
4019 0 2 -1.050000 15.720550 16.200494 12.856741
4020 0 2 -1.050000 12.413047 25.374526 12.721229
4021 0 2 -1.050000 14.624382 28.532213 6.466629
4022 0 2 -1.050000 15.281917 26.975546 12.856741
4023 0 2 -1.050000 21.381468 26.677948 12.721229
4024 0 2 -1.050000 17.541163 27.014177 6.466629
4025 0 2 -1.050000 18.560508 28.361953 12.856741
4026 0 2 -1.050000 15.768461 19.485519 12.721229
4027 0 1 1.575000 8.260496 28.615197 13.339212
4028 0 1 1.575000 6.195372 17.884498 1.657107
4029 0 1 1.575000 12.390744 28.615197 1.657107
4030 0 1 1.575000 6.195372 25.038298 1.657107
4031 0 1 1.575000 8.260496 28.615197 4.577633
4032 0 1 1.575000 8.121307 25.279381 13.142369
4033 0 1 1.575000 2.204313 28.374114 13.536055
4034 0 1 1.575000 8.121307 25.279381 4.380790
4035 0 1 1.575000 11.218993 15.854965 13.142369
4036 0 1 1.575000 11.497371 23.490931 13.536055
4037 0 1 1.575000 11.218993 15.854965 4.380790
4038 0 1 1.575000 5.441189 16.096048 13.142369
4039 0 1 1.575000 11.079803 19.672948 13.536055
4040 0 1 1.575000 5.441189 16.096048 4.380790
4041 0 1 1.575000 6.056183 14.548682 1.460263
4042 0 1 1.575000 8.399685 17.643415 13.536055
4043 0 1 1.575000 9.153869 26.585664 1.460263
4044 0 1 1.575000 5.301999 27.067830 13.536055
4045 0 1 1.575000 9.571437 16.096048 1.460263
4046 0 1 1.575000 11.079803 26.826747 13.536055
4047 0 2 -1.050000 7.384057 26.931193 14.370742
4048 0 2 -1.050000 4.930690 19.568503 2.139578
4049 0 2 -1.050000 8.238193 24.702069 2.275090
4050 0 2 -1.050000 10.157106 14.390583 14.370742
4051 0 2 -1.050000 5.369322 23.101049 2.139578
4052 0 2 -1.050000 11.660516 16.244847 2.275090
4053 0 2 -1.050000 7.240325 15.908619 14.370742
4054 0 2 -1.050000 14.481475 14.560843 2.139578
4055 0 2 -1.050000 4.882779 16.283478 2.275090
4056 0 2 -1.050000 7.384057 26.931193 5.609163
4057 0 2 -1.050000 4.228548 14.643827 14.127754
4058 0 2 -1.050000 10.157106 14.390583 5.609163
4059 0 2 -1.050000 9.985287 24.955313 14.127754
4060 0 2 -1.050000 7.240325 15.908619 5.609163
4061 0 2 -1.050000 10.567652 17.631254 14.127754
4062 0 2 -1.050000 9.136935 15.991603 3.546103
4063 0 2 -1.050000 4.031948 28.278969 0.868565
4064 0 2 -1.050000 6.363886 28.532213 3.546103
4065 0 2 -1.050000 10.665952 25.121282 0.868565
4066 0 2 -1.050000 9.280667 27.014177 3.546103
4067 0 2 -1.050000 10.083587 18.137743 0.868565
4068 0 2 -1.050000 9.136935 15.991603 12.307682
4069 0 2 -1.050000 7.460054 16.200494 1.174636
4070 0 2 -1.050000 12.292444 28.278969 3.789091
4071 0 2 -1.050000 4.152551 25.374526 1.039123
4072 0 2 -1.050000 6.363886 28.532213 12.307682
4073 0 2 -1.050000 7.021422 26.975546 1.174636
4074 0 2 -1.050000 6.535704 17.967482 3.789091
4075 0 2 -1.050000 13.120972 26.677948 1.039123
4076 0 2 -1.050000 9.280667 27.014177 12.307682
4077 0 2 -1.050000 10.300012 28.361953 1.174636
4078 0 2 -1.050000 5.953339 25.291542 3.789091
4079 0 2 -1.050000 7.507965 19.485519 1.039123
4080 0 1 1.575000 20.651240 21.461398 13.339212
4081 0 1 1.575000 18.586116 25.038298 1.657107
4082 0 1 1.575000 24.781488 21.461398 1.657107
4083 0 1 1.575000 18.586116 17.884498 1.657107
4084 0 1 1.575000 20.651240 21.461398 4.577633
4085 0 1 1.575000 20.512050 18.125581 13.142369
4086 0 1 1.575000 14.595057 21.220315 13.536055
4087 0 1 1.575000 20.512050 18.125581 4.380790
4088 0 1 1.575000 23.609736 23.008765 13.142369
4089 0 1 1.575000 23.888115 16.337131 13.536055
4090 0 1 1.575000 23.609736 23.008765 4.380790
4091 0 1 1.575000 17.831933 23.249848 13.142369
4092 0 1 1.575000 23.470547 26.826747 13.536055
4093 0 1 1.575000 17.831933 23.249848 4.380790
4094 0 1 1.575000 18.446926 21.702481 1.460263
4095 0 1 1.575000 20.790429 24.797215 13.536055
4096 0 1 1.575000 21.544612 19.431865 1.460263
4097 0 1 1.575000 17.692743 19.914031 13.536055
4098 0 1 1.575000 21.962180 23.249848 1.460263
4099 0 1 1.575000 23.470547 19.672948 13.536055
4100 0 2 -1.050000 19.774801 19.777394 14.370742
4101 0 2 -1.050000 17.321434 26.722302 2.139578
4102 0 2 -1.050000 20.628936 17.548270 2.275090
4103 0 2 -1.050000 22.547850 21.544382 14.370742
4104 0 2 -1.050000 17.760066 15.947249 2.139578
4105 0 2 -1.050000 24.051260 23.398647 2.275090
4106 0 2 -1.050000 19.631069 23.062418 14.370742
4107 0 2 -1.050000 2.090732 21.714642 2.139578
4108 0 2 -1.050000 17.273523 23.437277 2.275090
4109 0 2 -1.050000 19.774801 19.777394 5.609163
4110 0 2 -1.050000 16.619292 21.797626 14.127754
4111 0 2 -1.050000 22.547850 21.544382 5.609163
4112 0 2 -1.050000 22.376031 17.801514 14.127754
4113 0 2 -1.050000 19.631069 23.062418 5.609163
4114 0 2 -1.050000 22.958396 24.785053 14.127754
4115 0 2 -1.050000 21.527678 23.145402 3.546103
4116 0 2 -1.050000 16.422692 21.125169 0.868565
4117 0 2 -1.050000 18.754630 21.378414 3.546103
4118 0 2 -1.050000 23.056696 17.967482 0.868565
4119 0 2 -1.050000 21.671411 19.860378 3.546103
4120 0 2 -1.050000 22.474331 25.291542 0.868565
4121 0 2 -1.050000 21.527678 23.145402 12.307682
4122 0 2 -1.050000 19.850798 23.354293 1.174636
4123 0 2 -1.050000 24.683188 21.125169 3.789091
4124 0 2 -1.050000 16.543295 18.220727 1.039123
4125 0 2 -1.050000 18.754630 21.378414 12.307682
4126 0 2 -1.050000 19.412165 19.821747 1.174636
4127 0 2 -1.050000 18.926448 25.121282 3.789091
4128 0 2 -1.050000 0.730228 19.524149 1.039123
4129 0 2 -1.050000 21.671411 19.860378 12.307682
4130 0 2 -1.050000 22.690756 21.208153 1.174636
4131 0 2 -1.050000 18.344083 18.137743 3.789091
4132 0 2 -1.050000 19.898709 26.639318 1.039123
4133 0 1 1.575000 0.000000 28.615197 19.180265
4134 0 1 1.575000 18.725305 28.374114 19.377108
4135 0 1 1.575000 2.958497 15.854965 18.983421
4136 0 1 1.575000 21.962180 16.096048 18.983421
4137 0 1 1.575000 21.822991 27.067830 19.377108
4138 0 1 1.575000 2.819307 26.826747 19.377108
4139 0 2 -1.050000 23.905049 26.931193 20.211795
4140 0 2 -1.050000 1.896610 14.390583 20.211795
4141 0 2 -1.050000 23.761316 15.908619 20.211795
4142 0 2 -1.050000 20.749540 14.643827 19.968807
4143 0 2 -1.050000 0.876439 15.991603 18.148735
4144 0 2 -1.050000 22.884878 28.532213 18.148735
4145 0 2 -1.050000 1.020171 27.014177 18.148735
4146 0 1 1.575000 15.627619 16.337131 19.377108
4147 0 1 1.575000 15.210051 26.826747 19.377108
4148 0 1 1.575000 3.991059 18.125581 16.062895
4149 0 1 1.575000 7.088745 23.008765 16.062895
4150 0 1 1.575000 1.310941 23.249848 16.062895
4151 0 2 -1.050000 3.253809 19.777394 17.291268
4152 0 3 -0.950000 3.110077 23.062418 17.291268
4153 0 2 -1.050000 5.006687 23.145402 15.228208
4154 0 2 -1.050000 5.150419 19.860378 15.228208
4155 0 2 -1.050000 2.405456 25.121282 15.471196
4156 0 2 -1.050000 1.823091 18.137743 15.471196
4157 0 1 1.575000 16.520992 28.615197 16.259738
4158 0 1 1.575000 16.381802 25.279381 16.062895
4159 0 1 1.575000 19.479488 15.854965 16.062895
4160 0 1 1.575000 13.701685 16.096048 16.062895
4161 0 2 -1.050000 15.644553 26.931193 17.291268
4162 0 2 -1.050000 18.417602 14.390583 17.291268
4163 0 2 -1.050000 15.500821 15.908619 17.291268
4164 0 2 -1.050000 17.397430 15.991603 15.228208
4165 0 2 -1.050000 14.624382 28.532213 15.228208
4166 0 2 -1.050000 17.541163 27.014177 15.228208
4167 0 2 -1.050000 20.552940 28.278969 15.471196
4168 0 2 -1.050000 14.796200 17.967482 15.471196
4169 0 2 -1.050000 14.213835 25.291542 15.471196
4170 0 1 1.575000 12.390744 28.615197 19.180265
4171 0 1 1.575000 10.325620 25.038298 16.259738
4172 0 1 1.575000 4.130248 28.615197 16.259738
4173 0 1 1.575000 10.325620 17.884498 16.259738
4174 0 1 1.575000 10.464809 28.374114 16.456582
4175 0 1 1.575000 7.367123 16.337131 16.456582
4176 0 1 1.575000 6.949555 26.826747 16.456582
4177 0 1 1.575000 4.269437 24.797215 16.456582
4178 0 1 1.575000 6.056183 14.548682 18.983421
4179 0 1 1.575000 13.562495 27.067830 16.456582
4180 0 1 1.575000 13.284116 19.431865 16.062895
4181 0 1 1.575000 9.153869 26.585664 18.983421
4182 0 1 1.575000 6.949555 19.672948 16.456582
4183 0 1 1.575000 1.310941 16.096048 16.062895
4184 0 1 1.575000 9.571437 16.096048 18.983421
4185 0 2 -1.050000 12.489044 14.643827 17.048280
4186 0 2 -1.050000 5.855040 17.801514 17.048280
4187 0 2 -1.050000 11.660516 16.244847 19.798248
4188 0 2 -1.050000 14.481475 14.560843 19.662736
4189 0 2 -1.050000 6.437404 24.785053 17.048280
4190 0 3 -0.950000 4.882779 16.283478 19.798248
4191 0 2 -1.050000 9.060938 26.722302 16.742209
4192 0 2 -1.050000 12.368441 17.548270 16.877722
4193 0 2 -1.050000 9.499570 15.947249 16.742209
4194 0 2 -1.050000 3.400020 16.244847 16.877722
4195 0 2 -1.050000 6.220979 14.560843 16.742209
4196 0 2 -1.050000 9.013027 23.437277 16.877722
4197 0 2 -1.050000 11.590302 23.354293 15.777267
4198 0 2 -1.050000 4.031948 28.278969 18.391723
4199 0 2 -1.050000 8.282799 18.220727 15.641755
4200 0 2 -1.050000 11.151669 19.821747 15.777267
4201 0 2 -1.050000 4.860476 26.677948 15.641755
4202 0 2 -1.050000 2.039516 28.361953 15.777267
4203 0 2 -1.050000 11.638213 26.639318 15.641755
4204 0 3 -0.950000 7.460054 16.200494 18.697794
4205 0 3 -0.950000 7.021422 26.975546 18.697794
4206 0 3 -0.950000 13.120972 26.677948 18.562281
4207 0 2 -1.050000 10.300012 28.361953 18.697794
4208 0 1 1.575000 22.716364 17.884498 16.259738
4209 0 1 1.575000 22.716364 25.038298 16.259738
4210 0 1 1.575000 19.757867 23.490931 16.456582
4211 0 1 1.575000 19.340299 19.672948 16.456582
4212 0 1 1.575000 16.660181 17.643415 16.456582
4213 0 1 1.575000 22.577174 14.548682 16.062895
4214 0 1 1.575000 1.171751 19.914031 16.456582
4215 0 1 1.575000 0.893373 26.585664 16.062895
4216 0 1 1.575000 19.340299 26.826747 16.456582
4217 0 1 1.575000 13.701685 23.249848 16.062895
4218 0 3 -0.950000 17.321434 26.722302 19.662736
4219 0 3 -0.950000 17.760066 15.947249 19.662736
4220 0 2 -1.050000 18.245783 24.955313 17.048280
4221 0 2 -1.050000 18.828148 17.631254 17.048280
4222 0 3 -0.950000 21.451682 19.568503 16.742209
4223 0 2 -1.050000 24.759184 24.702069 16.877722
4224 0 3 -0.950000 21.890314 23.101049 16.742209
4225 0 3 -0.950000 15.790764 23.398647 16.877722
4226 0 2 -1.050000 21.403771 16.283478 16.877722
4227 0 2 -1.050000 23.981046 16.200494 15.777267
4228 0 2 -1.050000 20.673543 25.374526 15.641755
4229 0 2 -1.050000 23.542413 26.975546 15.777267
4230 0 3 -0.950000 17.251220 19.524149 15.641755
4231 0 2 -1.050000 24.028957 19.485519 15.641755
4232 0 3 -0.950000 19.898709 26.639318 18.562281
4233 0 1 1.575000 24.781488 28.615197 1.657107
4234 0 1 1.575000 47.497851 17.884498 7.498159
4235 0 1 1.575000 28.911736 28.615197 7.498159
4236 0 1 1.575000 47.497851 25.038298 7.498159
4237 0 1 1.575000 49.562975 28.615197 10.418686
4238 0 1 1.575000 26.846612 25.038298 4.577633
4239 0 1 1.575000 45.432728 28.615197 4.577633
4240 0 1 1.575000 26.846612 17.884498 4.577633
4241 0 1 1.575000 49.423786 25.279381 1.460263
4242 0 1 1.575000 43.506793 28.374114 1.853950
4243 0 1 1.575000 26.985801 28.374114 4.774476
4244 0 1 1.575000 49.423786 25.279381 10.221842
4245 0 1 1.575000 27.739984 15.854965 1.460263
4246 0 1 1.575000 28.018363 23.490931 1.853950
4247 0 1 1.575000 48.669603 16.337131 4.774476
4248 0 1 1.575000 27.739984 15.854965 10.221842
4249 0 1 1.575000 46.743668 16.096048 1.460263
4250 0 1 1.575000 27.600795 19.672948 1.853950
4251 0 1 1.575000 48.252035 26.826747 4.774476
4252 0 1 1.575000 46.743668 16.096048 10.221842
4253 0 1 1.575000 45.571917 24.797215 4.774476
4254 0 1 1.575000 26.707422 21.702481 4.380790
4255 0 1 1.575000 47.358662 14.548682 7.301316
4256 0 1 1.575000 24.920677 17.643415 1.853950
4257 0 1 1.575000 30.083487 27.067830 4.774476
4258 0 1 1.575000 29.805108 19.431865 4.380790
4259 0 1 1.575000 25.674860 26.585664 7.301316
4260 0 1 1.575000 46.604479 27.067830 1.853950
4261 0 1 1.575000 48.252035 19.672948 4.774476
4262 0 1 1.575000 42.613420 16.096048 4.380790
4263 0 1 1.575000 26.092428 16.096048 7.301316
4264 0 1 1.575000 27.600795 26.826747 1.853950
4265 0 2 -1.050000 48.686537 26.931193 2.688637
4266 0 2 -1.050000 46.233170 19.568503 7.980630
4267 0 2 -1.050000 29.010036 14.643827 5.366175
4268 0 2 -1.050000 49.540672 24.702069 8.116143
4269 0 2 -1.050000 26.678098 14.390583 2.688637
4270 0 2 -1.050000 46.671802 23.101049 7.980630
4271 0 2 -1.050000 47.157519 17.801514 5.366175
4272 0 2 -1.050000 28.181508 16.244847 8.116143
4273 0 2 -1.050000 48.542804 15.908619 2.688637
4274 0 2 -1.050000 31.002467 14.560843 7.980630
4275 0 2 -1.050000 47.739884 24.785053 5.366175
4276 0 2 -1.050000 46.185259 16.283478 8.116143
4277 0 2 -1.050000 48.686537 26.931193 11.450216
4278 0 2 -1.050000 25.581930 26.722302 5.060104
4279 0 2 -1.050000 45.531027 14.643827 2.445649
4280 0 2 -1.050000 28.889432 17.548270 5.195616
4281 0 2 -1.050000 26.678098 14.390583 11.450216
4282 0 2 -1.050000 26.020562 15.947249 5.060104
4283 0 2 -1.050000 26.506279 24.955313 2.445649
4284 0 2 -1.050000 44.702500 16.244847 5.195616
4285 0 2 -1.050000 48.542804 15.908619 11.450216
4286 0 2 -1.050000 47.523459 14.560843 5.060104
4287 0 2 -1.050000 27.088644 17.631254 2.445649
4288 0 2 -1.050000 25.534019 23.437277 5.195616
4289 0 2 -1.050000 25.657926 15.991603 9.387156
4290 0 2 -1.050000 28.111294 23.354293 4.095162
4291 0 2 -1.050000 45.334428 28.278969 6.709617
4292 0 2 -1.050000 24.803791 18.220727 3.959650
4293 0 2 -1.050000 47.666366 28.532213 9.387156
4294 0 2 -1.050000 27.672661 19.821747 4.095162
4295 0 2 -1.050000 27.186944 25.121282 6.709617
4296 0 2 -1.050000 46.162955 26.677948 3.959650
4297 0 2 -1.050000 25.801659 27.014177 9.387156
4298 0 2 -1.050000 43.341996 28.361953 4.095162
4299 0 2 -1.050000 26.604579 18.137743 6.709617
4300 0 2 -1.050000 28.159205 26.639318 3.959650
4301 0 2 -1.050000 25.657926 15.991603 0.625577
4302 0 2 -1.050000 48.762533 16.200494 7.015688
4303 0 2 -1.050000 28.813436 28.278969 9.630144
4304 0 2 -1.050000 45.455031 25.374526 6.880176
4305 0 2 -1.050000 47.666366 28.532213 0.625577
4306 0 2 -1.050000 48.323901 26.975546 7.015688
4307 0 2 -1.050000 47.838184 17.967482 9.630144
4308 0 2 -1.050000 29.641964 26.677948 6.880176
4309 0 2 -1.050000 25.801659 27.014177 0.625577
4310 0 2 -1.050000 26.821004 28.361953 7.015688
4311 0 2 -1.050000 47.255819 25.291542 9.630144
4312 0 2 -1.050000 48.810444 19.485519 6.880176
4313 0 1 1.575000 37.172232 21.461398 1.657107
4314 0 1 1.575000 35.107108 25.038298 7.498159
4315 0 1 1.575000 41.302480 21.461398 7.498159
4316 0 1 1.575000 35.107108 17.884498 7.498159
4317 0 1 1.575000 37.172232 21.461398 10.418686
4318 0 1 1.575000 39.237356 17.884498 4.577633
4319 0 1 1.575000 33.041984 21.461398 4.577633
4320 0 1 1.575000 39.237356 25.038298 4.577633
4321 0 1 1.575000 37.033042 18.125581 1.460263
4322 0 1 1.575000 31.116049 21.220315 1.853950
4323 0 1 1.575000 39.376545 21.220315 4.774476
4324 0 1 1.575000 37.033042 18.125581 10.221842
4325 0 1 1.575000 40.130728 23.008765 1.460263
4326 0 1 1.575000 40.409107 16.337131 1.853950
4327 0 1 1.575000 36.278859 23.490931 4.774476
4328 0 1 1.575000 40.130728 23.008765 10.221842
4329 0 1 1.575000 34.352924 23.249848 1.460263
4330 0 1 1.575000 39.991539 26.826747 1.853950
4331 0 1 1.575000 35.861291 19.672948 4.774476
4332 0 1 1.575000 34.352924 23.249848 10.221842
4333 0 1 1.575000 33.181173 17.643415 4.774476
4334 0 1 1.575000 39.098166 14.548682 4.380790
4335 0 1 1.575000 34.967918 21.702481 7.301316
4336 0 1 1.575000 37.311421 24.797215 1.853950
4337 0 1 1.575000 42.474231 19.914031 4.774476
4338 0 1 1.575000 42.195852 26.585664 4.380790
4339 0 1 1.575000 38.065604 19.431865 7.301316
4340 0 1 1.575000 34.213735 19.914031 1.853950
4341 0 1 1.575000 35.861291 26.826747 4.774476
4342 0 1 1.575000 30.222676 23.249848 4.380790
4343 0 1 1.575000 38.483172 23.249848 7.301316
4344 0 1 1.575000 39.991539 19.672948 1.853950
4345 0 2 -1.050000 36.295793 19.777394 2.688637
4346 0 2 -1.050000 33.842426 26.722302 7.980630
4347 0 2 -1.050000 41.400779 21.797626 5.366175
4348 0 2 -1.050000 37.149928 17.548270 8.116143
4349 0 2 -1.050000 39.068841 21.544382 2.688637
4350 0 2 -1.050000 34.281058 15.947249 7.980630
4351 0 2 -1.050000 34.766775 24.955313 5.366175
4352 0 2 -1.050000 40.572252 23.398647 8.116143
4353 0 2 -1.050000 36.152060 23.062418 2.688637
4354 0 2 -1.050000 43.393211 21.714642 7.980630
4355 0 2 -1.050000 35.349140 17.631254 5.366175
4356 0 2 -1.050000 33.794515 23.437277 8.116143
4357 0 2 -1.050000 36.295793 19.777394 11.450216
4358 0 2 -1.050000 37.972674 19.568503 5.060104
4359 0 2 -1.050000 33.140284 21.797626 2.445649
4360 0 2 -1.050000 41.280176 24.702069 5.195616
4361 0 2 -1.050000 39.068841 21.544382 11.450216
4362 0 2 -1.050000 38.411306 23.101049 5.060104
4363 0 2 -1.050000 38.897023 17.801514 2.445649
4364 0 2 -1.050000 32.311756 23.398647 5.195616
4365 0 2 -1.050000 36.152060 23.062418 11.450216
4366 0 2 -1.050000 35.132715 21.714642 5.060104
4367 0 2 -1.050000 39.479388 24.785053 2.445649
4368 0 2 -1.050000 37.924763 16.283478 5.195616
4369 0 2 -1.050000 38.048670 23.145402 9.387156
4370 0 2 -1.050000 40.502037 16.200494 4.095162
4371 0 2 -1.050000 32.943684 21.125169 6.709617
4372 0 2 -1.050000 37.194535 25.374526 3.959650
4373 0 2 -1.050000 35.275622 21.378414 9.387156
4374 0 2 -1.050000 40.063405 26.975546 4.095162
4375 0 2 -1.050000 39.577688 17.967482 6.709617
4376 0 2 -1.050000 33.772211 19.524149 3.959650
4377 0 2 -1.050000 38.192403 19.860378 9.387156
4378 0 2 -1.050000 30.951252 21.208153 4.095162
4379 0 2 -1.050000 38.995323 25.291542 6.709617
4380 0 2 -1.050000 40.549948 19.485519 3.959650
4381 0 2 -1.050000 38.048670 23.145402 0.625577
4382 0 2 -1.050000 36.371790 23.354293 7.015688
4383 0 2 -1.050000 41.204180 21.125169 9.630144
4384 0 2 -1.050000 33.064287 18.220727 6.880176
4385 0 2 -1.050000 35.275622 21.378414 0.625577
4386 0 2 -1.050000 35.933157 19.821747 7.015688
4387 0 2 -1.050000 35.447440 25.121282 9.630144
4388 0 2 -1.050000 42.032707 19.524149 6.880176
4389 0 2 -1.050000 38.192403 19.860378 0.625577
4390 0 2 -1.050000 39.211748 21.208153 7.015688
4391 0 2 -1.050000 34.865075 18.137743 9.630144
4392 0 2 -1.050000 36.419700 26.639318 6.880176
4393 0 1 1.575000 28.911736 21.461398 7.498159
4394 0 1 1.575000 26.846612 25.038298 13.339212
4395 0 1 1.575000 33.041984 21.461398 13.339212
4396 0 1 1.575000 26.846612 17.884498 13.339212
4397 0 1 1.575000 30.976860 17.884498 10.418686
4398 0 1 1.575000 49.562975 21.461398 10.418686
4399 0 1 1.575000 30.976860 25.038298 10.418686
4400 0 1 1.575000 28.772546 18.125581 7.301316
4401 0 1 1.575000 47.637041 21.220315 7.695003
4402 0 1 1.575000 31.116049 21.220315 10.615529
4403 0 1 1.575000 31.870232 23.008765 7.301316
4404 0 1 1.575000 32.148611 16.337131 7.695003
4405 0 1 1.575000 28.018363 23.490931 10.615529
4406 0 1 1.575000 26.092428 23.249848 7.301316
4407 0 1 1.575000 31.731043 26.826747 7.695003
4408 0 1 1.575000 27.600795 19.672948 10.615529
4409 0 1 1.575000 24.920677 17.643415 10.615529
4410 0 1 1.575000 30.837670 14.548682 10.221842
4411 0 1 1.575000 26.707422 21.702481 13.142369
4412 0 1 1.575000 29.050925 24.797215 7.695003
4413 0 1 1.575000 34.213735 19.914031 10.615529
4414 0 1 1.575000 33.935356 26.585664 10.221842
4415 0 1 1.575000 29.805108 19.431865 13.142369
4416 0 1 1.575000 25.953239 19.914031 7.695003
4417 0 1 1.575000 27.600795 26.826747 10.615529
4418 0 1 1.575000 46.743668 23.249848 10.221842
4419 0 1 1.575000 30.222676 23.249848 13.142369
4420 0 1 1.575000 31.731043 19.672948 7.695003
4421 0 2 -1.050000 28.035297 19.777394 8.529689
4422 0 2 -1.050000 25.581930 26.722302 13.821683
4423 0 2 -1.050000 33.140284 21.797626 11.207228
4424 0 2 -1.050000 28.889432 17.548270 13.957195
4425 0 2 -1.050000 30.808346 21.544382 8.529689
4426 0 2 -1.050000 26.020562 15.947249 13.821683
4427 0 2 -1.050000 26.506279 24.955313 11.207228
4428 0 2 -1.050000 32.311756 23.398647 13.957195
4429 0 2 -1.050000 27.891564 23.062418 8.529689
4430 0 2 -1.050000 35.132715 21.714642 13.821683
4431 0 2 -1.050000 27.088644 17.631254 11.207228
4432 0 2 -1.050000 25.534019 23.437277 13.957195
4433 0 2 -1.050000 29.712178 19.568503 10.901157
4434 0 2 -1.050000 24.879788 21.797626 8.286701
4435 0 2 -1.050000 33.019680 24.702069 11.036669
4436 0 2 -1.050000 30.150810 23.101049 10.901157
4437 0 2 -1.050000 30.636527 17.801514 8.286701
4438 0 2 -1.050000 48.832748 23.398647 11.036669
4439 0 2 -1.050000 26.872219 21.714642 10.901157
4440 0 2 -1.050000 31.218892 24.785053 8.286701
4441 0 2 -1.050000 29.664267 16.283478 11.036669
4442 0 2 -1.050000 32.241542 16.200494 9.936215
4443 0 2 -1.050000 49.464676 21.125169 12.550670
4444 0 2 -1.050000 28.934039 25.374526 9.800702
4445 0 2 -1.050000 31.802909 26.975546 9.936215
4446 0 2 -1.050000 31.317192 17.967482 12.550670
4447 0 2 -1.050000 25.511716 19.524149 9.800702
4448 0 2 -1.050000 47.472244 21.208153 9.936215
4449 0 2 -1.050000 30.734827 25.291542 12.550670
4450 0 2 -1.050000 32.289452 19.485519 9.800702
4451 0 2 -1.050000 29.788174 23.145402 6.466629
4452 0 2 -1.050000 28.111294 23.354293 12.856741
4453 0 2 -1.050000 24.803791 18.220727 12.721229
4454 0 2 -1.050000 27.015126 21.378414 6.466629
4455 0 2 -1.050000 27.672661 19.821747 12.856741
4456 0 2 -1.050000 33.772211 19.524149 12.721229
4457 0 2 -1.050000 29.931907 19.860378 6.466629
4458 0 2 -1.050000 30.951252 21.208153 12.856741
4459 0 2 -1.050000 28.159205 26.639318 12.721229
4460 0 1 1.575000 41.302480 28.615197 7.498159
4461 0 1 1.575000 39.237356 17.884498 13.339212
4462 0 1 1.575000 45.432728 28.615197 13.339212
4463 0 1 1.575000 39.237356 25.038298 13.339212
4464 0 1 1.575000 43.367604 25.038298 10.418686
4465 0 1 1.575000 37.172232 28.615197 10.418686
4466 0 1 1.575000 43.367604 17.884498 10.418686
4467 0 1 1.575000 41.163290 25.279381 7.301316
4468 0 1 1.575000 35.246297 28.374114 7.695003
4469 0 1 1.575000 43.506793 28.374114 10.615529
4470 0 1 1.575000 44.260976 15.854965 7.301316
4471 0 1 1.575000 44.539355 23.490931 7.695003
4472 0 1 1.575000 40.409107 16.337131 10.615529
4473 0 1 1.575000 38.483172 16.096048 7.301316
4474 0 1 1.575000 44.121787 19.672948 7.695003
4475 0 1 1.575000 39.991539 26.826747 10.615529
4476 0 1 1.575000 37.311421 24.797215 10.615529
4477 0 1 1.575000 43.228414 21.702481 10.221842
4478 0 1 1.575000 39.098166 14.548682 13.142369
4479 0 1 1.575000 41.441669 17.643415 7.695003
4480 0 1 1.575000 46.604479 27.067830 10.615529
4481 0 1 1.575000 46.326100 19.431865 10.221842
4482 0 1 1.575000 42.195852 26.585664 13.142369
4483 0 1 1.575000 38.343983 27.067830 7.695003
4484 0 1 1.575000 39.991539 19.672948 10.615529
4485 0 1 1.575000 34.352924 16.096048 10.221842
4486 0 1 1.575000 42.613420 16.096048 13.142369
4487 0 1 1.575000 44.121787 26.826747 7.695003
4488 0 2 -1.050000 40.426041 26.931193 8.529689
4489 0 2 -1.050000 37.972674 19.568503 13.821683
4490 0 2 -1.050000 45.531027 14.643827 11.207228
4491 0 2 -1.050000 41.280176 24.702069 13.957195
4492 0 2 -1.050000 43.199089 14.390583 8.529689
4493 0 2 -1.050000 38.411306 23.101049 13.821683
4494 0 2 -1.050000 38.897023 17.801514 11.207228
4495 0 2 -1.050000 44.702500 16.244847 13.957195
4496 0 2 -1.050000 40.282308 15.908619 8.529689
4497 0 2 -1.050000 47.523459 14.560843 13.821683
4498 0 2 -1.050000 39.479388 24.785053 11.207228
4499 0 2 -1.050000 37.924763 16.283478 13.957195
4500 0 2 -1.050000 42.102922 26.722302 10.901157
4501 0 2 -1.050000 37.270531 14.643827 8.286701
4502 0 2 -1.050000 45.410424 17.548270 11.036669
4503 0 2 -1.050000 42.541554 15.947249 10.901157
4504 0 2 -1.050000 43.027271 24.955313 8.286701
4505 0 2 -1.050000 36.442004 16.244847 11.036669
4506 0 2 -1.050000 39.262963 14.560843 10.901157
4507 0 2 -1.050000 43.609636 17.631254 8.286701
4508 0 2 -1.050000 42.055011 23.437277 11.036669
4509 0 2 -1.050000 44.632285 23.354293 9.936215
4510 0 2 -1.050000 37.073932 28.278969 12.550670
4511 0 2 -1.050000 41.324783 18.220727 9.800702
4512 0 2 -1.050000 44.193653 19.821747 9.936215
4513 0 2 -1.050000 43.707936 25.121282 12.550670
4514 0 2 -1.050000 37.902459 26.677948 9.800702
4515 0 2 -1.050000 35.081500 28.361953 9.936215
4516 0 2 -1.050000 43.125571 18.137743 12.550670
4517 0 2 -1.050000 44.680196 26.639318 9.800702
4518 0 2 -1.050000 42.178918 15.991603 6.466629
4519 0 2 -1.050000 40.502037 16.200494 12.856741
4520 0 2 -1.050000 37.194535 25.374526 12.721229
4521 0 2 -1.050000 39.405870 28.532213 6.466629
4522 0 2 -1.050000 40.063405 26.975546 12.856741
4523 0 2 -1.050000 46.162955 26.677948 12.721229
4524 0 2 -1.050000 42.322651 27.014177 6.466629
4525 0 2 -1.050000 43.341996 28.361953 12.856741
4526 0 2 -1.050000 40.549948 19.485519 12.721229
4527 0 1 1.575000 33.041984 28.615197 13.339212
4528 0 1 1.575000 30.976860 17.884498 1.657107
4529 0 1 1.575000 37.172232 28.615197 1.657107
4530 0 1 1.575000 30.976860 25.038298 1.657107
4531 0 1 1.575000 33.041984 28.615197 4.577633
4532 0 1 1.575000 32.902794 25.279381 13.142369
4533 0 1 1.575000 26.985801 28.374114 13.536055
4534 0 1 1.575000 32.902794 25.279381 4.380790
4535 0 1 1.575000 36.000480 15.854965 13.142369
4536 0 1 1.575000 36.278859 23.490931 13.536055
4537 0 1 1.575000 36.000480 15.854965 4.380790
4538 0 1 1.575000 30.222676 16.096048 13.142369
4539 0 1 1.575000 35.861291 19.672948 13.536055
4540 0 1 1.575000 30.222676 16.096048 4.380790
4541 0 1 1.575000 30.837670 14.548682 1.460263
4542 0 1 1.575000 33.181173 17.643415 13.536055
4543 0 1 1.575000 33.935356 26.585664 1.460263
4544 0 1 1.575000 30.083487 27.067830 13.536055
4545 0 1 1.575000 34.352924 16.096048 1.460263
4546 0 1 1.575000 35.861291 26.826747 13.536055
4547 0 2 -1.050000 32.165545 26.931193 14.370742
4548 0 2 -1.050000 29.712178 19.568503 2.139578
4549 0 2 -1.050000 33.019680 24.702069 2.275090
4550 0 2 -1.050000 34.938593 14.390583 14.370742
4551 0 2 -1.050000 30.150810 23.101049 2.139578
4552 0 2 -1.050000 36.442004 16.244847 2.275090
4553 0 2 -1.050000 32.021812 15.908619 14.370742
4554 0 2 -1.050000 39.262963 14.560843 2.139578
4555 0 2 -1.050000 29.664267 16.283478 2.275090
4556 0 2 -1.050000 32.165545 26.931193 5.609163
4557 0 2 -1.050000 29.010036 14.643827 14.127754
4558 0 2 -1.050000 34.938593 14.390583 5.609163
4559 0 2 -1.050000 34.766775 24.955313 14.127754
4560 0 2 -1.050000 32.021812 15.908619 5.609163
4561 0 2 -1.050000 35.349140 17.631254 14.127754
4562 0 2 -1.050000 33.918422 15.991603 3.546103
4563 0 2 -1.050000 28.813436 28.278969 0.868565
4564 0 2 -1.050000 31.145374 28.532213 3.546103
4565 0 2 -1.050000 35.447440 25.121282 0.868565
4566 0 2 -1.050000 34.062155 27.014177 3.546103
4567 0 2 -1.050000 34.865075 18.137743 0.868565
4568 0 2 -1.050000 33.918422 15.991603 12.307682
4569 0 2 -1.050000 32.241542 16.200494 1.174636
4570 0 2 -1.050000 37.073932 28.278969 3.789091
4571 0 2 -1.050000 28.934039 25.374526 1.039123
4572 0 2 -1.050000 31.145374 28.532213 12.307682
4573 0 2 -1.050000 31.802909 26.975546 1.174636
4574 0 2 -1.050000 31.317192 17.967482 3.789091
4575 0 2 -1.050000 37.902459 26.677948 1.039123
4576 0 2 -1.050000 34.062155 27.014177 12.307682
4577 0 2 -1.050000 35.081500 28.361953 1.174636
4578 0 2 -1.050000 30.734827 25.291542 3.789091
4579 0 2 -1.050000 32.289452 19.485519 1.039123
4580 0 1 1.575000 45.432728 21.461398 13.339212
4581 0 1 1.575000 43.367604 25.038298 1.657107
4582 0 1 1.575000 49.562975 21.461398 1.657107
4583 0 1 1.575000 43.367604 17.884498 1.657107
4584 0 1 1.575000 45.432728 21.461398 4.577633
4585 0 1 1.575000 45.293538 18.125581 13.142369
4586 0 1 1.575000 39.376545 21.220315 13.536055
4587 0 1 1.575000 45.293538 18.125581 4.380790
4588 0 1 1.575000 48.391224 23.008765 13.142369
4589 0 1 1.575000 48.669603 16.337131 13.536055
4590 0 1 1.575000 48.391224 23.008765 4.380790
4591 0 1 1.575000 42.613420 23.249848 13.142369
4592 0 1 1.575000 48.252035 26.826747 13.536055
4593 0 1 1.575000 42.613420 23.249848 4.380790
4594 0 1 1.575000 43.228414 21.702481 1.460263
4595 0 1 1.575000 45.571917 24.797215 13.536055
4596 0 1 1.575000 46.326100 19.431865 1.460263
4597 0 1 1.575000 42.474231 19.914031 13.536055
4598 0 1 1.575000 46.743668 23.249848 1.460263
4599 0 1 1.575000 48.252035 19.672948 13.536055
4600 0 2 -1.050000 44.556289 19.777394 14.370742
4601 0 2 -1.050000 42.102922 26.722302 2.139578
4602 0 2 -1.050000 45.410424 17.548270 2.275090
4603 0 2 -1.050000 47.329337 21.544382 14.370742
4604 0 2 -1.050000 42.541554 15.947249 2.139578
4605 0 2 -1.050000 48.832748 23.398647 2.275090
4606 0 2 -1.050000 44.412556 23.062418 14.370742
4607 0 2 -1.050000 26.872219 21.714642 2.139578
4608 0 2 -1.050000 42.055011 23.437277 2.275090
4609 0 2 -1.050000 44.556289 19.777394 5.609163
4610 0 2 -1.050000 41.400779 21.797626 14.127754
4611 0 2 -1.050000 47.329337 21.544382 5.609163
4612 0 2 -1.050000 47.157519 17.801514 14.127754
4613 0 2 -1.050000 44.412556 23.062418 5.609163
4614 0 2 -1.050000 47.739884 24.785053 14.127754
4615 0 2 -1.050000 46.309166 23.145402 3.546103
4616 0 2 -1.050000 41.204180 21.125169 0.868565
4617 0 2 -1.050000 43.536118 21.378414 3.546103
4618 0 2 -1.050000 47.838184 17.967482 0.868565
4619 0 2 -1.050000 46.452899 19.860378 3.546103
4620 0 2 -1.050000 47.255819 25.291542 0.868565
4621 0 2 -1.050000 46.309166 23.145402 12.307682
4622 0 2 -1.050000 44.632285 23.354293 1.174636
4623 0 2 -1.050000 49.464676 21.125169 3.789091
4624 0 2 -1.050000 41.324783 18.220727 1.039123
4625 0 2 -1.050000 43.536118 21.378414 12.307682
4626 0 2 -1.050000 44.193653 19.821747 1.174636
4627 0 2 -1.050000 43.707936 25.121282 3.789091
4628 0 2 -1.050000 25.511716 19.524149 1.039123
4629 0 2 -1.050000 46.452899 19.860378 12.307682
4630 0 2 -1.050000 47.472244 21.208153 1.174636
4631 0 2 -1.050000 43.125571 18.137743 3.789091
4632 0 2 -1.050000 44.680196 26.639318 1.039123
4633 0 1 1.575000 24.781488 28.615197 19.180265
4634 0 1 1.575000 43.506793 28.374114 19.377108
4635 0 1 1.575000 27.739984 15.854965 18.983421
4636 0 1 1.575000 46.743668 16.096048 18.983421
4637 0 1 1.575000 46.604479 27.067830 19.377108
4638 0 1 1.575000 27.600795 26.826747 19.377108
4639 0 2 -1.050000 48.686537 26.931193 20.211795
4640 0 2 -1.050000 26.678098 14.390583 20.211795
4641 0 3 -0.950000 48.542804 15.908619 20.211795
4642 0 2 -1.050000 45.531027 14.643827 19.968807
4643 0 2 -1.050000 25.657926 15.991603 18.148735
4644 0 2 -1.050000 47.666366 28.532213 18.148735
4645 0 2 -1.050000 25.801659 27.014177 18.148735
4646 0 1 1.575000 40.409107 16.337131 19.377108
4647 0 1 1.575000 39.991539 26.826747 19.377108
4648 0 1 1.575000 28.772546 18.125581 16.062895
4649 0 1 1.575000 31.870232 23.008765 16.062895
4650 0 1 1.575000 26.092428 23.249848 16.062895
4651 0 2 -1.050000 28.035297 19.777394 17.291268
4652 0 3 -0.950000 27.891564 23.062418 17.291268
4653 0 2 -1.050000 29.788174 23.145402 15.228208
4654 0 2 -1.050000 29.931907 19.860378 15.228208
4655 0 2 -1.050000 27.186944 25.121282 15.471196
4656 0 2 -1.050000 26.604579 18.137743 15.471196
4657 0 1 1.575000 41.302480 28.615197 16.259738
4658 0 1 1.575000 41.163290 25.279381 16.062895
4659 0 1 1.575000 44.260976 15.854965 16.062895
4660 0 1 1.575000 38.483172 16.096048 16.062895
4661 0 2 -1.050000 40.426041 26.931193 17.291268
4662 0 2 -1.050000 43.199089 14.390583 17.291268
4663 0 2 -1.050000 40.282308 15.908619 17.291268
4664 0 2 -1.050000 42.178918 15.991603 15.228208
4665 0 2 -1.050000 39.405870 28.532213 15.228208
4666 0 2 -1.050000 42.322651 27.014177 15.228208
4667 0 2 -1.050000 45.334428 28.278969 15.471196
4668 0 2 -1.050000 39.577688 17.967482 15.471196
4669 0 2 -1.050000 38.995323 25.291542 15.471196
4670 0 1 1.575000 37.172232 28.615197 19.180265
4671 0 1 1.575000 35.107108 25.038298 16.259738
4672 0 1 1.575000 28.911736 28.615197 16.259738
4673 0 1 1.575000 35.107108 17.884498 16.259738
4674 0 1 1.575000 35.246297 28.374114 16.456582
4675 0 1 1.575000 32.148611 16.337131 16.456582
4676 0 1 1.575000 31.731043 26.826747 16.456582
4677 0 1 1.575000 29.050925 24.797215 16.456582
4678 0 1 1.575000 30.837670 14.548682 18.983421
4679 0 1 1.575000 38.343983 27.067830 16.456582
4680 0 1 1.575000 38.065604 19.431865 16.062895
4681 0 1 1.575000 33.935356 26.585664 18.983421
4682 0 1 1.575000 31.731043 19.672948 16.456582
4683 0 1 1.575000 26.092428 16.096048 16.062895
4684 0 1 1.575000 34.352924 16.096048 18.983421
4685 0 2 -1.050000 37.270531 14.643827 17.048280
4686 0 2 -1.050000 30.636527 17.801514 17.048280
4687 0 2 -1.050000 36.442004 16.244847 19.798248
4688 0 2 -1.050000 39.262963 14.560843 19.662736
4689 0 2 -1.050000 31.218892 24.785053 17.048280
4690 0 3 -0.950000 29.664267 16.283478 19.798248
4691 0 2 -1.050000 33.842426 26.722302 16.742209
4692 0 2 -1.050000 37.149928 17.548270 16.877722
4693 0 2 -1.050000 34.281058 15.947249 16.742209
4694 0 2 -1.050000 28.181508 16.244847 16.877722
4695 0 2 -1.050000 31.002467 14.560843 16.742209
4696 0 3 -0.950000 33.794515 23.437277 16.877722
4697 0 2 -1.050000 36.371790 23.354293 15.777267
4698 0 2 -1.050000 28.813436 28.278969 18.391723
4699 0 2 -1.050000 33.064287 18.220727 15.641755
4700 0 2 -1.050000 35.933157 19.821747 15.777267
4701 0 2 -1.050000 29.641964 26.677948 15.641755
4702 0 2 -1.050000 26.821004 28.361953 15.777267
4703 0 2 -1.050000 36.419700 26.639318 15.641755
4704 0 3 -0.950000 32.241542 16.200494 18.697794
4705 0 3 -0.950000 31.802909 26.975546 18.697794
4706 0 3 -0.950000 37.902459 26.677948 18.562281
4707 0 2 -1.050000 35.081500 28.361953 18.697794
4708 0 1 1.575000 47.497851 17.884498 16.259738
4709 0 1 1.575000 47.497851 25.038298 16.259738
4710 0 1 1.575000 44.539355 23.490931 16.456582
4711 0 1 1.575000 44.121787 19.672948 16.456582
4712 0 1 1.575000 41.441669 17.643415 16.456582
4713 0 1 1.575000 47.358662 14.548682 16.062895
4714 0 1 1.575000 25.953239 19.914031 16.456582
4715 0 1 1.575000 25.674860 26.585664 16.062895
4716 0 1 1.575000 44.121787 26.826747 16.456582
4717 0 1 1.575000 38.483172 23.249848 16.062895
4718 0 3 -0.950000 42.102922 26.722302 19.662736
4719 0 3 -0.950000 42.541554 15.947249 19.662736
4720 0 2 -1.050000 43.027271 24.955313 17.048280
4721 0 2 -1.050000 43.609636 17.631254 17.048280
4722 0 3 -0.950000 46.233170 19.568503 16.742209
4723 0 2 -1.050000 49.540672 24.702069 16.877722
4724 0 2 -1.050000 46.671802 23.101049 16.742209
4725 0 3 -0.950000 40.572252 23.398647 16.877722
4726 0 2 -1.050000 46.185259 16.283478 16.877722
4727 0 2 -1.050000 48.762533 16.200494 15.777267
4728 0 2 -1.050000 45.455031 25.374526 15.641755
4729 0 2 -1.050000 48.323901 26.975546 15.777267
4730 0 3 -0.950000 42.032707 19.524149 15.641755
4731 0 2 -1.050000 48.810444 19.485519 15.641755
4732 0 3 -0.950000 44.680196 26.639318 18.562281
4733 0 1 1.575000 49.562975 28.615197 1.657107
4734 0 1 1.575000 72.279339 17.884498 7.498159
4735 0 1 1.575000 53.693223 28.615197 7.498159
4736 0 1 1.575000 72.279339 25.038298 7.498159
4737 0 1 1.575000 74.344463 28.615197 10.418686
4738 0 1 1.575000 51.628099 25.038298 4.577633
4739 0 1 1.575000 70.214215 28.615197 4.577633
4740 0 1 1.575000 51.628099 17.884498 4.577633
4741 0 1 1.575000 74.205274 25.279381 1.460263
4742 0 1 1.575000 68.288281 28.374114 1.853950
4743 0 1 1.575000 51.767289 28.374114 4.774476
4744 0 1 1.575000 74.205274 25.279381 10.221842
4745 0 1 1.575000 52.521472 15.854965 1.460263
4746 0 1 1.575000 52.799851 23.490931 1.853950
4747 0 1 1.575000 73.451091 16.337131 4.774476
4748 0 1 1.575000 52.521472 15.854965 10.221842
4749 0 1 1.575000 71.525156 16.096048 1.460263
4750 0 1 1.575000 52.382283 19.672948 1.853950
4751 0 1 1.575000 73.033522 26.826747 4.774476
4752 0 1 1.575000 71.525156 16.096048 10.221842
4753 0 1 1.575000 70.353405 24.797215 4.774476
4754 0 1 1.575000 51.488910 21.702481 4.380790
4755 0 1 1.575000 72.140150 14.548682 7.301316
4756 0 1 1.575000 49.702165 17.643415 1.853950
4757 0 1 1.575000 54.864975 27.067830 4.774476
4758 0 1 1.575000 54.586596 19.431865 4.380790
4759 0 1 1.575000 50.456348 26.585664 7.301316
4760 0 1 1.575000 71.385967 27.067830 1.853950
4761 0 1 1.575000 73.033522 19.672948 4.774476
4762 0 1 1.575000 67.394908 16.096048 4.380790
4763 0 1 1.575000 50.873916 16.096048 7.301316
4764 0 1 1.575000 52.382283 26.826747 1.853950
4765 0 2 -1.050000 73.468025 26.931193 2.688637
4766 0 2 -1.050000 71.014657 19.568503 7.980630
4767 0 2 -1.050000 53.791523 14.643827 5.366175
4768 0 2 -1.050000 74.322160 24.702069 8.116143
4769 0 2 -1.050000 51.459585 14.390583 2.688637
4770 0 2 -1.050000 71.453290 23.101049 7.980630
4771 0 2 -1.050000 71.939007 17.801514 5.366175
4772 0 2 -1.050000 52.962996 16.244847 8.116143
4773 0 2 -1.050000 73.324292 15.908619 2.688637
4774 0 2 -1.050000 55.783955 14.560843 7.980630
4775 0 2 -1.050000 72.521372 24.785053 5.366175
4776 0 2 -1.050000 70.966746 16.283478 8.116143
4777 0 2 -1.050000 73.468025 26.931193 11.450216
4778 0 2 -1.050000 50.363418 26.722302 5.060104
4779 0 2 -1.050000 70.312515 14.643827 2.445649
4780 0 2 -1.050000 53.670920 17.548270 5.195616
4781 0 2 -1.050000 51.459585 14.390583 11.450216
4782 0 2 -1.050000 50.802050 15.947249 5.060104
4783 0 2 -1.050000 51.287767 24.955313 2.445649
4784 0 2 -1.050000 69.483987 16.244847 5.195616
4785 0 2 -1.050000 73.324292 15.908619 11.450216
4786 0 2 -1.050000 72.304947 14.560843 5.060104
4787 0 2 -1.050000 51.870132 17.631254 2.445649
4788 0 2 -1.050000 50.315507 23.437277 5.195616
4789 0 2 -1.050000 50.439414 15.991603 9.387156
4790 0 2 -1.050000 52.892781 23.354293 4.095162
4791 0 2 -1.050000 70.115915 28.278969 6.709617
4792 0 2 -1.050000 49.585279 18.220727 3.959650
4793 0 2 -1.050000 72.447853 28.532213 9.387156
4794 0 2 -1.050000 52.454149 19.821747 4.095162
4795 0 2 -1.050000 51.968432 25.121282 6.709617
4796 0 2 -1.050000 70.944443 26.677948 3.959650
4797 0 2 -1.050000 50.583147 27.014177 9.387156
4798 0 2 -1.050000 68.123484 28.361953 4.095162
4799 0 2 -1.050000 51.386067 18.137743 6.709617
4800 0 2 -1.050000 52.940692 26.639318 3.959650
4801 0 2 -1.050000 50.439414 15.991603 0.625577
4802 0 2 -1.050000 73.544021 16.200494 7.015688
4803 0 2 -1.050000 53.594924 28.278969 9.630144
4804 0 2 -1.050000 70.236519 25.374526 6.880176
4805 0 2 -1.050000 72.447853 28.532213 0.625577
4806 0 2 -1.050000 73.105389 26.975546 7.015688
4807 0 2 -1.050000 72.619672 17.967482 9.630144
4808 0 2 -1.050000 54.423451 26.677948 6.880176
4809 0 2 -1.050000 50.583147 27.014177 0.625577
4810 0 2 -1.050000 51.602492 28.361953 7.015688
4811 0 2 -1.050000 72.037307 25.291542 9.630144
4812 0 2 -1.050000 73.591932 19.485519 6.880176
4813 0 1 1.575000 61.953719 21.461398 1.657107
4814 0 1 1.575000 59.888595 25.038298 7.498159
4815 0 1 1.575000 66.083967 21.461398 7.498159
4816 0 1 1.575000 59.888595 17.884498 7.498159
4817 0 1 1.575000 61.953719 21.461398 10.418686
4818 0 1 1.575000 64.018843 17.884498 4.577633
4819 0 1 1.575000 57.823471 21.461398 4.577633
4820 0 1 1.575000 64.018843 25.038298 4.577633
4821 0 1 1.575000 61.814530 18.125581 1.460263
4822 0 1 1.575000 55.897537 21.220315 1.853950
4823 0 1 1.575000 64.158033 21.220315 4.774476
4824 0 1 1.575000 61.814530 18.125581 10.221842
4825 0 1 1.575000 64.912216 23.008765 1.460263
4826 0 1 1.575000 65.190595 16.337131 1.853950
4827 0 1 1.575000 61.060347 23.490931 4.774476
4828 0 1 1.575000 64.912216 23.008765 10.221842
4829 0 1 1.575000 59.134412 23.249848 1.460263
4830 0 1 1.575000 64.773027 26.826747 1.853950
4831 0 1 1.575000 60.642779 19.672948 4.774476
4832 0 1 1.575000 59.134412 23.249848 10.221842
4833 0 1 1.575000 57.962661 17.643415 4.774476
4834 0 1 1.575000 63.879654 14.548682 4.380790
4835 0 1 1.575000 59.749406 21.702481 7.301316
4836 0 1 1.575000 62.092909 24.797215 1.853950
4837 0 1 1.575000 67.255719 19.914031 4.774476
4838 0 1 1.575000 66.977340 26.585664 4.380790
4839 0 1 1.575000 62.847092 19.431865 7.301316
4840 0 1 1.575000 58.995223 19.914031 1.853950
4841 0 1 1.575000 60.642779 26.826747 4.774476
4842 0 1 1.575000 55.004164 23.249848 4.380790
4843 0 1 1.575000 63.264660 23.249848 7.301316
4844 0 1 1.575000 64.773027 19.672948 1.853950
4845 0 2 -1.050000 61.077281 19.777394 2.688637
4846 0 2 -1.050000 58.623913 26.722302 7.980630
4847 0 2 -1.050000 66.182267 21.797626 5.366175
4848 0 2 -1.050000 61.931416 17.548270 8.116143
4849 0 2 -1.050000 63.850329 21.544382 2.688637
4850 0 2 -1.050000 59.062546 15.947249 7.980630
4851 0 2 -1.050000 59.548263 24.955313 5.366175
4852 0 2 -1.050000 65.353739 23.398647 8.116143
4853 0 2 -1.050000 60.933548 23.062418 2.688637
4854 0 2 -1.050000 68.174699 21.714642 7.980630
4855 0 2 -1.050000 60.130628 17.631254 5.366175
4856 0 2 -1.050000 58.576003 23.437277 8.116143
4857 0 2 -1.050000 61.077281 19.777394 11.450216
4858 0 2 -1.050000 62.754161 19.568503 5.060104
4859 0 2 -1.050000 57.921771 21.797626 2.445649
4860 0 2 -1.050000 66.061664 24.702069 5.195616
4861 0 2 -1.050000 63.850329 21.544382 11.450216
4862 0 2 -1.050000 63.192794 23.101049 5.060104
4863 0 2 -1.050000 63.678511 17.801514 2.445649
4864 0 2 -1.050000 57.093244 23.398647 5.195616
4865 0 2 -1.050000 60.933548 23.062418 11.450216
4866 0 2 -1.050000 59.914203 21.714642 5.060104
4867 0 2 -1.050000 64.260876 24.785053 2.445649
4868 0 2 -1.050000 62.706250 16.283478 5.195616
4869 0 2 -1.050000 62.830158 23.145402 9.387156
4870 0 2 -1.050000 65.283525 16.200494 4.095162
4871 0 2 -1.050000 57.725171 21.125169 6.709617
4872 0 2 -1.050000 61.976023 25.374526 3.959650
4873 0 2 -1.050000 60.057109 21.378414 9.387156
4874 0 2 -1.050000 64.844893 26.975546 4.095162
4875 0 2 -1.050000 64.359176 17.967482 6.709617
4876 0 2 -1.050000 58.553699 19.524149 3.959650
4877 0 2 -1.050000 62.973891 19.860378 9.387156
4878 0 2 -1.050000 55.732740 21.208153 4.095162
4879 0 2 -1.050000 63.776811 25.291542 6.709617
4880 0 2 -1.050000 65.331436 19.485519 3.959650
4881 0 2 -1.050000 62.830158 23.145402 0.625577
4882 0 2 -1.050000 61.153277 23.354293 7.015688
4883 0 2 -1.050000 65.985667 21.125169 9.630144
4884 0 2 -1.050000 57.845775 18.220727 6.880176
4885 0 2 -1.050000 60.057109 21.378414 0.625577
4886 0 2 -1.050000 60.714645 19.821747 7.015688
4887 0 2 -1.050000 60.228928 25.121282 9.630144
4888 0 2 -1.050000 66.814195 19.524149 6.880176
4889 0 2 -1.050000 62.973891 19.860378 0.625577
4890 0 2 -1.050000 63.993236 21.208153 7.015688
4891 0 2 -1.050000 59.646563 18.137743 9.630144
4892 0 2 -1.050000 61.201188 26.639318 6.880176
4893 0 1 1.575000 53.693223 21.461398 7.498159
4894 0 1 1.575000 51.628099 25.038298 13.339212
4895 0 1 1.575000 57.823471 21.461398 13.339212
4896 0 1 1.575000 51.628099 17.884498 13.339212
4897 0 1 1.575000 55.758347 17.884498 10.418686
4898 0 1 1.575000 74.344463 21.461398 10.418686
4899 0 1 1.575000 55.758347 25.038298 10.418686
4900 0 1 1.575000 53.554034 18.125581 7.301316
4901 0 1 1.575000 72.418529 21.220315 7.695003
4902 0 1 1.575000 55.897537 21.220315 10.615529
4903 0 1 1.575000 56.651720 23.008765 7.301316
4904 0 1 1.575000 56.930099 16.337131 7.695003
4905 0 1 1.575000 52.799851 23.490931 10.615529
4906 0 1 1.575000 50.873916 23.249848 7.301316
4907 0 1 1.575000 56.512531 26.826747 7.695003
4908 0 1 1.575000 52.382283 19.672948 10.615529
4909 0 1 1.575000 49.702165 17.643415 10.615529
4910 0 1 1.575000 55.619158 14.548682 10.221842
4911 0 1 1.575000 51.488910 21.702481 13.142369
4912 0 1 1.575000 53.832413 24.797215 7.695003
4913 0 1 1.575000 58.995223 19.914031 10.615529
4914 0 1 1.575000 58.716844 26.585664 10.221842
4915 0 1 1.575000 54.586596 19.431865 13.142369
4916 0 1 1.575000 50.734727 19.914031 7.695003
4917 0 1 1.575000 52.382283 26.826747 10.615529
4918 0 1 1.575000 71.525156 23.249848 10.221842
4919 0 1 1.575000 55.004164 23.249848 13.142369
4920 0 1 1.575000 56.512531 19.672948 7.695003
4921 0 2 -1.050000 52.816785 19.777394 8.529689
4922 0 2 -1.050000 50.363418 26.722302 13.821683
4923 0 2 -1.050000 57.921771 21.797626 11.207228
4924 0 2 -1.050000 53.670920 17.548270 13.957195
4925 0 2 -1.050000 55.589833 21.544382 8.529689
4926 0 2 -1.050000 50.802050 15.947249 13.821683
4927 0 2 -1.050000 51.287767 24.955313 11.207228
4928 0 2 -1.050000 57.093244 23.398647 13.957195
4929 0 2 -1.050000 52.673052 23.062418 8.529689
4930 0 2 -1.050000 59.914203 21.714642 13.821683
4931 0 2 -1.050000 51.870132 17.631254 11.207228
4932 0 2 -1.050000 50.315507 23.437277 13.957195
4933 0 2 -1.050000 54.493665 19.568503 10.901157
4934 0 2 -1.050000 49.661275 21.797626 8.286701
4935 0 2 -1.050000 57.801168 24.702069 11.036669
4936 0 2 -1.050000 54.932298 23.101049 10.901157
4937 0 2 -1.050000 55.418015 17.801514 8.286701
4938 0 2 -1.050000 73.614235 23.398647 11.036669
4939 0 2 -1.050000 51.653707 21.714642 10.901157
4940 0 2 -1.050000 56.000380 24.785053 8.286701
4941 0 2 -1.050000 54.445755 16.283478 11.036669
4942 0 2 -1.050000 57.023029 16.200494 9.936215
4943 0 2 -1.050000 74.246163 21.125169 12.550670
4944 0 2 -1.050000 53.715527 25.374526 9.800702
4945 0 2 -1.050000 56.584397 26.975546 9.936215
4946 0 2 -1.050000 56.098680 17.967482 12.550670
4947 0 2 -1.050000 50.293203 19.524149 9.800702
4948 0 2 -1.050000 72.253732 21.208153 9.936215
4949 0 2 -1.050000 55.516315 25.291542 12.550670
4950 0 2 -1.050000 57.070940 19.485519 9.800702
4951 0 2 -1.050000 54.569662 23.145402 6.466629
4952 0 2 -1.050000 52.892781 23.354293 12.856741
4953 0 2 -1.050000 49.585279 18.220727 12.721229
4954 0 2 -1.050000 51.796614 21.378414 6.466629
4955 0 2 -1.050000 52.454149 19.821747 12.856741
4956 0 2 -1.050000 58.553699 19.524149 12.721229
4957 0 2 -1.050000 54.713395 19.860378 6.466629
4958 0 2 -1.050000 55.732740 21.208153 12.856741
4959 0 2 -1.050000 52.940692 26.639318 12.721229
4960 0 1 1.575000 66.083967 28.615197 7.498159
4961 0 1 1.575000 64.018843 17.884498 13.339212
4962 0 1 1.575000 70.214215 28.615197 13.339212
4963 0 1 1.575000 64.018843 25.038298 13.339212
4964 0 1 1.575000 68.149091 25.038298 10.418686
4965 0 1 1.575000 61.953719 28.615197 10.418686
4966 0 1 1.575000 68.149091 17.884498 10.418686
4967 0 1 1.575000 65.944778 25.279381 7.301316
4968 0 1 1.575000 60.027785 28.374114 7.695003
4969 0 1 1.575000 68.288281 28.374114 10.615529
4970 0 1 1.575000 69.042464 15.854965 7.301316
4971 0 1 1.575000 69.320843 23.490931 7.695003
4972 0 1 1.575000 65.190595 16.337131 10.615529
4973 0 1 1.575000 63.264660 16.096048 7.301316
4974 0 1 1.575000 68.903275 19.672948 7.695003
4975 0 1 1.575000 64.773027 26.826747 10.615529
4976 0 1 1.575000 62.092909 24.797215 10.615529
4977 0 1 1.575000 68.009902 21.702481 10.221842
4978 0 1 1.575000 63.879654 14.548682 13.142369
4979 0 1 1.575000 66.223157 17.643415 7.695003
4980 0 1 1.575000 71.385967 27.067830 10.615529
4981 0 1 1.575000 71.107588 19.431865 10.221842
4982 0 1 1.575000 66.977340 26.585664 13.142369
4983 0 1 1.575000 63.125471 27.067830 7.695003
4984 0 1 1.575000 64.773027 19.672948 10.615529
4985 0 1 1.575000 59.134412 16.096048 10.221842
4986 0 1 1.575000 67.394908 16.096048 13.142369
4987 0 1 1.575000 68.903275 26.826747 7.695003
4988 0 2 -1.050000 65.207529 26.931193 8.529689
4989 0 2 -1.050000 62.754161 19.568503 13.821683
4990 0 2 -1.050000 70.312515 14.643827 11.207228
4991 0 2 -1.050000 66.061664 24.702069 13.957195
4992 0 2 -1.050000 67.980577 14.390583 8.529689
4993 0 2 -1.050000 63.192794 23.101049 13.821683
4994 0 2 -1.050000 63.678511 17.801514 11.207228
4995 0 2 -1.050000 69.483987 16.244847 13.957195
4996 0 2 -1.050000 65.063796 15.908619 8.529689
4997 0 2 -1.050000 72.304947 14.560843 13.821683
4998 0 2 -1.050000 64.260876 24.785053 11.207228
4999 0 2 -1.050000 62.706250 16.283478 13.957195
5000 0 2 -1.050000 66.884409 26.722302 10.901157
5001 0 2 -1.050000 62.052019 14.643827 8.286701
5002 0 2 -1.050000 70.191912 17.548270 11.036669
5003 0 2 -1.050000 67.323042 15.947249 10.901157
5004 0 2 -1.050000 67.808759 24.955313 8.286701
5005 0 2 -1.050000 61.223491 16.244847 11.036669
5006 0 2 -1.050000 64.044451 14.560843 10.901157
5007 0 2 -1.050000 68.391124 17.631254 8.286701
5008 0 2 -1.050000 66.836498 23.437277 11.036669
5009 0 2 -1.050000 69.413773 23.354293 9.936215
5010 0 2 -1.050000 61.855419 28.278969 12.550670
5011 0 2 -1.050000 66.106271 18.220727 9.800702
5012 0 2 -1.050000 68.975141 19.821747 9.936215
5013 0 2 -1.050000 68.489424 25.121282 12.550670
5014 0 2 -1.050000 62.683947 26.677948 9.800702
5015 0 2 -1.050000 59.862988 28.361953 9.936215
5016 0 2 -1.050000 67.907059 18.137743 12.550670
5017 0 2 -1.050000 69.461684 26.639318 9.800702
5018 0 2 -1.050000 66.960406 15.991603 6.466629
5019 0 2 -1.050000 65.283525 16.200494 12.856741
5020 0 2 -1.050000 61.976023 25.374526 12.721229
5021 0 2 -1.050000 64.187357 28.532213 6.466629
5022 0 2 -1.050000 64.844893 26.975546 12.856741
5023 0 2 -1.050000 70.944443 26.677948 12.721229
5024 0 2 -1.050000 67.104139 27.014177 6.466629
5025 0 2 -1.050000 68.123484 28.361953 12.856741
5026 0 2 -1.050000 65.331436 19.485519 12.721229
5027 0 1 1.575000 57.823471 28.615197 13.339212
5028 0 1 1.575000 55.758347 17.884498 1.657107
5029 0 1 1.575000 61.953719 28.615197 1.657107
5030 0 1 1.575000 55.758347 25.038298 1.657107
5031 0 1 1.575000 57.823471 28.615197 4.577633
5032 0 1 1.575000 57.684282 25.279381 13.142369
5033 0 1 1.575000 51.767289 28.374114 13.536055
5034 0 1 1.575000 57.684282 25.279381 4.380790
5035 0 1 1.575000 60.781968 15.854965 13.142369
5036 0 1 1.575000 61.060347 23.490931 13.536055
5037 0 1 1.575000 60.781968 15.854965 4.380790
5038 0 1 1.575000 55.004164 16.096048 13.142369
5039 0 1 1.575000 60.642779 19.672948 13.536055
5040 0 1 1.575000 55.004164 16.096048 4.380790
5041 0 1 1.575000 55.619158 14.548682 1.460263
5042 0 1 1.575000 57.962661 17.643415 13.536055
5043 0 1 1.575000 58.716844 26.585664 1.460263
5044 0 1 1.575000 54.864975 27.067830 13.536055
5045 0 1 1.575000 59.134412 16.096048 1.460263
5046 0 1 1.575000 60.642779 26.826747 13.536055
5047 0 2 -1.050000 56.947033 26.931193 14.370742
5048 0 2 -1.050000 54.493665 19.568503 2.139578
5049 0 2 -1.050000 57.801168 24.702069 2.275090
5050 0 2 -1.050000 59.720081 14.390583 14.370742
5051 0 2 -1.050000 54.932298 23.101049 2.139578
5052 0 2 -1.050000 61.223491 16.244847 2.275090
5053 0 2 -1.050000 56.803300 15.908619 14.370742
5054 0 2 -1.050000 64.044451 14.560843 2.139578
5055 0 2 -1.050000 54.445755 16.283478 2.275090
5056 0 2 -1.050000 56.947033 26.931193 5.609163
5057 0 2 -1.050000 53.791523 14.643827 14.127754
5058 0 2 -1.050000 59.720081 14.390583 5.609163
5059 0 2 -1.050000 59.548263 24.955313 14.127754
5060 0 2 -1.050000 56.803300 15.908619 5.609163
5061 0 2 -1.050000 60.130628 17.631254 14.127754
5062 0 2 -1.050000 58.699910 15.991603 3.546103
5063 0 2 -1.050000 53.594924 28.278969 0.868565
5064 0 2 -1.050000 55.926862 28.532213 3.546103
5065 0 2 -1.050000 60.228928 25.121282 0.868565
5066 0 2 -1.050000 58.843643 27.014177 3.546103
5067 0 2 -1.050000 59.646563 18.137743 0.868565
5068 0 2 -1.050000 58.699910 15.991603 12.307682
5069 0 2 -1.050000 57.023029 16.200494 1.174636
5070 0 2 -1.050000 61.855419 28.278969 3.789091
5071 0 2 -1.050000 53.715527 25.374526 1.039123
5072 0 2 -1.050000 55.926862 28.532213 12.307682
5073 0 2 -1.050000 56.584397 26.975546 1.174636
5074 0 2 -1.050000 56.098680 17.967482 3.789091
5075 0 2 -1.050000 62.683947 26.677948 1.039123
5076 0 2 -1.050000 58.843643 27.014177 12.307682
5077 0 2 -1.050000 59.862988 28.361953 1.174636
5078 0 2 -1.050000 55.516315 25.291542 3.789091
5079 0 2 -1.050000 57.070940 19.485519 1.039123
5080 0 1 1.575000 70.214215 21.461398 13.339212
5081 0 1 1.575000 68.149091 25.038298 1.657107
5082 0 1 1.575000 74.344463 21.461398 1.657107
5083 0 1 1.575000 68.149091 17.884498 1.657107
5084 0 1 1.575000 70.214215 21.461398 4.577633
5085 0 1 1.575000 70.075026 18.125581 13.142369
5086 0 1 1.575000 64.158033 21.220315 13.536055
5087 0 1 1.575000 70.075026 18.125581 4.380790
5088 0 1 1.575000 73.172712 23.008765 13.142369
5089 0 1 1.575000 73.451091 16.337131 13.536055
5090 0 1 1.575000 73.172712 23.008765 4.380790
5091 0 1 1.575000 67.394908 23.249848 13.142369
5092 0 1 1.575000 73.033522 26.826747 13.536055
5093 0 1 1.575000 67.394908 23.249848 4.380790
5094 0 1 1.575000 68.009902 21.702481 1.460263
5095 0 1 1.575000 70.353405 24.797215 13.536055
5096 0 1 1.575000 71.107588 19.431865 1.460263
5097 0 1 1.575000 67.255719 19.914031 13.536055
5098 0 1 1.575000 71.525156 23.249848 1.460263
5099 0 1 1.575000 73.033522 19.672948 13.536055
5100 0 2 -1.050000 69.337777 19.777394 14.370742
5101 0 2 -1.050000 66.884409 26.722302 2.139578
5102 0 2 -1.050000 70.191912 17.548270 2.275090
5103 0 2 -1.050000 72.110825 21.544382 14.370742
5104 0 2 -1.050000 67.323042 15.947249 2.139578
5105 0 2 -1.050000 73.614235 23.398647 2.275090
5106 0 2 -1.050000 69.194044 23.062418 14.370742
5107 0 2 -1.050000 51.653707 21.714642 2.139578
5108 0 2 -1.050000 66.836498 23.437277 2.275090
5109 0 2 -1.050000 69.337777 19.777394 5.609163
5110 0 2 -1.050000 66.182267 21.797626 14.127754
5111 0 2 -1.050000 72.110825 21.544382 5.609163
5112 0 2 -1.050000 71.939007 17.801514 14.127754
5113 0 2 -1.050000 69.194044 23.062418 5.609163
5114 0 2 -1.050000 72.521372 24.785053 14.127754
5115 0 2 -1.050000 71.090654 23.145402 3.546103
5116 0 2 -1.050000 65.985667 21.125169 0.868565
5117 0 2 -1.050000 68.317605 21.378414 3.546103
5118 0 2 -1.050000 72.619672 17.967482 0.868565
5119 0 2 -1.050000 71.234386 19.860378 3.546103
5120 0 2 -1.050000 72.037307 25.291542 0.868565
5121 0 2 -1.050000 71.090654 23.145402 12.307682
5122 0 2 -1.050000 69.413773 23.354293 1.174636
5123 0 2 -1.050000 74.246163 21.125169 3.789091
5124 0 2 -1.050000 66.106271 18.220727 1.039123
5125 0 2 -1.050000 68.317605 21.378414 12.307682
5126 0 2 -1.050000 68.975141 19.821747 1.174636
5127 0 2 -1.050000 68.489424 25.121282 3.789091
5128 0 2 -1.050000 50.293203 19.524149 1.039123
5129 0 2 -1.050000 71.234386 19.860378 12.307682
5130 0 2 -1.050000 72.253732 21.208153 1.174636
5131 0 2 -1.050000 67.907059 18.137743 3.789091
5132 0 2 -1.050000 69.461684 26.639318 1.039123
5133 0 1 1.575000 49.562975 28.615197 19.180265
5134 0 1 1.575000 68.288281 28.374114 19.377108
5135 0 1 1.575000 52.521472 15.854965 18.983421
5136 0 1 1.575000 71.525156 16.096048 18.983421
5137 0 1 1.575000 71.385967 27.067830 19.377108
5138 0 1 1.575000 52.382283 26.826747 19.377108
5139 0 2 -1.050000 73.468025 26.931193 20.211795
5140 0 2 -1.050000 51.459585 14.390583 20.211795
5141 0 2 -1.050000 73.324292 15.908619 20.211795
5142 0 2 -1.050000 70.312515 14.643827 19.968807
5143 0 2 -1.050000 50.439414 15.991603 18.148735
5144 0 2 -1.050000 72.447853 28.532213 18.148735
5145 0 2 -1.050000 50.583147 27.014177 18.148735
5146 0 1 1.575000 65.190595 16.337131 19.377108
5147 0 1 1.575000 64.773027 26.826747 19.377108
5148 0 1 1.575000 53.554034 18.125581 16.062895
5149 0 1 1.575000 56.651720 23.008765 16.062895
5150 0 1 1.575000 50.873916 23.249848 16.062895
5151 0 2 -1.050000 52.816785 19.777394 17.291268
5152 0 3 -0.950000 52.673052 23.062418 17.291268
5153 0 2 -1.050000 54.569662 23.145402 15.228208
5154 0 2 -1.050000 54.713395 19.860378 15.228208
5155 0 2 -1.050000 51.968432 25.121282 15.471196
5156 0 2 -1.050000 51.386067 18.137743 15.471196
5157 0 1 1.575000 66.083967 28.615197 16.259738
5158 0 1 1.575000 65.944778 25.279381 16.062895
5159 0 1 1.575000 69.042464 15.854965 16.062895
5160 0 1 1.575000 63.264660 16.096048 16.062895
5161 0 2 -1.050000 65.207529 26.931193 17.291268
5162 0 2 -1.050000 67.980577 14.390583 17.291268
5163 0 2 -1.050000 65.063796 15.908619 17.291268
5164 0 2 -1.050000 66.960406 15.991603 15.228208
5165 0 2 -1.050000 64.187357 28.532213 15.228208
5166 0 2 -1.050000 67.104139 27.014177 15.228208
5167 0 2 -1.050000 70.115915 28.278969 15.471196
5168 0 2 -1.050000 64.359176 17.967482 15.471196
5169 0 2 -1.050000 63.776811 25.291542 15.471196
5170 0 1 1.575000 61.953719 28.615197 19.180265
5171 0 1 1.575000 59.888595 25.038298 16.259738
5172 0 1 1.575000 53.693223 28.615197 16.259738
5173 0 1 1.575000 59.888595 17.884498 16.259738
5174 0 1 1.575000 60.027785 28.374114 16.456582
5175 0 1 1.575000 56.930099 16.337131 16.456582
5176 0 1 1.575000 56.512531 26.826747 16.456582
5177 0 1 1.575000 53.832413 24.797215 16.456582
5178 0 1 1.575000 55.619158 14.548682 18.983421
5179 0 1 1.575000 63.125471 27.067830 16.456582
5180 0 1 1.575000 62.847092 19.431865 16.062895
5181 0 1 1.575000 58.716844 26.585664 18.983421
5182 0 1 1.575000 56.512531 19.672948 16.456582
5183 0 1 1.575000 50.873916 16.096048 16.062895
5184 0 1 1.575000 59.134412 16.096048 18.983421
5185 0 2 -1.050000 62.052019 14.643827 17.048280
5186 0 2 -1.050000 55.418015 17.801514 17.048280
5187 0 2 -1.050000 61.223491 16.244847 19.798248
5188 0 2 -1.050000 64.044451 14.560843 19.662736
5189 0 2 -1.050000 56.000380 24.785053 17.048280
5190 0 3 -0.950000 54.445755 16.283478 19.798248
5191 0 2 -1.050000 58.623913 26.722302 16.742209
5192 0 2 -1.050000 61.931416 17.548270 16.877722
5193 0 2 -1.050000 59.062546 15.947249 16.742209
5194 0 2 -1.050000 52.962996 16.244847 16.877722
5195 0 2 -1.050000 55.783955 14.560843 16.742209
5196 0 3 -0.950000 58.576003 23.437277 16.877722
5197 0 2 -1.050000 61.153277 23.354293 15.777267
5198 0 2 -1.050000 53.594924 28.278969 18.391723
5199 0 2 -1.050000 57.845775 18.220727 15.641755
5200 0 2 -1.050000 60.714645 19.821747 15.777267
5201 0 2 -1.050000 54.423451 26.677948 15.641755
5202 0 2 -1.050000 51.602492 28.361953 15.777267
5203 0 2 -1.050000 61.201188 26.639318 15.641755
5204 0 3 -0.950000 57.023029 16.200494 18.697794
5205 0 3 -0.950000 56.584397 26.975546 18.697794
5206 0 3 -0.950000 62.683947 26.677948 18.562281
5207 0 2 -1.050000 59.862988 28.361953 18.697794
5208 0 1 1.575000 72.279339 17.884498 16.259738
5209 0 1 1.575000 72.279339 25.038298 16.259738
5210 0 1 1.575000 69.320843 23.490931 16.456582
5211 0 1 1.575000 68.903275 19.672948 16.456582
5212 0 1 1.575000 66.223157 17.643415 16.456582
5213 0 1 1.575000 72.140150 14.548682 16.062895
5214 0 1 1.575000 50.734727 19.914031 16.456582
5215 0 1 1.575000 50.456348 26.585664 16.062895
5216 0 1 1.575000 68.903275 26.826747 16.456582
5217 0 1 1.575000 63.264660 23.249848 16.062895
5218 0 3 -0.950000 66.884409 26.722302 19.662736
5219 0 3 -0.950000 67.323042 15.947249 19.662736
5220 0 3 -0.950000 67.808759 24.955313 17.048280
5221 0 2 -1.050000 68.391124 17.631254 17.048280
5222 0 3 -0.950000 71.014657 19.568503 16.742209
5223 0 2 -1.050000 74.322160 24.702069 16.877722
5224 0 2 -1.050000 71.453290 23.101049 16.742209
5225 0 3 -0.950000 65.353739 23.398647 16.877722
5226 0 2 -1.050000 70.966746 16.283478 16.877722
5227 0 2 -1.050000 73.544021 16.200494 15.777267
5228 0 2 -1.050000 70.236519 25.374526 15.641755
5229 0 2 -1.050000 73.105389 26.975546 15.777267
5230 0 3 -0.950000 66.814195 19.524149 15.641755
5231 0 2 -1.050000 73.591932 19.485519 15.641755
5232 0 3 -0.950000 69.461684 26.639318 18.562281
5233 0 1 1.575000 74.344463 28.615197 1.657107
5234 0 1 1.575000 97.060827 17.884498 7.498159
5235 0 1 1.575000 78.474711 28.615197 7.498159
5236 0 1 1.575000 97.060827 25.038298 7.498159
5237 0 1 1.575000 99.125951 28.615197 10.418686
5238 0 1 1.575000 76.409587 25.038298 4.577633
5239 0 1 1.575000 94.995703 28.615197 4.577633
5240 0 1 1.575000 76.409587 17.884498 4.577633
5241 0 1 1.575000 98.986762 25.279381 1.460263
5242 0 1 1.575000 93.069768 28.374114 1.853950
5243 0 1 1.575000 76.548777 28.374114 4.774476
5244 0 1 1.575000 98.986762 25.279381 10.221842
5245 0 1 1.575000 77.302960 15.854965 1.460263
5246 0 1 1.575000 77.581339 23.490931 1.853950
5247 0 1 1.575000 98.232578 16.337131 4.774476
5248 0 1 1.575000 77.302960 15.854965 10.221842
5249 0 1 1.575000 96.306644 16.096048 1.460263
5250 0 1 1.575000 77.163770 19.672948 1.853950
5251 0 1 1.575000 97.815010 26.826747 4.774476
5252 0 1 1.575000 96.306644 16.096048 10.221842
5253 0 1 1.575000 95.134892 24.797215 4.774476
5254 0 1 1.575000 76.270398 21.702481 4.380790
5255 0 1 1.575000 96.921638 14.548682 7.301316
5256 0 1 1.575000 74.483653 17.643415 1.853950
5257 0 1 1.575000 79.646462 27.067830 4.774476
5258 0 1 1.575000 79.368084 19.431865 4.380790
5259 0 1 1.575000 75.237836 26.585664 7.301316
5260 0 1 1.575000 96.167454 27.067830 1.853950
5261 0 1 1.575000 97.815010 19.672948 4.774476
5262 0 1 1.575000 92.176396 16.096048 4.380790
5263 0 1 1.575000 75.655404 16.096048 7.301316
5264 0 1 1.575000 77.163770 26.826747 1.853950
5265 0 2 -1.050000 98.249512 26.931193 2.688637
5266 0 2 -1.050000 95.796145 19.568503 7.980630
5267 0 2 -1.050000 78.573011 14.643827 5.366175
5268 0 2 -1.050000 99.103648 24.702069 8.116143
5269 0 2 -1.050000 76.241073 14.390583 2.688637
5270 0 2 -1.050000 96.234777 23.101049 7.980630
5271 0 2 -1.050000 96.720495 17.801514 5.366175
5272 0 2 -1.050000 77.744483 16.244847 8.116143
5273 0 2 -1.050000 98.105780 15.908619 2.688637
5274 0 2 -1.050000 80.565443 14.560843 7.980630
5275 0 2 -1.050000 97.302859 24.785053 5.366175
5276 0 2 -1.050000 95.748234 16.283478 8.116143
5277 0 2 -1.050000 98.249512 26.931193 11.450216
5278 0 2 -1.050000 75.144905 26.722302 5.060104
5279 0 2 -1.050000 95.094003 14.643827 2.445649
5280 0 2 -1.050000 78.452408 17.548270 5.195616
5281 0 2 -1.050000 76.241073 14.390583 11.450216
5282 0 2 -1.050000 75.583538 15.947249 5.060104
5283 0 2 -1.050000 76.069255 24.955313 2.445649
5284 0 2 -1.050000 94.265475 16.244847 5.195616
5285 0 2 -1.050000 98.105780 15.908619 11.450216
5286 0 2 -1.050000 97.086434 14.560843 5.060104
5287 0 2 -1.050000 76.651620 17.631254 2.445649
5288 0 2 -1.050000 75.096994 23.437277 5.195616
5289 0 2 -1.050000 75.220902 15.991603 9.387156
5290 0 2 -1.050000 77.674269 23.354293 4.095162
5291 0 2 -1.050000 94.897403 28.278969 6.709617
5292 0 2 -1.050000 74.366767 18.220727 3.959650
5293 0 2 -1.050000 97.229341 28.532213 9.387156
5294 0 2 -1.050000 77.235637 19.821747 4.095162
5295 0 2 -1.050000 76.749920 25.121282 6.709617
5296 0 2 -1.050000 95.725931 26.677948 3.959650
5297 0 2 -1.050000 75.364634 27.014177 9.387156
5298 0 2 -1.050000 92.904971 28.361953 4.095162
5299 0 2 -1.050000 76.167555 18.137743 6.709617
5300 0 2 -1.050000 77.722180 26.639318 3.959650
5301 0 2 -1.050000 75.220902 15.991603 0.625577
5302 0 2 -1.050000 98.325509 16.200494 7.015688
5303 0 2 -1.050000 78.376411 28.278969 9.630144
5304 0 2 -1.050000 95.018006 25.374526 6.880176
5305 0 2 -1.050000 97.229341 28.532213 0.625577
5306 0 2 -1.050000 97.886877 26.975546 7.015688
5307 0 2 -1.050000 97.401159 17.967482 9.630144
5308 0 2 -1.050000 79.204939 26.677948 6.880176
5309 0 2 -1.050000 75.364634 27.014177 0.625577
5310 0 2 -1.050000 76.383980 28.361953 7.015688
5311 0 2 -1.050000 96.818794 25.291542 9.630144
5312 0 2 -1.050000 98.373420 19.485519 6.880176
5313 0 1 1.575000 86.735207 21.461398 1.657107
5314 0 1 1.575000 84.670083 25.038298 7.498159
5315 0 1 1.575000 90.865455 21.461398 7.498159
5316 0 1 1.575000 84.670083 17.884498 7.498159
5317 0 1 1.575000 86.735207 21.461398 10.418686
5318 0 1 1.575000 88.800331 17.884498 4.577633
5319 0 1 1.575000 82.604959 21.461398 4.577633
5320 0 1 1.575000 88.800331 25.038298 4.577633
5321 0 1 1.575000 86.596018 18.125581 1.460263
5322 0 1 1.575000 80.679024 21.220315 1.853950
5323 0 1 1.575000 88.939520 21.220315 4.774476
5324 0 1 1.575000 86.596018 18.125581 10.221842
5325 0 1 1.575000 89.693704 23.008765 1.460263
5326 0 1 1.575000 89.972082 16.337131 1.853950
5327 0 1 1.575000 85.841834 23.490931 4.774476
5328 0 1 1.575000 89.693704 23.008765 10.221842
5329 0 1 1.575000 83.915900 23.249848 1.460263
5330 0 1 1.575000 89.554514 26.826747 1.853950
5331 0 1 1.575000 85.424266 19.672948 4.774476
5332 0 1 1.575000 83.915900 23.249848 10.221842
5333 0 1 1.575000 82.744148 17.643415 4.774476
5334 0 1 1.575000 88.661142 14.548682 4.380790
5335 0 1 1.575000 84.530894 21.702481 7.301316
5336 0 1 1.575000 86.874396 24.797215 1.853950
5337 0 1 1.575000 92.037206 19.914031 4.774476
5338 0 1 1.575000 91.758828 26.585664 4.380790
5339 0 1 1.575000 87.628580 19.431865 7.301316
5340 0 1 1.575000 83.776710 19.914031 1.853950
5341 0 1 1.575000 85.424266 26.826747 4.774476
5342 0 1 1.575000 79.785652 23.249848 4.380790
5343 0 1 1.575000 88.046148 23.249848 7.301316
5344 0 1 1.575000 89.554514 19.672948 1.853950
5345 0 2 -1.050000 85.858768 19.777394 2.688637
5346 0 2 -1.050000 83.405401 26.722302 7.980630
5347 0 2 -1.050000 90.963755 21.797626 5.366175
5348 0 2 -1.050000 86.712904 17.548270 8.116143
5349 0 2 -1.050000 88.631817 21.544382 2.688637
5350 0 2 -1.050000 83.844033 15.947249 7.980630
5351 0 2 -1.050000 84.329751 24.955313 5.366175
5352 0 2 -1.050000 90.135227 23.398647 8.116143
5353 0 2 -1.050000 85.715036 23.062418 2.688637
5354 0 2 -1.050000 92.956187 21.714642 7.980630
5355 0 2 -1.050000 84.912116 17.631254 5.366175
5356 0 2 -1.050000 83.357490 23.437277 8.116143
5357 0 2 -1.050000 85.858768 19.777394 11.450216
5358 0 2 -1.050000 87.535649 19.568503 5.060104
5359 0 2 -1.050000 82.703259 21.797626 2.445649
5360 0 2 -1.050000 90.843152 24.702069 5.195616
5361 0 2 -1.050000 88.631817 21.544382 11.450216
5362 0 2 -1.050000 87.974281 23.101049 5.060104
5363 0 2 -1.050000 88.459999 17.801514 2.445649
5364 0 2 -1.050000 81.874731 23.398647 5.195616
5365 0 2 -1.050000 85.715036 23.062418 11.450216
5366 0 2 -1.050000 84.695691 21.714642 5.060104
5367 0 2 -1.050000 89.042364 24.785053 2.445649
5368 0 2 -1.050000 87.487738 16.283478 5.195616
5369 0 2 -1.050000 87.611646 23.145402 9.387156
5370 0 2 -1.050000 90.065013 16.200494 4.095162
5371 0 2 -1.050000 82.506659 21.125169 6.709617
5372 0 2 -1.050000 86.757510 25.374526 3.959650
5373 0 2 -1.050000 84.838597 21.378414 9.387156
5374 0 2 -1.050000 89.626381 26.975546 4.095162
5375 0 2 -1.050000 89.140663 17.967482 6.709617
5376 0 2 -1.050000 83.335187 19.524149 3.959650
5377 0 2 -1.050000 87.755378 19.860378 9.387156
5378 0 2 -1.050000 80.514228 21.208153 4.095162
5379 0 2 -1.050000 88.558298 25.291542 6.709617
5380 0 2 -1.050000 90.112924 19.485519 3.959650
5381 0 2 -1.050000 87.611646 23.145402 0.625577
5382 0 2 -1.050000 85.934765 23.354293 7.015688
5383 0 2 -1.050000 90.767155 21.125169 9.630144
5384 0 2 -1.050000 82.627262 18.220727 6.880176
5385 0 2 -1.050000 84.838597 21.378414 0.625577
5386 0 2 -1.050000 85.496133 19.821747 7.015688
5387 0 2 -1.050000 85.010416 25.121282 9.630144
5388 0 2 -1.050000 91.595683 19.524149 6.880176
5389 0 2 -1.050000 87.755378 19.860378 0.625577
5390 0 2 -1.050000 88.774723 21.208153 7.015688
5391 0 2 -1.050000 84.428051 18.137743 9.630144
5392 0 2 -1.050000 85.982676 26.639318 6.880176
5393 0 1 1.575000 78.474711 21.461398 7.498159
5394 0 1 1.575000 76.409587 25.038298 13.339212
5395 0 1 1.575000 82.604959 21.461398 13.339212
5396 0 1 1.575000 76.409587 17.884498 13.339212
5397 0 1 1.575000 80.539835 17.884498 10.418686
5398 0 1 1.575000 99.125951 21.461398 10.418686
5399 0 1 1.575000 80.539835 25.038298 10.418686
5400 0 1 1.575000 78.335522 18.125581 7.301316
5401 0 1 1.575000 97.200016 21.220315 7.695003
5402 0 1 1.575000 80.679024 21.220315 10.615529
5403 0 1 1.575000 81.433208 23.008765 7.301316
5404 0 1 1.575000 81.711586 16.337131 7.695003
5405 0 1 1.575000 77.581339 23.490931 10.615529
5406 0 1 1.575000 75.655404 23.249848 7.301316
5407 0 1 1.575000 81.294018 26.826747 7.695003
5408 0 1 1.575000 77.163770 19.672948 10.615529
5409 0 1 1.575000 74.483653 17.643415 10.615529
5410 0 1 1.575000 80.400646 14.548682 10.221842
5411 0 1 1.575000 76.270398 21.702481 13.142369
5412 0 1 1.575000 78.613900 24.797215 7.695003
5413 0 1 1.575000 83.776710 19.914031 10.615529
5414 0 1 1.575000 83.498332 26.585664 10.221842
5415 0 1 1.575000 79.368084 19.431865 13.142369
5416 0 1 1.575000 75.516215 19.914031 7.695003
5417 0 1 1.575000 77.163770 26.826747 10.615529
5418 0 1 1.575000 96.306644 23.249848 10.221842
5419 0 1 1.575000 79.785652 23.249848 13.142369
5420 0 1 1.575000 81.294018 19.672948 7.695003
5421 0 2 -1.050000 77.598273 19.777394 8.529689
5422 0 2 -1.050000 75.144905 26.722302 13.821683
5423 0 2 -1.050000 82.703259 21.797626 11.207228
5424 0 2 -1.050000 78.452408 17.548270 13.957195
5425 0 2 -1.050000 80.371321 21.544382 8.529689
5426 0 2 -1.050000 75.583538 15.947249 13.821683
5427 0 2 -1.050000 76.069255 24.955313 11.207228
5428 0 2 -1.050000 81.874731 23.398647 13.957195
5429 0 2 -1.050000 77.454540 23.062418 8.529689
5430 0 2 -1.050000 84.695691 21.714642 13.821683
5431 0 2 -1.050000 76.651620 17.631254 11.207228
5432 0 2 -1.050000 75.096994 23.437277 13.957195
5433 0 2 -1.050000 79.275153 19.568503 10.901157
5434 0 2 -1.050000 74.442763 21.797626 8.286701
5435 0 2 -1.050000 82.582656 24.702069 11.036669
5436 0 2 -1.050000 79.713786 23.101049 10.901157
5437 0 2 -1.050000 80.199503 17.801514 8.286701
5438 0 2 -1.050000 98.395723 23.398647 11.036669
5439 0 2 -1.050000 76.435195 21.714642 10.901157
5440 0 2 -1.050000 80.781868 24.785053 8.286701
5441 0 2 -1.050000 79.227242 16.283478 11.036669
5442 0 2 -1.050000 81.804517 16.200494 9.936215
5443 0 2 -1.050000 99.027651 21.125169 12.550670
5444 0 2 -1.050000 78.497014 25.374526 9.800702
5445 0 2 -1.050000 81.365885 26.975546 9.936215
5446 0 2 -1.050000 80.880168 17.967482 12.550670
5447 0 2 -1.050000 75.074691 19.524149 9.800702
5448 0 2 -1.050000 97.035219 21.208153 9.936215
5449 0 2 -1.050000 80.297803 25.291542 12.550670
5450 0 2 -1.050000 81.852428 19.485519 9.800702
5451 0 2 -1.050000 79.351150 23.145402 6.466629
5452 0 2 -1.050000 77.674269 23.354293 12.856741
5453 0 2 -1.050000 74.366767 18.220727 12.721229
5454 0 2 -1.050000 76.578101 21.378414 6.466629
5455 0 2 -1.050000 77.235637 19.821747 12.856741
5456 0 2 -1.050000 83.335187 19.524149 12.721229
5457 0 2 -1.050000 79.494882 19.860378 6.466629
5458 0 2 -1.050000 80.514228 21.208153 12.856741
5459 0 2 -1.050000 77.722180 26.639318 12.721229
5460 0 1 1.575000 90.865455 28.615197 7.498159
5461 0 1 1.575000 88.800331 17.884498 13.339212
5462 0 1 1.575000 94.995703 28.615197 13.339212
5463 0 1 1.575000 88.800331 25.038298 13.339212
5464 0 1 1.575000 92.930579 25.038298 10.418686
5465 0 1 1.575000 86.735207 28.615197 10.418686
5466 0 1 1.575000 92.930579 17.884498 10.418686
5467 0 1 1.575000 90.726266 25.279381 7.301316
5468 0 1 1.575000 84.809272 28.374114 7.695003
5469 0 1 1.575000 93.069768 28.374114 10.615529
5470 0 1 1.575000 93.823952 15.854965 7.301316
5471 0 1 1.575000 94.102330 23.490931 7.695003
5472 0 1 1.575000 89.972082 16.337131 10.615529
5473 0 1 1.575000 88.046148 16.096048 7.301316
5474 0 1 1.575000 93.684762 19.672948 7.695003
5475 0 1 1.575000 89.554514 26.826747 10.615529
5476 0 1 1.575000 86.874396 24.797215 10.615529
5477 0 1 1.575000 92.791390 21.702481 10.221842
5478 0 1 1.575000 88.661142 14.548682 13.142369
5479 0 1 1.575000 91.004644 17.643415 7.695003
5480 0 1 1.575000 96.167454 27.067830 10.615529
5481 0 1 1.575000 95.889076 19.431865 10.221842
5482 0 1 1.575000 91.758828 26.585664 13.142369
5483 0 1 1.575000 87.906958 27.067830 7.695003
5484 0 1 1.575000 89.554514 19.672948 10.615529
5485 0 1 1.575000 83.915900 16.096048 10.221842
5486 0 1 1.575000 92.176396 16.096048 13.142369
5487 0 1 1.575000 93.684762 26.826747 7.695003
5488 0 2 -1.050000 89.989016 26.931193 8.529689
5489 0 2 -1.050000 87.535649 19.568503 13.821683
5490 0 2 -1.050000 95.094003 14.643827 11.207228
5491 0 2 -1.050000 90.843152 24.702069 13.957195
5492 0 2 -1.050000 92.762065 14.390583 8.529689
5493 0 2 -1.050000 87.974281 23.101049 13.821683
5494 0 2 -1.050000 88.459999 17.801514 11.207228
5495 0 2 -1.050000 94.265475 16.244847 13.957195
5496 0 2 -1.050000 89.845284 15.908619 8.529689
5497 0 2 -1.050000 97.086434 14.560843 13.821683
5498 0 2 -1.050000 89.042364 24.785053 11.207228
5499 0 2 -1.050000 87.487738 16.283478 13.957195
5500 0 2 -1.050000 91.665897 26.722302 10.901157
5501 0 2 -1.050000 86.833507 14.643827 8.286701
5502 0 2 -1.050000 94.973400 17.548270 11.036669
5503 0 2 -1.050000 92.104529 15.947249 10.901157
5504 0 2 -1.050000 92.590247 24.955313 8.286701
5505 0 2 -1.050000 86.004979 16.244847 11.036669
5506 0 2 -1.050000 88.825939 14.560843 10.901157
5507 0 2 -1.050000 93.172612 17.631254 8.286701
5508 0 2 -1.050000 91.617986 23.437277 11.036669
5509 0 2 -1.050000 94.195261 23.354293 9.936215
5510 0 2 -1.050000 86.636907 28.278969 12.550670
5511 0 2 -1.050000 90.887758 18.220727 9.800702
5512 0 2 -1.050000 93.756629 19.821747 9.936215
5513 0 2 -1.050000 93.270911 25.121282 12.550670
5514 0 2 -1.050000 87.465435 26.677948 9.800702
5515 0 2 -1.050000 84.644476 28.361953 9.936215
5516 0 2 -1.050000 92.688546 18.137743 12.550670
5517 0 2 -1.050000 94.243172 26.639318 9.800702
5518 0 2 -1.050000 91.741894 15.991603 6.466629
5519 0 2 -1.050000 90.065013 16.200494 12.856741
5520 0 2 -1.050000 86.757510 25.374526 12.721229
5521 0 2 -1.050000 88.968845 28.532213 6.466629
5522 0 2 -1.050000 89.626381 26.975546 12.856741
5523 0 2 -1.050000 95.725931 26.677948 12.721229
5524 0 2 -1.050000 91.885626 27.014177 6.466629
5525 0 2 -1.050000 92.904971 28.361953 12.856741
5526 0 2 -1.050000 90.112924 19.485519 12.721229
5527 0 1 1.575000 82.604959 28.615197 13.339212
5528 0 1 1.575000 80.539835 17.884498 1.657107
5529 0 1 1.575000 86.735207 28.615197 1.657107
5530 0 1 1.575000 80.539835 25.038298 1.657107
5531 0 1 1.575000 82.604959 28.615197 4.577633
5532 0 1 1.575000 82.465770 25.279381 13.142369
5533 0 1 1.575000 76.548777 28.374114 13.536055
5534 0 1 1.575000 82.465770 25.279381 4.380790
5535 0 1 1.575000 85.563456 15.854965 13.142369
5536 0 1 1.575000 85.841834 23.490931 13.536055
5537 0 1 1.575000 85.563456 15.854965 4.380790
5538 0 1 1.575000 79.785652 16.096048 13.142369
5539 0 1 1.575000 85.424266 19.672948 13.536055
5540 0 1 1.575000 79.785652 16.096048 4.380790
5541 0 1 1.575000 80.400646 14.548682 1.460263
5542 0 1 1.575000 82.744148 17.643415 13.536055
5543 0 1 1.575000 83.498332 26.585664 1.460263
5544 0 1 1.575000 79.646462 27.067830 13.536055
5545 0 1 1.575000 83.915900 16.096048 1.460263
5546 0 1 1.575000 85.424266 26.826747 13.536055
5547 0 2 -1.050000 81.728520 26.931193 14.370742
5548 0 2 -1.050000 79.275153 19.568503 2.139578
5549 0 2 -1.050000 82.582656 24.702069 2.275090
5550 0 2 -1.050000 84.501569 14.390583 14.370742
5551 0 2 -1.050000 79.713786 23.101049 2.139578
5552 0 2 -1.050000 86.004979 16.244847 2.275090
5553 0 2 -1.050000 81.584788 15.908619 14.370742
5554 0 2 -1.050000 88.825939 14.560843 2.139578
5555 0 2 -1.050000 79.227242 16.283478 2.275090
5556 0 2 -1.050000 81.728520 26.931193 5.609163
5557 0 2 -1.050000 78.573011 14.643827 14.127754
5558 0 2 -1.050000 84.501569 14.390583 5.609163
5559 0 2 -1.050000 84.329751 24.955313 14.127754
5560 0 2 -1.050000 81.584788 15.908619 5.609163
5561 0 2 -1.050000 84.912116 17.631254 14.127754
5562 0 2 -1.050000 83.481398 15.991603 3.546103
5563 0 2 -1.050000 78.376411 28.278969 0.868565
5564 0 2 -1.050000 80.708349 28.532213 3.546103
5565 0 2 -1.050000 85.010416 25.121282 0.868565
5566 0 2 -1.050000 83.625130 27.014177 3.546103
5567 0 2 -1.050000 84.428051 18.137743 0.868565
5568 0 2 -1.050000 83.481398 15.991603 12.307682
5569 0 2 -1.050000 81.804517 16.200494 1.174636
5570 0 2 -1.050000 86.636907 28.278969 3.789091
5571 0 2 -1.050000 78.497014 25.374526 1.039123
5572 0 2 -1.050000 80.708349 28.532213 12.307682
5573 0 2 -1.050000 81.365885 26.975546 1.174636
5574 0 2 -1.050000 80.880168 17.967482 3.789091
5575 0 2 -1.050000 87.465435 26.677948 1.039123
5576 0 2 -1.050000 83.625130 27.014177 12.307682
5577 0 2 -1.050000 84.644476 28.361953 1.174636
5578 0 2 -1.050000 80.297803 25.291542 3.789091
5579 0 2 -1.050000 81.852428 19.485519 1.039123
5580 0 1 1.575000 94.995703 21.461398 13.339212
5581 0 1 1.575000 92.930579 25.038298 1.657107
5582 0 1 1.575000 99.125951 21.461398 1.657107
5583 0 1 1.575000 92.930579 17.884498 1.657107
5584 0 1 1.575000 94.995703 21.461398 4.577633
5585 0 1 1.575000 94.856514 18.125581 13.142369
5586 0 1 1.575000 88.939520 21.220315 13.536055
5587 0 1 1.575000 94.856514 18.125581 4.380790
5588 0 1 1.575000 97.954200 23.008765 13.142369
5589 0 1 1.575000 98.232578 16.337131 13.536055
5590 0 1 1.575000 97.954200 23.008765 4.380790
5591 0 1 1.575000 92.176396 23.249848 13.142369
5592 0 1 1.575000 97.815010 26.826747 13.536055
5593 0 1 1.575000 92.176396 23.249848 4.380790
5594 0 1 1.575000 92.791390 21.702481 1.460263
5595 0 1 1.575000 95.134892 24.797215 13.536055
5596 0 1 1.575000 95.889076 19.431865 1.460263
5597 0 1 1.575000 92.037206 19.914031 13.536055
5598 0 1 1.575000 96.306644 23.249848 1.460263
5599 0 1 1.575000 97.815010 19.672948 13.536055
5600 0 2 -1.050000 94.119264 19.777394 14.370742
5601 0 2 -1.050000 91.665897 26.722302 2.139578
5602 0 2 -1.050000 94.973400 17.548270 2.275090
5603 0 2 -1.050000 96.892313 21.544382 14.370742
5604 0 2 -1.050000 92.104529 15.947249 2.139578
5605 0 2 -1.050000 98.395723 23.398647 2.275090
5606 0 2 -1.050000 93.975532 23.062418 14.370742
5607 0 2 -1.050000 76.435195 21.714642 2.139578
5608 0 2 -1.050000 91.617986 23.437277 2.275090
5609 0 2 -1.050000 94.119264 19.777394 5.609163
5610 0 2 -1.050000 90.963755 21.797626 14.127754
5611 0 2 -1.050000 96.892313 21.544382 5.609163
5612 0 2 -1.050000 96.720495 17.801514 14.127754
5613 0 2 -1.050000 93.975532 23.062418 5.609163
5614 0 2 -1.050000 97.302859 24.785053 14.127754
5615 0 2 -1.050000 95.872142 23.145402 3.546103
5616 0 2 -1.050000 90.767155 21.125169 0.868565
5617 0 2 -1.050000 93.099093 21.378414 3.546103
5618 0 2 -1.050000 97.401159 17.967482 0.868565
5619 0 2 -1.050000 96.015874 19.860378 3.546103
5620 0 2 -1.050000 96.818794 25.291542 0.868565
5621 0 2 -1.050000 95.872142 23.145402 12.307682
5622 0 2 -1.050000 94.195261 23.354293 1.174636
5623 0 2 -1.050000 99.027651 21.125169 3.789091
5624 0 2 -1.050000 90.887758 18.220727 1.039123
5625 0 2 -1.050000 93.099093 21.378414 12.307682
5626 0 2 -1.050000 93.756629 19.821747 1.174636
5627 0 2 -1.050000 93.270911 25.121282 3.789091
5628 0 2 -1.050000 75.074691 19.524149 1.039123
5629 0 2 -1.050000 96.015874 19.860378 12.307682
5630 0 2 -1.050000 97.035219 21.208153 1.174636
5631 0 2 -1.050000 92.688546 18.137743 3.789091
5632 0 2 -1.050000 94.243172 26.639318 1.039123
5633 0 1 1.575000 74.344463 28.615197 19.180265
5634 0 1 1.575000 93.069768 28.374114 19.377108
5635 0 1 1.575000 77.302960 15.854965 18.983421
5636 0 1 1.575000 96.306644 16.096048 18.983421
5637 0 1 1.575000 96.167454 27.067830 19.377108
5638 0 1 1.575000 77.163770 26.826747 19.377108
5639 0 2 -1.050000 98.249512 26.931193 20.211795
5640 0 2 -1.050000 76.241073 14.390583 20.211795
5641 0 2 -1.050000 98.105780 15.908619 20.211795
5642 0 2 -1.050000 95.094003 14.643827 19.968807
5643 0 2 -1.050000 75.220902 15.991603 18.148735
5644 0 2 -1.050000 97.229341 28.532213 18.148735
5645 0 2 -1.050000 75.364634 27.014177 18.148735
5646 0 1 1.575000 89.972082 16.337131 19.377108
5647 0 1 1.575000 89.554514 26.826747 19.377108
5648 0 1 1.575000 78.335522 18.125581 16.062895
5649 0 1 1.575000 81.433208 23.008765 16.062895
5650 0 1 1.575000 75.655404 23.249848 16.062895
5651 0 3 -0.950000 77.598273 19.777394 17.291268
5652 0 3 -0.950000 77.454540 23.062418 17.291268
5653 0 2 -1.050000 79.351150 23.145402 15.228208
5654 0 2 -1.050000 79.494882 19.860378 15.228208
5655 0 2 -1.050000 76.749920 25.121282 15.471196
5656 0 2 -1.050000 76.167555 18.137743 15.471196
5657 0 1 1.575000 90.865455 28.615197 16.259738
5658 0 1 1.575000 90.726266 25.279381 16.062895
5659 0 1 1.575000 93.823952 15.854965 16.062895
5660 0 1 1.575000 88.046148 16.096048 16.062895
5661 0 2 -1.050000 89.989016 26.931193 17.291268
5662 0 2 -1.050000 92.762065 14.390583 17.291268
5663 0 2 -1.050000 89.845284 15.908619 17.291268
5664 0 2 -1.050000 91.741894 15.991603 15.228208
5665 0 2 -1.050000 88.968845 28.532213 15.228208
5666 0 2 -1.050000 91.885626 27.014177 15.228208
5667 0 2 -1.050000 94.897403 28.278969 15.471196
5668 0 2 -1.050000 89.140663 17.967482 15.471196
5669 0 2 -1.050000 88.558298 25.291542 15.471196
5670 0 1 1.575000 86.735207 28.615197 19.180265
5671 0 1 1.575000 84.670083 25.038298 16.259738
5672 0 1 1.575000 78.474711 28.615197 16.259738
5673 0 1 1.575000 84.670083 17.884498 16.259738
5674 0 1 1.575000 84.809272 28.374114 16.456582
5675 0 1 1.575000 81.711586 16.337131 16.456582
5676 0 1 1.575000 81.294018 26.826747 16.456582
5677 0 1 1.575000 78.613900 24.797215 16.456582
5678 0 1 1.575000 80.400646 14.548682 18.983421
5679 0 1 1.575000 87.906958 27.067830 16.456582
5680 0 1 1.575000 87.628580 19.431865 16.062895
5681 0 1 1.575000 83.498332 26.585664 18.983421
5682 0 1 1.575000 81.294018 19.672948 16.456582
5683 0 1 1.575000 75.655404 16.096048 16.062895
5684 0 1 1.575000 83.915900 16.096048 18.983421
5685 0 2 -1.050000 86.833507 14.643827 17.048280
5686 0 2 -1.050000 80.199503 17.801514 17.048280
5687 0 2 -1.050000 86.004979 16.244847 19.798248
5688 0 2 -1.050000 88.825939 14.560843 19.662736
5689 0 2 -1.050000 80.781868 24.785053 17.048280
5690 0 3 -0.950000 79.227242 16.283478 19.798248
5691 0 2 -1.050000 83.405401 26.722302 16.742209
5692 0 2 -1.050000 86.712904 17.548270 16.877722
5693 0 2 -1.050000 83.844033 15.947249 16.742209
5694 0 2 -1.050000 77.744483 16.244847 16.877722
5695 0 2 -1.050000 80.565443 14.560843 16.742209
5696 0 2 -1.050000 83.357490 23.437277 16.877722
5697 0 2 -1.050000 85.934765 23.354293 15.777267
5698 0 2 -1.050000 78.376411 28.278969 18.391723
5699 0 2 -1.050000 82.627262 18.220727 15.641755
5700 0 2 -1.050000 85.496133 19.821747 15.777267
5701 0 2 -1.050000 79.204939 26.677948 15.641755
5702 0 2 -1.050000 76.383980 28.361953 15.777267
5703 0 2 -1.050000 85.982676 26.639318 15.641755
5704 0 3 -0.950000 81.804517 16.200494 18.697794
5705 0 3 -0.950000 81.365885 26.975546 18.697794
5706 0 3 -0.950000 87.465435 26.677948 18.562281
5707 0 2 -1.050000 84.644476 28.361953 18.697794
5708 0 1 1.575000 97.060827 17.884498 16.259738
5709 0 1 1.575000 97.060827 25.038298 16.259738
5710 0 1 1.575000 94.102330 23.490931 16.456582
5711 0 1 1.575000 93.684762 19.672948 16.456582
5712 0 1 1.575000 91.004644 17.643415 16.456582
5713 0 1 1.575000 96.921638 14.548682 16.062895
5714 0 1 1.575000 75.516215 19.914031 16.456582
5715 0 1 1.575000 75.237836 26.585664 16.062895
5716 0 1 1.575000 93.684762 26.826747 16.456582
5717 0 1 1.575000 88.046148 23.249848 16.062895
5718 0 3 -0.950000 91.665897 26.722302 19.662736
5719 0 3 -0.950000 92.104529 15.947249 19.662736
5720 0 3 -0.950000 92.590247 24.955313 17.048280
5721 0 2 -1.050000 93.172612 17.631254 17.048280
5722 0 3 -0.950000 95.796145 19.568503 16.742209
5723 0 2 -1.050000 99.103648 24.702069 16.877722
5724 0 2 -1.050000 96.234777 23.101049 16.742209
5725 0 3 -0.950000 90.135227 23.398647 16.877722
5726 0 2 -1.050000 95.748234 16.283478 16.877722
5727 0 2 -1.050000 98.325509 16.200494 15.777267
5728 0 2 -1.050000 95.018006 25.374526 15.641755
5729 0 2 -1.050000 97.886877 26.975546 15.777267
5730 0 3 -0.950000 91.595683 19.524149 15.641755
5731 0 2 -1.050000 98.373420 19.485519 15.641755
5732 0 3 -0.950000 94.243172 26.639318 18.562281
5733 0 1 1.575000 99.125951 28.615197 1.657107
5734 0 1 1.575000 121.842315 17.884498 7.498159
5735 0 1 1.575000 103.256199 28.615197 7.498159
5736 0 1 1.575000 121.842315 25.038298 7.498159
5737 0 1 1.575000 0.000000 28.615197 10.418686
5738 0 1 1.575000 101.191075 25.038298 4.577633
5739 0 1 1.575000 119.777191 28.615197 4.577633
5740 0 1 1.575000 101.191075 17.884498 4.577633
5741 0 1 1.575000 123.768249 25.279381 1.460263
5742 0 1 1.575000 117.851256 28.374114 1.853950
5743 0 1 1.575000 101.330264 28.374114 4.774476
5744 0 1 1.575000 123.768249 25.279381 10.221842
5745 0 1 1.575000 102.084448 15.854965 1.460263
5746 0 1 1.575000 102.362826 23.490931 1.853950
5747 0 1 1.575000 123.014066 16.337131 4.774476
5748 0 1 1.575000 102.084448 15.854965 10.221842
5749 0 1 1.575000 121.088131 16.096048 1.460263
5750 0 1 1.575000 101.945258 19.672948 1.853950
5751 0 1 1.575000 122.596498 26.826747 4.774476
5752 0 1 1.575000 121.088131 16.096048 10.221842
5753 0 1 1.575000 119.916380 24.797215 4.774476
5754 0 1 1.575000 101.051886 21.702481 4.380790
5755 0 1 1.575000 121.703125 14.548682 7.301316
5756 0 1 1.575000 99.265140 17.643415 1.853950
5757 0 1 1.575000 104.427950 27.067830 4.774476
5758 0 1 1.575000 104.149571 19.431865 4.380790
5759 0 1 1.575000 100.019324 26.585664 7.301316
5760 0 1 1.575000 120.948942 27.067830 1.853950
5761 0 1 1.575000 122.596498 19.672948 4.774476
5762 0 1 1.575000 116.957883 16.096048 4.380790
5763 0 1 1.575000 100.436892 16.096048 7.301316
5764 0 1 1.575000 101.945258 26.826747 1.853950
5765 0 2 -1.050000 123.031000 26.931193 2.688637
5766 0 2 -1.050000 120.577633 19.568503 7.980630
5767 0 2 -1.050000 103.354499 14.643827 5.366175
5768 0 2 -1.050000 123.885135 24.702069 8.116143
5769 0 2 -1.050000 101.022561 14.390583 2.688637
5770 0 2 -1.050000 121.016265 23.101049 7.980630
5771 0 2 -1.050000 121.501982 17.801514 5.366175
5772 0 2 -1.050000 102.525971 16.244847 8.116143
5773 0 2 -1.050000 122.887267 15.908619 2.688637
5774 0 2 -1.050000 105.346930 14.560843 7.980630
5775 0 2 -1.050000 122.084347 24.785053 5.366175
5776 0 2 -1.050000 120.529722 16.283478 8.116143
5777 0 2 -1.050000 123.031000 26.931193 11.450216
5778 0 2 -1.050000 99.926393 26.722302 5.060104
5779 0 2 -1.050000 119.875491 14.643827 2.445649
5780 0 2 -1.050000 103.233896 17.548270 5.195616
5781 0 2 -1.050000 101.022561 14.390583 11.450216
5782 0 2 -1.050000 100.365025 15.947249 5.060104
5783 0 2 -1.050000 100.850742 24.955313 2.445649
5784 0 2 -1.050000 119.046963 16.244847 5.195616
5785 0 2 -1.050000 122.887267 15.908619 11.450216
5786 0 2 -1.050000 121.867922 14.560843 5.060104
5787 0 2 -1.050000 101.433107 17.631254 2.445649
5788 0 2 -1.050000 99.878482 23.437277 5.195616
5789 0 2 -1.050000 100.002390 15.991603 9.387156
5790 0 2 -1.050000 102.455757 23.354293 4.095162
5791 0 2 -1.050000 119.678891 28.278969 6.709617
5792 0 2 -1.050000 99.148254 18.220727 3.959650
5793 0 2 -1.050000 122.010829 28.532213 9.387156
5794 0 2 -1.050000 102.017124 19.821747 4.095162
5795 0 2 -1.050000 101.531407 25.121282 6.709617
5796 0 2 -1.050000 120.507419 26.677948 3.959650
5797 0 2 -1.050000 100.146122 27.014177 9.387156
5798 0 2 -1.050000 117.686459 28.361953 4.095162
5799 0 2 -1.050000 100.949042 18.137743 6.709617
5800 0 2 -1.050000 102.503668 26.639318 3.959650
5801 0 2 -1.050000 100.002390 15.991603 0.625577
5802 0 2 -1.050000 123.106997 16.200494 7.015688
5803 0 2 -1.050000 103.157899 28.278969 9.630144
5804 0 2 -1.050000 119.799494 25.374526 6.880176
5805 0 2 -1.050000 122.010829 28.532213 0.625577
5806 0 2 -1.050000 122.668364 26.975546 7.015688
5807 0 2 -1.050000 122.182647 17.967482 9.630144
5808 0 2 -1.050000 103.986427 26.677948 6.880176
5809 0 2 -1.050000 100.146122 27.014177 0.625577
5810 0 2 -1.050000 101.165467 28.361953 7.015688
5811 0 2 -1.050000 121.600282 25.291542 9.630144
5812 0 2 -1.050000 123.154907 19.485519 6.880176
5813 0 1 1.575000 111.516695 21.461398 1.657107
5814 0 1 1.575000 109.451571 25.038298 7.498159
5815 0 1 1.575000 115.646943 21.461398 7.498159
5816 0 1 1.575000 109.451571 17.884498 7.498159
5817 0 1 1.575000 111.516695 21.461398 10.418686
5818 0 1 1.575000 113.581819 17.884498 4.577633
5819 0 1 1.575000 107.386447 21.461398 4.577633
5820 0 1 1.575000 113.581819 25.038298 4.577633
5821 0 1 1.575000 111.377505 18.125581 1.460263
5822 0 1 1.575000 105.460512 21.220315 1.853950
5823 0 1 1.575000 113.721008 21.220315 4.774476
5824 0 1 1.575000 111.377505 18.125581 10.221842
5825 0 1 1.575000 114.475191 23.008765 1.460263
5826 0 1 1.575000 114.753570 16.337131 1.853950
5827 0 1 1.575000 110.623322 23.490931 4.774476
5828 0 1 1.575000 114.475191 23.008765 10.221842
5829 0 1 1.575000 108.697388 23.249848 1.460263
5830 0 1 1.575000 114.336002 26.826747 1.853950
5831 0 1 1.575000 110.205754 19.672948 4.774476
5832 0 1 1.575000 108.697388 23.249848 10.221842
5833 0 1 1.575000 107.525636 17.643415 4.774476
5834 0 1 1.575000 113.442629 14.548682 4.380790
5835 0 1 1.575000 109.312381 21.702481 7.301316
5836 0 1 1.575000 111.655884 24.797215 1.853950
5837 0 1 1.575000 116.818694 19.914031 4.774476
5838 0 1 1.575000 116.540315 26.585664 4.380790
5839 0 1 1.575000 112.410067 19.431865 7.301316
5840 0 1 1.575000 108.558198 19.914031 1.853950
5841 0 1 1.575000 110.205754 26.826747 4.774476
5842 0 1 1.575000 104.567140 23.249848 4.380790
5843 0 1 1.575000 112.827635 23.249848 7.301316
5844 0 1 1.575000 114.336002 19.672948 1.853950
5845 0 2 -1.050000 110.640256 19.777394 2.688637
5846 0 2 -1.050000 108.186889 26.722302 7.980630
5847 0 2 -1.050000 115.745243 21.797626 5.366175
5848 0 2 -1.050000 111.494391 17.548270 8.116143
5849 0 2 -1.050000 113.413305 21.544382 2.688637
5850 0 2 -1.050000 108.625521 15.947249 7.980630
5851 0 2 -1.050000 109.111238 24.955313 5.366175
5852 0 2 -1.050000 114.916715 23.398647 8.116143
5853 0 2 -1.050000 110.496524 23.062418 2.688637
5854 0 2 -1.050000 117.737674 21.714642 7.980630
5855 0 2 -1.050000 109.693603 17.631254 5.366175
5856 0 2 -1.050000 108.138978 23.437277 8.116143
5857 0 2 -1.050000 110.640256 19.777394 11.450216
5858 0 2 -1.050000 112.317137 19.568503 5.060104
5859 0 2 -1.050000 107.484747 21.797626 2.445649
5860 0 2 -1.050000 115.624639 24.702069 5.195616
5861 0 2 -1.050000 113.413305 21.544382 11.450216
5862 0 2 -1.050000 112.755769 23.101049 5.060104
5863 0 2 -1.050000 113.241486 17.801514 2.445649
5864 0 2 -1.050000 106.656219 23.398647 5.195616
5865 0 2 -1.050000 110.496524 23.062418 11.450216
5866 0 2 -1.050000 109.477178 21.714642 5.060104
5867 0 2 -1.050000 113.823851 24.785053 2.445649
5868 0 2 -1.050000 112.269226 16.283478 5.195616
5869 0 2 -1.050000 112.393133 23.145402 9.387156
5870 0 2 -1.050000 114.846501 16.200494 4.095162
5871 0 2 -1.050000 107.288147 21.125169 6.709617
5872 0 2 -1.050000 111.538998 25.374526 3.959650
5873 0 2 -1.050000 109.620085 21.378414 9.387156
5874 0 2 -1.050000 114.407868 26.975546 4.095162
5875 0 2 -1.050000 113.922151 17.967482 6.709617
5876 0 2 -1.050000 108.116675 19.524149 3.959650
5877 0 2 -1.050000 112.536866 19.860378 9.387156
5878 0 2 -1.050000 105.295715 21.208153 4.095162
5879 0 2 -1.050000 113.339786 25.291542 6.709617
5880 0 2 -1.050000 114.894412 19.485519 3.959650
5881 0 2 -1.050000 112.393133 23.145402 0.625577
5882 0 2 -1.050000 110.716253 23.354293 7.015688
5883 0 2 -1.050000 115.548643 21.125169 9.630144
5884 0 2 -1.050000 107.408750 18.220727 6.880176
5885 0 2 -1.050000 109.620085 21.378414 0.625577
5886 0 2 -1.050000 110.277620 19.821747 7.015688
5887 0 2 -1.050000 109.791903 25.121282 9.630144
5888 0 2 -1.050000 116.377171 19.524149 6.880176
5889 0 2 -1.050000 112.536866 19.860378 0.625577
5890 0 2 -1.050000 113.556211 21.208153 7.015688
5891 0 2 -1.050000 109.209538 18.137743 9.630144
5892 0 2 -1.050000 110.764164 26.639318 6.880176
5893 0 1 1.575000 103.256199 21.461398 7.498159
5894 0 1 1.575000 101.191075 25.038298 13.339212
5895 0 1 1.575000 107.386447 21.461398 13.339212
5896 0 1 1.575000 101.191075 17.884498 13.339212
5897 0 1 1.575000 105.321323 17.884498 10.418686
5898 0 1 1.575000 0.000000 21.461398 10.418686
5899 0 1 1.575000 105.321323 25.038298 10.418686
5900 0 1 1.575000 103.117010 18.125581 7.301316
5901 0 1 1.575000 121.981504 21.220315 7.695003
5902 0 1 1.575000 105.460512 21.220315 10.615529
5903 0 1 1.575000 106.214695 23.008765 7.301316
5904 0 1 1.575000 106.493074 16.337131 7.695003
5905 0 1 1.575000 102.362826 23.490931 10.615529
5906 0 1 1.575000 100.436892 23.249848 7.301316
5907 0 1 1.575000 106.075506 26.826747 7.695003
5908 0 1 1.575000 101.945258 19.672948 10.615529
5909 0 1 1.575000 99.265140 17.643415 10.615529
5910 0 1 1.575000 105.182133 14.548682 10.221842
5911 0 1 1.575000 101.051886 21.702481 13.142369
5912 0 1 1.575000 103.395388 24.797215 7.695003
5913 0 1 1.575000 108.558198 19.914031 10.615529
5914 0 1 1.575000 108.279819 26.585664 10.221842
5915 0 1 1.575000 104.149571 19.431865 13.142369
5916 0 1 1.575000 100.297702 19.914031 7.695003
5917 0 1 1.575000 101.945258 26.826747 10.615529
5918 0 1 1.575000 121.088131 23.249848 10.221842
5919 0 1 1.575000 104.567140 23.249848 13.142369
5920 0 1 1.575000 106.075506 19.672948 7.695003
5921 0 2 -1.050000 102.379760 19.777394 8.529689
5922 0 2 -1.050000 99.926393 26.722302 13.821683
5923 0 2 -1.050000 107.484747 21.797626 11.207228
5924 0 2 -1.050000 103.233896 17.548270 13.957195
5925 0 2 -1.050000 105.152809 21.544382 8.529689
5926 0 2 -1.050000 100.365025 15.947249 13.821683
5927 0 2 -1.050000 100.850742 24.955313 11.207228
5928 0 2 -1.050000 106.656219 23.398647 13.957195
5929 0 2 -1.050000 102.236028 23.062418 8.529689
5930 0 2 -1.050000 109.477178 21.714642 13.821683
5931 0 2 -1.050000 101.433107 17.631254 11.207228
5932 0 2 -1.050000 99.878482 23.437277 13.957195
5933 0 2 -1.050000 104.056641 19.568503 10.901157
5934 0 2 -1.050000 99.224251 21.797626 8.286701
5935 0 2 -1.050000 107.364143 24.702069 11.036669
5936 0 2 -1.050000 104.495273 23.101049 10.901157
5937 0 2 -1.050000 104.980990 17.801514 8.286701
5938 0 2 -1.050000 123.177211 23.398647 11.036669
5939 0 2 -1.050000 101.216682 21.714642 10.901157
5940 0 2 -1.050000 105.563355 24.785053 8.286701
5941 0 2 -1.050000 104.008730 16.283478 11.036669
5942 0 2 -1.050000 106.586005 16.200494 9.936215
5943 0 2 -1.050000 123.809139 21.125169 12.550670
5944 0 2 -1.050000 103.278502 25.374526 9.800702
5945 0 2 -1.050000 106.147372 26.975546 9.936215
5946 0 2 -1.050000 105.661655 17.967482 12.550670
5947 0 2 -1.050000 99.856179 19.524149 9.800702
5948 0 2 -1.050000 121.816707 21.208153 9.936215
5949 0 2 -1.050000 105.079290 25.291542 12.550670
5950 0 2 -1.050000 106.633916 19.485519 9.800702
5951 0 2 -1.050000 104.132637 23.145402 6.466629
5952 0 2 -1.050000 102.455757 23.354293 12.856741
5953 0 2 -1.050000 99.148254 18.220727 12.721229
5954 0 2 -1.050000 101.359589 21.378414 6.466629
5955 0 2 -1.050000 102.017124 19.821747 12.856741
5956 0 2 -1.050000 108.116675 19.524149 12.721229
5957 0 2 -1.050000 104.276370 19.860378 6.466629
5958 0 2 -1.050000 105.295715 21.208153 12.856741
5959 0 2 -1.050000 102.503668 26.639318 12.721229
5960 0 1 1.575000 115.646943 28.615197 7.498159
5961 0 1 1.575000 113.581819 17.884498 13.339212
5962 0 1 1.575000 119.777191 28.615197 13.339212
5963 0 1 1.575000 113.581819 25.038298 13.339212
5964 0 1 1.575000 117.712067 25.038298 10.418686
5965 0 1 1.575000 111.516695 28.615197 10.418686
5966 0 1 1.575000 117.712067 17.884498 10.418686
5967 0 1 1.575000 115.507753 25.279381 7.301316
5968 0 1 1.575000 109.590760 28.374114 7.695003
5969 0 1 1.575000 117.851256 28.374114 10.615529
5970 0 1 1.575000 118.605439 15.854965 7.301316
5971 0 1 1.575000 118.883818 23.490931 7.695003
5972 0 1 1.575000 114.753570 16.337131 10.615529
5973 0 1 1.575000 112.827635 16.096048 7.301316
5974 0 1 1.575000 118.466250 19.672948 7.695003
5975 0 1 1.575000 114.336002 26.826747 10.615529
5976 0 1 1.575000 111.655884 24.797215 10.615529
5977 0 1 1.575000 117.572877 21.702481 10.221842
5978 0 1 1.575000 113.442629 14.548682 13.142369
5979 0 1 1.575000 115.786132 17.643415 7.695003
5980 0 1 1.575000 120.948942 27.067830 10.615529
5981 0 1 1.575000 120.670563 19.431865 10.221842
5982 0 1 1.575000 116.540315 26.585664 13.142369
5983 0 1 1.575000 112.688446 27.067830 7.695003
5984 0 1 1.575000 114.336002 19.672948 10.615529
5985 0 1 1.575000 108.697388 16.096048 10.221842
5986 0 1 1.575000 116.957883 16.096048 13.142369
5987 0 1 1.575000 118.466250 26.826747 7.695003
5988 0 2 -1.050000 114.770504 26.931193 8.529689
5989 0 2 -1.050000 112.317137 19.568503 13.821683
5990 0 2 -1.050000 119.875491 14.643827 11.207228
5991 0 2 -1.050000 115.624639 24.702069 13.957195
5992 0 2 -1.050000 117.543553 14.390583 8.529689
5993 0 2 -1.050000 112.755769 23.101049 13.821683
5994 0 2 -1.050000 113.241486 17.801514 11.207228
5995 0 2 -1.050000 119.046963 16.244847 13.957195
5996 0 2 -1.050000 114.626771 15.908619 8.529689
5997 0 2 -1.050000 121.867922 14.560843 13.821683
5998 0 2 -1.050000 113.823851 24.785053 11.207228
5999 0 2 -1.050000 112.269226 16.283478 13.957195
6000 0 2 -1.050000 116.447385 26.722302 10.901157
6001 0 2 -1.050000 111.614995 14.643827 8.286701
6002 0 2 -1.050000 119.754887 17.548270 11.036669
6003 0 2 -1.050000 116.886017 15.947249 10.901157
6004 0 2 -1.050000 117.371734 24.955313 8.286701
6005 0 2 -1.050000 110.786467 16.244847 11.036669
6006 0 2 -1.050000 113.607426 14.560843 10.901157
6007 0 2 -1.050000 117.954099 17.631254 8.286701
6008 0 2 -1.050000 116.399474 23.437277 11.036669
6009 0 2 -1.050000 118.976749 23.354293 9.936215
6010 0 2 -1.050000 111.418395 28.278969 12.550670
6011 0 2 -1.050000 115.669246 18.220727 9.800702
6012 0 2 -1.050000 118.538116 19.821747 9.936215
6013 0 2 -1.050000 118.052399 25.121282 12.550670
6014 0 2 -1.050000 112.246923 26.677948 9.800702
6015 0 2 -1.050000 109.425963 28.361953 9.936215
6016 0 2 -1.050000 117.470034 18.137743 12.550670
6017 0 2 -1.050000 119.024660 26.639318 9.800702
6018 0 2 -1.050000 116.523381 15.991603 6.466629
6019 0 2 -1.050000 114.846501 16.200494 12.856741
6020 0 2 -1.050000 111.538998 25.374526 12.721229
6021 0 2 -1.050000 113.750333 28.532213 6.466629
6022 0 2 -1.050000 114.407868 26.975546 12.856741
6023 0 2 -1.050000 120.507419 26.677948 12.721229
6024 0 2 -1.050000 116.667114 27.014177 6.466629
6025 0 2 -1.050000 117.686459 28.361953 12.856741
6026 0 2 -1.050000 114.894412 19.485519 12.721229
6027 0 1 1.575000 107.386447 28.615197 13.339212
6028 0 1 1.575000 105.321323 17.884498 1.657107
6029 0 1 1.575000 111.516695 28.615197 1.657107
6030 0 1 1.575000 105.321323 25.038298 1.657107
6031 0 1 1.575000 107.386447 28.615197 4.577633
6032 0 1 1.575000 107.247257 25.279381 13.142369
6033 0 1 1.575000 101.330264 28.374114 13.536055
6034 0 1 1.575000 107.247257 25.279381 4.380790
6035 0 1 1.575000 110.344943 15.854965 13.142369
6036 0 1 1.575000 110.623322 23.490931 13.536055
6037 0 1 1.575000 110.344943 15.854965 4.380790
6038 0 1 1.575000 104.567140 16.096048 13.142369
6039 0 1 1.575000 110.205754 19.672948 13.536055
6040 0 1 1.575000 104.567140 16.096048 4.380790
6041 0 1 1.575000 105.182133 14.548682 1.460263
6042 0 1 1.575000 107.525636 17.643415 13.536055
6043 0 1 1.575000 108.279819 26.585664 1.460263
6044 0 1 1.575000 104.427950 27.067830 13.536055
6045 0 1 1.575000 108.697388 16.096048 1.460263
6046 0 1 1.575000 110.205754 26.826747 13.536055
6047 0 2 -1.050000 106.510008 26.931193 14.370742
6048 0 2 -1.050000 104.056641 19.568503 2.139578
6049 0 2 -1.050000 107.364143 24.702069 2.275090
6050 0 2 -1.050000 109.283057 14.390583 14.370742
6051 0 2 -1.050000 104.495273 23.101049 2.139578
6052 0 2 -1.050000 110.786467 16.244847 2.275090
6053 0 2 -1.050000 106.366276 15.908619 14.370742
6054 0 2 -1.050000 113.607426 14.560843 2.139578
6055 0 2 -1.050000 104.008730 16.283478 2.275090
6056 0 2 -1.050000 106.510008 26.931193 5.609163
6057 0 2 -1.050000 103.354499 14.643827 14.127754
6058 0 2 -1.050000 109.283057 14.390583 5.609163
6059 0 2 -1.050000 109.111238 24.955313 14.127754
6060 0 2 -1.050000 106.366276 15.908619 5.609163
6061 0 2 -1.050000 109.693603 17.631254 14.127754
6062 0 2 -1.050000 108.262885 15.991603 3.546103
6063 0 2 -1.050000 103.157899 28.278969 0.868565
6064 0 2 -1.050000 105.489837 28.532213 3.546103
6065 0 2 -1.050000 109.791903 25.121282 0.868565
6066 0 2 -1.050000 108.406618 27.014177 3.546103
6067 0 2 -1.050000 109.209538 18.137743 0.868565
6068 0 2 -1.050000 108.262885 15.991603 12.307682
6069 0 2 -1.050000 106.586005 16.200494 1.174636
6070 0 2 -1.050000 111.418395 28.278969 3.789091
6071 0 2 -1.050000 103.278502 25.374526 1.039123
6072 0 2 -1.050000 105.489837 28.532213 12.307682
6073 0 2 -1.050000 106.147372 26.975546 1.174636
6074 0 2 -1.050000 105.661655 17.967482 3.789091
6075 0 2 -1.050000 112.246923 26.677948 1.039123
6076 0 2 -1.050000 108.406618 27.014177 12.307682
6077 0 2 -1.050000 109.425963 28.361953 1.174636
6078 0 2 -1.050000 105.079290 25.291542 3.789091
6079 0 2 -1.050000 106.633916 19.485519 1.039123
6080 0 1 1.575000 119.777191 21.461398 13.339212
6081 0 1 1.575000 117.712067 25.038298 1.657107
6082 0 1 1.575000 123.907439 21.461398 1.657107
6083 0 1 1.575000 117.712067 17.884498 1.657107
6084 0 1 1.575000 119.777191 21.461398 4.577633
6085 0 1 1.575000 119.638001 18.125581 13.142369
6086 0 1 1.575000 113.721008 21.220315 13.536055
6087 0 1 1.575000 119.638001 18.125581 4.380790
6088 0 1 1.575000 122.735687 23.008765 13.142369
6089 0 1 1.575000 123.014066 16.337131 13.536055
6090 0 1 1.575000 122.735687 23.008765 4.380790
6091 0 1 1.575000 116.957883 23.249848 13.142369
6092 0 1 1.575000 122.596498 26.826747 13.536055
6093 0 1 1.575000 116.957883 23.249848 4.380790
6094 0 1 1.575000 117.572877 21.702481 1.460263
6095 0 1 1.575000 119.916380 24.797215 13.536055
6096 0 1 1.575000 120.670563 19.431865 1.460263
6097 0 1 1.575000 116.818694 19.914031 13.536055
6098 0 1 1.575000 121.088131 23.249848 1.460263
6099 0 1 1.575000 122.596498 19.672948 13.536055
6100 0 2 -1.050000 118.900752 19.777394 14.370742
6101 0 2 -1.050000 116.447385 26.722302 2.139578
6102 0 2 -1.050000 119.754887 17.548270 2.275090
6103 0 2 -1.050000 121.673801 21.544382 14.370742
6104 0 2 -1.050000 116.886017 15.947249 2.139578
6105 0 2 -1.050000 123.177211 23.398647 2.275090
6106 0 2 -1.050000 118.757019 23.062418 14.370742
6107 0 2 -1.050000 101.216682 21.714642 2.139578
6108 0 2 -1.050000 116.399474 23.437277 2.275090
6109 0 2 -1.050000 118.900752 19.777394 5.609163
6110 0 2 -1.050000 115.745243 21.797626 14.127754
6111 0 2 -1.050000 121.673801 21.544382 5.609163
6112 0 2 -1.050000 121.501982 17.801514 14.127754
6113 0 2 -1.050000 118.757019 23.062418 5.609163
6114 0 2 -1.050000 122.084347 24.785053 14.127754
6115 0 2 -1.050000 120.653629 23.145402 3.546103
6116 0 2 -1.050000 115.548643 21.125169 0.868565
6117 0 2 -1.050000 117.880581 21.378414 3.546103
6118 0 2 -1.050000 122.182647 17.967482 0.868565
6119 0 2 -1.050000 120.797362 19.860378 3.546103
6120 0 2 -1.050000 121.600282 25.291542 0.868565
6121 0 2 -1.050000 120.653629 23.145402 12.307682
6122 0 2 -1.050000 118.976749 23.354293 1.174636
6123 0 2 -1.050000 123.809139 21.125169 3.789091
6124 0 2 -1.050000 115.669246 18.220727 1.039123
6125 0 2 -1.050000 117.880581 21.378414 12.307682
6126 0 2 -1.050000 118.538116 19.821747 1.174636
6127 0 2 -1.050000 118.052399 25.121282 3.789091
6128 0 2 -1.050000 99.856179 19.524149 1.039123
6129 0 2 -1.050000 120.797362 19.860378 12.307682
6130 0 2 -1.050000 121.816707 21.208153 1.174636
6131 0 2 -1.050000 117.470034 18.137743 3.789091
6132 0 2 -1.050000 119.024660 26.639318 1.039123
6133 0 1 1.575000 99.125951 28.615197 19.180265
6134 0 1 1.575000 117.851256 28.374114 19.377108
6135 0 1 1.575000 102.084448 15.854965 18.983421
6136 0 1 1.575000 121.088131 16.096048 18.983421
6137 0 1 1.575000 120.948942 27.067830 19.377108
6138 0 1 1.575000 101.945258 26.826747 19.377108
6139 0 2 -1.050000 123.031000 26.931193 20.211795
6140 0 2 -1.050000 101.022561 14.390583 20.211795
6141 0 2 -1.050000 122.887267 15.908619 20.211795
6142 0 2 -1.050000 119.875491 14.643827 19.968807
6143 0 2 -1.050000 100.002390 15.991603 18.148735
6144 0 2 -1.050000 122.010829 28.532213 18.148735
6145 0 2 -1.050000 100.146122 27.014177 18.148735
6146 0 1 1.575000 114.753570 16.337131 19.377108
6147 0 1 1.575000 114.336002 26.826747 19.377108
6148 0 1 1.575000 103.117010 18.125581 16.062895
6149 0 1 1.575000 106.214695 23.008765 16.062895
6150 0 1 1.575000 100.436892 23.249848 16.062895
6151 0 2 -1.050000 102.379760 19.777394 17.291268
6152 0 3 -0.950000 102.236028 23.062418 17.291268
6153 0 2 -1.050000 104.132637 23.145402 15.228208
6154 0 2 -1.050000 104.276370 19.860378 15.228208
6155 0 2 -1.050000 101.531407 25.121282 15.471196
6156 0 2 -1.050000 100.949042 18.137743 15.471196
6157 0 1 1.575000 115.646943 28.615197 16.259738
6158 0 1 1.575000 115.507753 25.279381 16.062895
6159 0 1 1.575000 118.605439 15.854965 16.062895
6160 0 1 1.575000 112.827635 16.096048 16.062895
6161 0 2 -1.050000 114.770504 26.931193 17.291268
6162 0 2 -1.050000 117.543553 14.390583 17.291268
6163 0 2 -1.050000 114.626771 15.908619 17.291268
6164 0 2 -1.050000 116.523381 15.991603 15.228208
6165 0 2 -1.050000 113.750333 28.532213 15.228208
6166 0 2 -1.050000 116.667114 27.014177 15.228208
6167 0 2 -1.050000 119.678891 28.278969 15.471196
6168 0 2 -1.050000 113.922151 17.967482 15.471196
6169 0 2 -1.050000 113.339786 25.291542 15.471196
6170 0 1 1.575000 111.516695 28.615197 19.180265
6171 0 1 1.575000 109.451571 25.038298 16.259738
6172 0 1 1.575000 103.256199 28.615197 16.259738
6173 0 1 1.575000 109.451571 17.884498 16.259738
6174 0 1 1.575000 109.590760 28.374114 16.456582
6175 0 1 1.575000 106.493074 16.337131 16.456582
6176 0 1 1.575000 106.075506 26.826747 16.456582
6177 0 1 1.575000 103.395388 24.797215 16.456582
6178 0 1 1.575000 105.182133 14.548682 18.983421
6179 0 1 1.575000 112.688446 27.067830 16.456582
6180 0 1 1.575000 112.410067 19.431865 16.062895
6181 0 1 1.575000 108.279819 26.585664 18.983421
6182 0 1 1.575000 106.075506 19.672948 16.456582
6183 0 1 1.575000 100.436892 16.096048 16.062895
6184 0 1 1.575000 108.697388 16.096048 18.983421
6185 0 2 -1.050000 111.614995 14.643827 17.048280
6186 0 2 -1.050000 104.980990 17.801514 17.048280
6187 0 2 -1.050000 110.786467 16.244847 19.798248
6188 0 2 -1.050000 113.607426 14.560843 19.662736
6189 0 2 -1.050000 105.563355 24.785053 17.048280
6190 0 3 -0.950000 104.008730 16.283478 19.798248
6191 0 2 -1.050000 108.186889 26.722302 16.742209
6192 0 2 -1.050000 111.494391 17.548270 16.877722
6193 0 2 -1.050000 108.625521 15.947249 16.742209
6194 0 2 -1.050000 102.525971 16.244847 16.877722
6195 0 2 -1.050000 105.346930 14.560843 16.742209
6196 0 3 -0.950000 108.138978 23.437277 16.877722
6197 0 2 -1.050000 110.716253 23.354293 15.777267
6198 0 2 -1.050000 103.157899 28.278969 18.391723
6199 0 2 -1.050000 107.408750 18.220727 15.641755
6200 0 2 -1.050000 110.277620 19.821747 15.777267
6201 0 2 -1.050000 103.986427 26.677948 15.641755
6202 0 2 -1.050000 101.165467 28.361953 15.777267
6203 0 2 -1.050000 110.764164 26.639318 15.641755
6204 0 3 -0.950000 106.586005 16.200494 18.697794
6205 0 3 -0.950000 106.147372 26.975546 18.697794
6206 0 3 -0.950000 112.246923 26.677948 18.562281
6207 0 2 -1.050000 109.425963 28.361953 18.697794
6208 0 1 1.575000 121.842315 17.884498 16.259738
6209 0 1 1.575000 121.842315 25.038298 16.259738
6210 0 1 1.575000 118.883818 23.490931 16.456582
6211 0 1 1.575000 118.466250 19.672948 16.456582
6212 0 1 1.575000 115.786132 17.643415 16.456582
6213 0 1 1.575000 121.703125 14.548682 16.062895
6214 0 1 1.575000 100.297702 19.914031 16.456582
6215 0 1 1.575000 100.019324 26.585664 16.062895
6216 0 1 1.575000 118.466250 26.826747 16.456582
6217 0 1 1.575000 112.827635 23.249848 16.062895
6218 0 3 -0.950000 116.447385 26.722302 19.662736
6219 0 2 -1.050000 116.886017 15.947249 19.662736
6220 0 3 -0.950000 117.371734 24.955313 17.048280
6221 0 2 -1.050000 117.954099 17.631254 17.048280
6222 0 3 -0.950000 120.577633 19.568503 16.742209
6223 0 2 -1.050000 123.885135 24.702069 16.877722
6224 0 2 -1.050000 121.016265 23.101049 16.742209
6225 0 3 -0.950000 114.916715 23.398647 16.877722
6226 0 2 -1.050000 120.529722 16.283478 16.877722
6227 0 2 -1.050000 123.106997 16.200494 15.777267
6228 0 2 -1.050000 119.799494 25.374526 15.641755
6229 0 2 -1.050000 122.668364 26.975546 15.777267
6230 0 3 -0.950000 116.377171 19.524149 15.641755
6231 0 2 -1.050000 123.154907 19.485519 15.641755
6232 0 3 -0.950000 119.024660 26.639318 18.562281
6233 0 1 1.575000 0.000000 14.307599 1.657107
6234 0 1 1.575000 22.716364 3.576900 7.498159
6235 0 1 1.575000 4.130248 14.307599 7.498159
6236 0 1 1.575000 22.716364 10.730699 7.498159
6237 0 1 1.575000 24.781488 14.307599 10.418686
6238 0 1 1.575000 2.065124 10.730699 4.577633
6239 0 1 1.575000 20.651240 14.307599 4.577633
6240 0 1 1.575000 2.065124 3.576900 4.577633
6241 0 1 1.575000 24.642298 10.971782 1.460263
6242 0 1 1.575000 18.725305 14.066516 1.853950
6243 0 1 1.575000 2.204313 14.066516 4.774476
6244 0 1 1.575000 24.642298 10.971782 10.221842
6245 0 1 1.575000 2.958497 1.547367 1.460263
6246 0 1 1.575000 3.236875 9.183332 1.853950
6247 0 1 1.575000 23.888115 2.029533 4.774476
6248 0 1 1.575000 2.958497 1.547367 10.221842
6249 0 1 1.575000 21.962180 1.788450 1.460263
6250 0 1 1.575000 2.819307 5.365349 1.853950
6251 0 1 1.575000 23.470547 12.519149 4.774476
6252 0 1 1.575000 21.962180 1.788450 10.221842
6253 0 1 1.575000 20.790429 10.489616 4.774476
6254 0 1 1.575000 1.925935 7.394882 4.380790
6255 0 1 1.575000 22.577174 0.241083 7.301316
6256 0 1 1.575000 0.139189 3.335817 1.853950
6257 0 1 1.575000 5.301999 12.760232 4.774476
6258 0 1 1.575000 5.023621 5.124266 4.380790
6259 0 1 1.575000 0.893373 12.278066 7.301316
6260 0 1 1.575000 21.822991 12.760232 1.853950
6261 0 1 1.575000 23.470547 5.365349 4.774476
6262 0 1 1.575000 17.831933 1.788450 4.380790
6263 0 1 1.575000 1.310941 1.788450 7.301316
6264 0 1 1.575000 2.819307 12.519149 1.853950
6265 0 2 -1.050000 23.905049 12.623594 2.688637
6266 0 2 -1.050000 21.451682 5.260904 7.980630
6267 0 2 -1.050000 4.228548 0.336229 5.366175
6268 0 2 -1.050000 24.759184 10.394470 8.116143
6269 0 2 -1.050000 1.896610 0.082984 2.688637
6270 0 2 -1.050000 21.890314 8.793450 7.980630
6271 0 2 -1.050000 22.376031 3.493916 5.366175
6272 0 2 -1.050000 3.400020 1.937249 8.116143
6273 0 2 -1.050000 23.761316 1.601020 2.688637
6274 0 2 -1.050000 6.220979 0.253244 7.980630
6275 0 2 -1.050000 22.958396 10.477454 5.366175
6276 0 2 -1.050000 21.403771 1.975879 8.116143
6277 0 2 -1.050000 23.905049 12.623594 11.450216
6278 0 2 -1.050000 0.800442 12.414703 5.060104
6279 0 2 -1.050000 20.749540 0.336229 2.445649
6280 0 2 -1.050000 4.107945 3.240671 5.195616
6281 0 2 -1.050000 1.896610 0.082984 11.450216
6282 0 2 -1.050000 1.239074 1.639651 5.060104
6283 0 2 -1.050000 1.724792 10.647715 2.445649
6284 0 2 -1.050000 19.921012 1.937249 5.195616
6285 0 2 -1.050000 23.761316 1.601020 11.450216
6286 0 2 -1.050000 22.741971 0.253244 5.060104
6287 0 2 -1.050000 2.307157 3.323655 2.445649
6288 0 2 -1.050000 0.752531 9.129679 5.195616
6289 0 2 -1.050000 0.876439 1.684004 9.387156
6290 0 2 -1.050000 3.329806 9.046695 4.095162
6291 0 2 -1.050000 20.552940 13.971370 6.709617
6292 0 2 -1.050000 0.022303 3.913128 3.959650
6293 0 2 -1.050000 22.884878 14.224615 9.387156
6294 0 2 -1.050000 2.891174 5.514149 4.095162
6295 0 2 -1.050000 2.405456 10.813683 6.709617
6296 0 2 -1.050000 21.381468 12.370350 3.959650
6297 0 2 -1.050000 1.020171 12.706578 9.387156
6298 0 2 -1.050000 18.560508 14.054354 4.095162
6299 0 2 -1.050000 1.823091 3.830144 6.709617
6300 0 2 -1.050000 3.377717 12.331719 3.959650
6301 0 2 -1.050000 0.876439 1.684004 0.625577
6302 0 2 -1.050000 23.981046 1.892895 7.015688
6303 0 2 -1.050000 4.031948 13.971370 9.630144
6304 0 2 -1.050000 20.673543 11.066928 6.880176
6305 0 2 -1.050000 22.884878 14.224615 0.625577
6306 0 2 -1.050000 23.542413 12.667948 7.015688
6307 0 2 -1.050000 23.056696 3.659884 9.630144
6308 0 2 -1.050000 4.860476 12.370350 6.880176
6309 0 2 -1.050000 1.020171 12.706578 0.625577
6310 0 2 -1.050000 2.039516 14.054354 7.015688
6311 0 2 -1.050000 22.474331 10.983943 9.630144
6312 0 2 -1.050000 24.028957 5.177920 6.880176
6313 0 1 1.575000 12.390744 7.153799 1.657107
6314 0 1 1.575000 10.325620 10.730699 7.498159
6315 0 1 1.575000 16.520992 7.153799 7.498159
6316 0 1 1.575000 10.325620 3.576900 7.498159
6317 0 1 1.575000 12.390744 7.153799 10.418686
6318 0 1 1.575000 14.455868 3.576900 4.577633
6319 0 1 1.575000 8.260496 7.153799 4.577633
6320 0 1 1.575000 14.455868 10.730699 4.577633
6321 0 1 1.575000 12.251555 3.817983 1.460263
6322 0 1 1.575000 6.334561 6.912716 1.853950
6323 0 1 1.575000 14.595057 6.912716 4.774476
6324 0 1 1.575000 12.251555 3.817983 10.221842
6325 0 1 1.575000 15.349240 8.701166 1.460263
6326 0 1 1.575000 15.627619 2.029533 1.853950
6327 0 1 1.575000 11.497371 9.183332 4.774476
6328 0 1 1.575000 15.349240 8.701166 10.221842
6329 0 1 1.575000 9.571437 8.942249 1.460263
6330 0 1 1.575000 15.210051 12.519149 1.853950
6331 0 1 1.575000 11.079803 5.365349 4.774476
6332 0 1 1.575000 9.571437 8.942249 10.221842
6333 0 1 1.575000 8.399685 3.335817 4.774476
6334 0 1 1.575000 14.316678 0.241083 4.380790
6335 0 1 1.575000 10.186431 7.394882 7.301316
6336 0 1 1.575000 12.529933 10.489616 1.853950
6337 0 1 1.575000 17.692743 5.606433 4.774476
6338 0 1 1.575000 17.414364 12.278066 4.380790
6339 0 1 1.575000 13.284116 5.124266 7.301316
6340 0 1 1.575000 9.432247 5.606433 1.853950
6341 0 1 1.575000 11.079803 12.519149 4.774476
6342 0 1 1.575000 5.441189 8.942249 4.380790
6343 0 1 1.575000 13.701685 8.942249 7.301316
6344 0 1 1.575000 15.210051 5.365349 1.853950
6345 0 2 -1.050000 11.514305 5.469795 2.688637
6346 0 2 -1.050000 9.060938 12.414703 7.980630
6347 0 2 -1.050000 16.619292 7.490028 5.366175
6348 0 2 -1.050000 12.368441 3.240671 8.116143
6349 0 2 -1.050000 14.287354 7.236783 2.688637
6350 0 2 -1.050000 9.499570 1.639651 7.980630
6351 0 2 -1.050000 9.985287 10.647715 5.366175
6352 0 2 -1.050000 15.790764 9.091048 8.116143
6353 0 2 -1.050000 11.370573 8.754820 2.688637
6354 0 2 -1.050000 18.611723 7.407044 7.980630
6355 0 2 -1.050000 10.567652 3.323655 5.366175
6356 0 2 -1.050000 9.013027 9.129679 8.116143
6357 0 2 -1.050000 11.514305 5.469795 11.450216
6358 0 2 -1.050000 13.191186 5.260904 5.060104
6359 0 2 -1.050000 8.358796 7.490028 2.445649
6360 0 2 -1.050000 16.498688 10.394470 5.195616
6361 0 2 -1.050000 14.287354 7.236783 11.450216
6362 0 2 -1.050000 13.629818 8.793450 5.060104
6363 0 2 -1.050000 14.115535 3.493916 2.445649
6364 0 2 -1.050000 7.530268 9.091048 5.195616
6365 0 2 -1.050000 11.370573 8.754820 11.450216
6366 0 2 -1.050000 10.351227 7.407044 5.060104
6367 0 2 -1.050000 14.697900 10.477454 2.445649
6368 0 2 -1.050000 13.143275 1.975879 5.195616
6369 0 2 -1.050000 13.267182 8.837804 9.387156
6370 0 2 -1.050000 15.720550 1.892895 4.095162
6371 0 2 -1.050000 8.162196 6.817571 6.709617
6372 0 2 -1.050000 12.413047 11.066928 3.959650
6373 0 2 -1.050000 10.494134 7.070815 9.387156
6374 0 2 -1.050000 15.281917 12.667948 4.095162
6375 0 2 -1.050000 14.796200 3.659884 6.709617
6376 0 2 -1.050000 8.990724 5.216550 3.959650
6377 0 2 -1.050000 13.410915 5.552779 9.387156
6378 0 2 -1.050000 6.169764 6.900555 4.095162
6379 0 2 -1.050000 14.213835 10.983943 6.709617
6380 0 2 -1.050000 15.768461 5.177920 3.959650
6381 0 2 -1.050000 13.267182 8.837804 0.625577
6382 0 2 -1.050000 11.590302 9.046695 7.015688
6383 0 2 -1.050000 16.422692 6.817571 9.630144
6384 0 2 -1.050000 8.282799 3.913128 6.880176
6385 0 2 -1.050000 10.494134 7.070815 0.625577
6386 0 2 -1.050000 11.151669 5.514149 7.015688
6387 0 2 -1.050000 10.665952 10.813683 9.630144
6388 0 2 -1.050000 17.251220 5.216550 6.880176
6389 0 2 -1.050000 13.410915 5.552779 0.625577
6390 0 2 -1.050000 14.430260 6.900555 7.015688
6391 0 2 -1.050000 10.083587 3.830144 9.630144
6392 0 2 -1.050000 11.638213 12.331719 6.880176
6393 0 1 1.575000 4.130248 7.153799 7.498159
6394 0 1 1.575000 2.065124 10.730699 13.339212
6395 0 1 1.575000 8.260496 7.153799 13.339212
6396 0 1 1.575000 2.065124 3.576900 13.339212
6397 0 1 1.575000 6.195372 3.576900 10.418686
6398 0 1 1.575000 24.781488 7.153799 10.418686
6399 0 1 1.575000 6.195372 10.730699 10.418686
6400 0 1 1.575000 3.991059 3.817983 7.301316
6401 0 1 1.575000 22.855553 6.912716 7.695003
6402 0 1 1.575000 6.334561 6.912716 10.615529
6403 0 1 1.575000 7.088745 8.701166 7.301316
6404 0 1 1.575000 7.367123 2.029533 7.695003
6405 0 1 1.575000 3.236875 9.183332 10.615529
6406 0 1 1.575000 1.310941 8.942249 7.301316
6407 0 1 1.575000 6.949555 12.519149 7.695003
6408 0 1 1.575000 2.819307 5.365349 10.615529
6409 0 1 1.575000 0.139189 3.335817 10.615529
6410 0 1 1.575000 6.056183 0.241083 10.221842
6411 0 1 1.575000 1.925935 7.394882 13.142369
6412 0 1 1.575000 4.269437 10.489616 7.695003
6413 0 1 1.575000 9.432247 5.606433 10.615529
6414 0 1 1.575000 9.153869 12.278066 10.221842
6415 0 1 1.575000 5.023621 5.124266 13.142369
6416 0 1 1.575000 1.171751 5.606433 7.695003
6417 0 1 1.575000 2.819307 12.519149 10.615529
6418 0 1 1.575000 21.962180 8.942249 10.221842
6419 0 1 1.575000 5.441189 8.942249 13.142369
6420 0 1 1.575000 6.949555 5.365349 7.695003
6421 0 2 -1.050000 3.253809 5.469795 8.529689
6422 0 2 -1.050000 0.800442 12.414703 13.821683
6423 0 2 -1.050000 8.358796 7.490028 11.207228
6424 0 2 -1.050000 4.107945 3.240671 13.957195
6425 0 2 -1.050000 6.026858 7.236783 8.529689
6426 0 2 -1.050000 1.239074 1.639651 13.821683
6427 0 2 -1.050000 1.724792 10.647715 11.207228
6428 0 2 -1.050000 7.530268 9.091048 13.957195
6429 0 2 -1.050000 3.110077 8.754820 8.529689
6430 0 2 -1.050000 10.351227 7.407044 13.821683
6431 0 2 -1.050000 2.307157 3.323655 11.207228
6432 0 2 -1.050000 0.752531 9.129679 13.957195
6433 0 2 -1.050000 4.930690 5.260904 10.901157
6434 0 2 -1.050000 0.098300 7.490028 8.286701
6435 0 2 -1.050000 8.238193 10.394470 11.036669
6436 0 2 -1.050000 5.369322 8.793450 10.901157
6437 0 2 -1.050000 5.855040 3.493916 8.286701
6438 0 2 -1.050000 24.051260 9.091048 11.036669
6439 0 2 -1.050000 2.090732 7.407044 10.901157
6440 0 2 -1.050000 6.437404 10.477454 8.286701
6441 0 2 -1.050000 4.882779 1.975879 11.036669
6442 0 2 -1.050000 7.460054 1.892895 9.936215
6443 0 2 -1.050000 24.683188 6.817571 12.550670
6444 0 2 -1.050000 4.152551 11.066928 9.800702
6445 0 2 -1.050000 7.021422 12.667948 9.936215
6446 0 2 -1.050000 6.535704 3.659884 12.550670
6447 0 2 -1.050000 0.730228 5.216550 9.800702
6448 0 2 -1.050000 22.690756 6.900555 9.936215
6449 0 2 -1.050000 5.953339 10.983943 12.550670
6450 0 2 -1.050000 7.507965 5.177920 9.800702
6451 0 2 -1.050000 5.006687 8.837804 6.466629
6452 0 2 -1.050000 3.329806 9.046695 12.856741
6453 0 2 -1.050000 0.022303 3.913128 12.721229
6454 0 2 -1.050000 2.233638 7.070815 6.466629
6455 0 2 -1.050000 2.891174 5.514149 12.856741
6456 0 2 -1.050000 8.990724 5.216550 12.721229
6457 0 2 -1.050000 5.150419 5.552779 6.466629
6458 0 2 -1.050000 6.169764 6.900555 12.856741
6459 0 2 -1.050000 3.377717 12.331719 12.721229
6460 0 1 1.575000 16.520992 14.307599 7.498159
6461 0 1 1.575000 14.455868 3.576900 13.339212
6462 0 1 1.575000 20.651240 14.307599 13.339212
6463 0 1 1.575000 14.455868 10.730699 13.339212
6464 0 1 1.575000 18.586116 10.730699 10.418686
6465 0 1 1.575000 12.390744 14.307599 10.418686
6466 0 1 1.575000 18.586116 3.576900 10.418686
6467 0 1 1.575000 16.381802 10.971782 7.301316
6468 0 1 1.575000 10.464809 14.066516 7.695003
6469 0 1 1.575000 18.725305 14.066516 10.615529
6470 0 1 1.575000 19.479488 1.547367 7.301316
6471 0 1 1.575000 19.757867 9.183332 7.695003
6472 0 1 1.575000 15.627619 2.029533 10.615529
6473 0 1 1.575000 13.701685 1.788450 7.301316
6474 0 1 1.575000 19.340299 5.365349 7.695003
6475 0 1 1.575000 15.210051 12.519149 10.615529
6476 0 1 1.575000 12.529933 10.489616 10.615529
6477 0 1 1.575000 18.446926 7.394882 10.221842
6478 0 1 1.575000 14.316678 0.241083 13.142369
6479 0 1 1.575000 16.660181 3.335817 7.695003
6480 0 1 1.575000 21.822991 12.760232 10.615529
6481 0 1 1.575000 21.544612 5.124266 10.221842
6482 0 1 1.575000 17.414364 12.278066 13.142369
6483 0 1 1.575000 13.562495 12.760232 7.695003
6484 0 1 1.575000 15.210051 5.365349 10.615529
6485 0 1 1.575000 9.571437 1.788450 10.221842
6486 0 1 1.575000 17.831933 1.788450 13.142369
6487 0 1 1.575000 19.340299 12.519149 7.695003
6488 0 2 -1.050000 15.644553 12.623594 8.529689
6489 0 2 -1.050000 13.191186 5.260904 13.821683
6490 0 2 -1.050000 20.749540 0.336229 11.207228
6491 0 2 -1.050000 16.498688 10.394470 13.957195
6492 0 2 -1.050000 18.417602 0.082984 8.529689
6493 0 2 -1.050000 13.629818 8.793450 13.821683
6494 0 2 -1.050000 14.115535 3.493916 11.207228
6495 0 2 -1.050000 19.921012 1.937249 13.957195
6496 0 2 -1.050000 15.500821 1.601020 8.529689
6497 0 2 -1.050000 22.741971 0.253244 13.821683
6498 0 2 -1.050000 14.697900 10.477454 11.207228
6499 0 2 -1.050000 13.143275 1.975879 13.957195
6500 0 2 -1.050000 17.321434 12.414703 10.901157
6501 0 2 -1.050000 12.489044 0.336229 8.286701
6502 0 2 -1.050000 20.628936 3.240671 11.036669
6503 0 2 -1.050000 17.760066 1.639651 10.901157
6504 0 2 -1.050000 18.245783 10.647715 8.286701
6505 0 2 -1.050000 11.660516 1.937249 11.036669
6506 0 2 -1.050000 14.481475 0.253244 10.901157
6507 0 2 -1.050000 18.828148 3.323655 8.286701
6508 0 2 -1.050000 17.273523 9.129679 11.036669
6509 0 2 -1.050000 19.850798 9.046695 9.936215
6510 0 2 -1.050000 12.292444 13.971370 12.550670
6511 0 2 -1.050000 16.543295 3.913128 9.800702
6512 0 2 -1.050000 19.412165 5.514149 9.936215
6513 0 2 -1.050000 18.926448 10.813683 12.550670
6514 0 2 -1.050000 13.120972 12.370350 9.800702
6515 0 2 -1.050000 10.300012 14.054354 9.936215
6516 0 2 -1.050000 18.344083 3.830144 12.550670
6517 0 2 -1.050000 19.898709 12.331719 9.800702
6518 0 2 -1.050000 17.397430 1.684004 6.466629
6519 0 2 -1.050000 15.720550 1.892895 12.856741
6520 0 2 -1.050000 12.413047 11.066928 12.721229
6521 0 2 -1.050000 14.624382 14.224615 6.466629
6522 0 2 -1.050000 15.281917 12.667948 12.856741
6523 0 2 -1.050000 21.381468 12.370350 12.721229
6524 0 2 -1.050000 17.541163 12.706578 6.466629
6525 0 2 -1.050000 18.560508 14.054354 12.856741
6526 0 2 -1.050000 15.768461 5.177920 12.721229
6527 0 1 1.575000 8.260496 14.307599 13.339212
6528 0 1 1.575000 6.195372 3.576900 1.657107
6529 0 1 1.575000 12.390744 14.307599 1.657107
6530 0 1 1.575000 6.195372 10.730699 1.657107
6531 0 1 1.575000 8.260496 14.307599 4.577633
6532 0 1 1.575000 8.121307 10.971782 13.142369
6533 0 1 1.575000 2.204313 14.066516 13.536055
6534 0 1 1.575000 8.121307 10.971782 4.380790
6535 0 1 1.575000 11.218993 1.547367 13.142369
6536 0 1 1.575000 11.497371 9.183332 13.536055
6537 0 1 1.575000 11.218993 1.547367 4.380790
6538 0 1 1.575000 5.441189 1.788450 13.142369
6539 0 1 1.575000 11.079803 5.365349 13.536055
6540 0 1 1.575000 5.441189 1.788450 4.380790
6541 0 1 1.575000 6.056183 0.241083 1.460263
6542 0 1 1.575000 8.399685 3.335817 13.536055
6543 0 1 1.575000 9.153869 12.278066 1.460263
6544 0 1 1.575000 5.301999 12.760232 13.536055
6545 0 1 1.575000 9.571437 1.788450 1.460263
6546 0 1 1.575000 11.079803 12.519149 13.536055
6547 0 2 -1.050000 7.384057 12.623594 14.370742
6548 0 2 -1.050000 4.930690 5.260904 2.139578
6549 0 2 -1.050000 8.238193 10.394470 2.275090
6550 0 2 -1.050000 10.157106 0.082984 14.370742
6551 0 2 -1.050000 5.369322 8.793450 2.139578
6552 0 2 -1.050000 11.660516 1.937249 2.275090
6553 0 2 -1.050000 7.240325 1.601020 14.370742
6554 0 2 -1.050000 14.481475 0.253244 2.139578
6555 0 2 -1.050000 4.882779 1.975879 2.275090
6556 0 2 -1.050000 7.384057 12.623594 5.609163
6557 0 2 -1.050000 4.228548 0.336229 14.127754
6558 0 2 -1.050000 10.157106 0.082984 5.609163
6559 0 2 -1.050000 9.985287 10.647715 14.127754
6560 0 2 -1.050000 7.240325 1.601020 5.609163
6561 0 2 -1.050000 10.567652 3.323655 14.127754
6562 0 2 -1.050000 9.136935 1.684004 3.546103
6563 0 2 -1.050000 4.031948 13.971370 0.868565
6564 0 2 -1.050000 6.363886 14.224615 3.546103
6565 0 2 -1.050000 10.665952 10.813683 0.868565
6566 0 2 -1.050000 9.280667 12.706578 3.546103
6567 0 2 -1.050000 10.083587 3.830144 0.868565
6568 0 2 -1.050000 9.136935 1.684004 12.307682
6569 0 2 -1.050000 7.460054 1.892895 1.174636
6570 0 2 -1.050000 12.292444 13.971370 3.789091
6571 0 2 -1.050000 4.152551 11.066928 1.039123
6572 0 2 -1.050000 6.363886 14.224615 12.307682
6573 0 2 -1.050000 7.021422 12.667948 1.174636
6574 0 2 -1.050000 6.535704 3.659884 3.789091
6575 0 2 -1.050000 13.120972 12.370350 1.039123
6576 0 2 -1.050000 9.280667 12.706578 12.307682
6577 0 2 -1.050000 10.300012 14.054354 1.174636
6578 0 2 -1.050000 5.953339 10.983943 3.789091
6579 0 2 -1.050000 7.507965 5.177920 1.039123
6580 0 1 1.575000 20.651240 7.153799 13.339212
6581 0 1 1.575000 18.586116 10.730699 1.657107
6582 0 1 1.575000 24.781488 7.153799 1.657107
6583 0 1 1.575000 18.586116 3.576900 1.657107
6584 0 1 1.575000 20.651240 7.153799 4.577633
6585 0 1 1.575000 20.512050 3.817983 13.142369
6586 0 1 1.575000 14.595057 6.912716 13.536055
6587 0 1 1.575000 20.512050 3.817983 4.380790
6588 0 1 1.575000 23.609736 8.701166 13.142369
6589 0 1 1.575000 23.888115 2.029533 13.536055
6590 0 1 1.575000 23.609736 8.701166 4.380790
6591 0 1 1.575000 17.831933 8.942249 13.142369
6592 0 1 1.575000 23.470547 12.519149 13.536055
6593 0 1 1.575000 17.831933 8.942249 4.380790
6594 0 1 1.575000 18.446926 7.394882 1.460263
6595 0 1 1.575000 20.790429 10.489616 13.536055
6596 0 1 1.575000 21.544612 5.124266 1.460263
6597 0 1 1.575000 17.692743 5.606433 13.536055
6598 0 1 1.575000 21.962180 8.942249 1.460263
6599 0 1 1.575000 23.470547 5.365349 13.536055
6600 0 2 -1.050000 19.774801 5.469795 14.370742
6601 0 2 -1.050000 17.321434 12.414703 2.139578
6602 0 2 -1.050000 20.628936 3.240671 2.275090
6603 0 2 -1.050000 22.547850 7.236783 14.370742
6604 0 2 -1.050000 17.760066 1.639651 2.139578
6605 0 2 -1.050000 24.051260 9.091048 2.275090
6606 0 2 -1.050000 19.631069 8.754820 14.370742
6607 0 2 -1.050000 2.090732 7.407044 2.139578
6608 0 2 -1.050000 17.273523 9.129679 2.275090
6609 0 2 -1.050000 19.774801 5.469795 5.609163
6610 0 2 -1.050000 16.619292 7.490028 14.127754
6611 0 2 -1.050000 22.547850 7.236783 5.609163
6612 0 2 -1.050000 22.376031 3.493916 14.127754
6613 0 2 -1.050000 19.631069 8.754820 5.609163
6614 0 2 -1.050000 22.958396 10.477454 14.127754
6615 0 2 -1.050000 21.527678 8.837804 3.546103
6616 0 2 -1.050000 16.422692 6.817571 0.868565
6617 0 2 -1.050000 18.754630 7.070815 3.546103
6618 0 2 -1.050000 23.056696 3.659884 0.868565
6619 0 2 -1.050000 21.671411 5.552779 3.546103
6620 0 2 -1.050000 22.474331 10.983943 0.868565
6621 0 2 -1.050000 21.527678 8.837804 12.307682
6622 0 2 -1.050000 19.850798 9.046695 1.174636
6623 0 2 -1.050000 24.683188 6.817571 3.789091
6624 0 2 -1.050000 16.543295 3.913128 1.039123
6625 0 2 -1.050000 18.754630 7.070815 12.307682
6626 0 2 -1.050000 19.412165 5.514149 1.174636
6627 0 2 -1.050000 18.926448 10.813683 3.789091
6628 0 2 -1.050000 0.730228 5.216550 1.039123
6629 0 2 -1.050000 21.671411 5.552779 12.307682
6630 0 2 -1.050000 22.690756 6.900555 1.174636
6631 0 2 -1.050000 18.344083 3.830144 3.789091
6632 0 2 -1.050000 19.898709 12.331719 1.039123
6633 0 1 1.575000 0.000000 14.307599 19.180265
6634 0 1 1.575000 22.716364 3.576900 25.021317
6635 0 1 1.575000 22.716364 10.730699 25.021317
6636 0 1 1.575000 2.065124 10.730699 22.100791
6637 0 1 1.575000 2.065124 3.576900 22.100791
6638 0 1 1.575000 24.642298 10.971782 18.983421
6639 0 1 1.575000 18.725305 14.066516 19.377108
6640 0 1 1.575000 2.204313 14.066516 22.297634
6641 0 1 1.575000 2.958497 1.547367 18.983421
6642 0 1 1.575000 3.236875 9.183332 19.377108
6643 0 1 1.575000 23.888115 2.029533 22.297634
6644 0 1 1.575000 2.958497 1.547367 27.745000
6645 0 1 1.575000 21.962180 1.788450 18.983421
6646 0 1 1.575000 2.819307 5.365349 19.377108
6647 0 1 1.575000 23.470547 12.519149 22.297634
6648 0 1 1.575000 21.962180 1.788450 27.745000
6649 0 1 1.575000 20.790429 10.489616 22.297634
6650 0 1 1.575000 1.925935 7.394882 21.903948
6651 0 1 1.575000 22.577174 0.241083 24.824474
6652 0 1 1.575000 0.139189 3.335817 19.377108
6653 0 1 1.575000 5.301999 12.760232 22.297634
6654 0 1 1.575000 5.023621 5.124266 21.903948
6655 0 1 1.575000 21.822991 12.760232 19.377108
6656 0 1 1.575000 23.470547 5.365349 22.297634
6657 0 1 1.575000 17.831933 1.788450 21.903948
6658 0 1 1.575000 1.310941 1.788450 24.824474
6659 0 1 1.575000 2.819307 12.519149 19.377108
6660 0 2 -1.050000 23.905049 12.623594 20.211795
6661 0 2 -1.050000 21.451682 5.260904 25.503788
6662 0 2 -1.050000 4.228548 0.336229 22.889333
6663 0 3 -0.950000 24.759184 10.394470 25.639301
6664 0 2 -1.050000 1.896610 0.082984 20.211795
6665 0 2 -1.050000 21.890314 8.793450 25.503788
6666 0 2 -1.050000 22.376031 3.493916 22.889333
6667 0 2 -1.050000 3.400020 1.937249 25.639301
6668 0 2 -1.050000 23.761316 1.601020 20.211795
6669 0 2 -1.050000 6.220979 0.253244 25.503788
6670 0 2 -1.050000 22.958396 10.477454 22.889333
6671 0 2 -1.050000 21.403771 1.975879 25.639301
6672 0 2 -1.050000 0.800442 12.414703 22.583262
6673 0 2 -1.050000 20.749540 0.336229 19.968807
6674 0 2 -1.050000 4.107945 3.240671 22.718774
6675 0 3 -0.950000 1.896610 0.082984 28.973374
6676 0 2 -1.050000 1.239074 1.639651 22.583262
6677 0 2 -1.050000 1.724792 10.647715 19.968807
6678 0 2 -1.050000 19.921012 1.937249 22.718774
6679 0 2 -1.050000 23.761316 1.601020 28.973374
6680 0 2 -1.050000 22.741971 0.253244 22.583262
6681 0 2 -1.050000 2.307157 3.323655 19.968807
6682 0 2 -1.050000 0.752531 9.129679 22.718774
6683 0 2 -1.050000 0.876439 1.684004 26.910314
6684 0 2 -1.050000 3.329806 9.046695 21.618320
6685 0 2 -1.050000 0.022303 3.913128 21.482808
6686 0 2 -1.050000 2.891174 5.514149 21.618320
6687 0 2 -1.050000 2.405456 10.813683 24.232775
6688 0 3 -0.950000 21.381468 12.370350 21.482808
6689 0 2 -1.050000 18.560508 14.054354 21.618320
6690 0 2 -1.050000 1.823091 3.830144 24.232775
6691 0 2 -1.050000 3.377717 12.331719 21.482808
6692 0 2 -1.050000 0.876439 1.684004 18.148735
6693 0 2 -1.050000 23.981046 1.892895 24.538846
6694 0 2 -1.050000 20.673543 11.066928 24.403334
6695 0 2 -1.050000 22.884878 14.224615 18.148735
6696 0 2 -1.050000 23.056696 3.659884 27.153302
6697 0 2 -1.050000 1.020171 12.706578 18.148735
6698 0 2 -1.050000 24.028957 5.177920 24.403334
6699 0 1 1.575000 12.390744 7.153799 19.180265
6700 0 1 1.575000 10.325620 10.730699 25.021317
6701 0 1 1.575000 16.520992 7.153799 25.021317
6702 0 1 1.575000 10.325620 3.576900 25.021317
6703 0 1 1.575000 12.390744 7.153799 27.941844
6704 0 1 1.575000 14.455868 3.576900 22.100791
6705 0 1 1.575000 8.260496 7.153799 22.100791
6706 0 1 1.575000 14.455868 10.730699 22.100791
6707 0 1 1.575000 12.251555 3.817983 18.983421
6708 0 1 1.575000 6.334561 6.912716 19.377108
6709 0 1 1.575000 14.595057 6.912716 22.297634
6710 0 1 1.575000 12.251555 3.817983 27.745000
6711 0 1 1.575000 15.349240 8.701166 18.983421
6712 0 1 1.575000 15.627619 2.029533 19.377108
6713 0 1 1.575000 11.497371 9.183332 22.297634
6714 0 1 1.575000 9.571437 8.942249 18.983421
6715 0 1 1.575000 15.210051 12.519149 19.377108
6716 0 1 1.575000 11.079803 5.365349 22.297634
6717 0 1 1.575000 8.399685 3.335817 22.297634
6718 0 1 1.575000 14.316678 0.241083 21.903948
6719 0 1 1.575000 10.186431 7.394882 24.824474
6720 0 1 1.575000 12.529933 10.489616 19.377108
6721 0 1 1.575000 17.692743 5.606433 22.297634
6722 0 1 1.575000 17.414364 12.278066 21.903948
6723 0 1 1.575000 13.284116 5.124266 24.824474
6724 0 1 1.575000 9.432247 5.606433 19.377108
6725 0 1 1.575000 11.079803 12.519149 22.297634
6726 0 1 1.575000 5.441189 8.942249 21.903948
6727 0 1 1.575000 13.701685 8.942249 24.824474
6728 0 1 1.575000 15.210051 5.365349 19.377108
6729 0 2 -1.050000 11.514305 5.469795 20.211795
6730 0 2 -1.050000 16.619292 7.490028 22.889333
6731 0 2 -1.050000 12.368441 3.240671 25.639301
6732 0 2 -1.050000 14.287354 7.236783 20.211795
6733 0 2 -1.050000 9.499570 1.639651 25.503788
6734 0 2 -1.050000 9.985287 10.647715 22.889333
6735 0 2 -1.050000 15.790764 9.091048 25.639301
6736 0 2 -1.050000 11.370573 8.754820 20.211795
6737 0 2 -1.050000 18.611723 7.407044 25.503788
6738 0 2 -1.050000 10.567652 3.323655 22.889333
6739 0 3 -0.950000 9.013027 9.129679 25.639301
6740 0 3 -0.950000 11.514305 5.469795 28.973374
6741 0 2 -1.050000 13.191186 5.260904 22.583262
6742 0 2 -1.050000 8.358796 7.490028 19.968807
6743 0 2 -1.050000 16.498688 10.394470 22.718774
6744 0 3 -0.950000 14.287354 7.236783 28.973374
6745 0 2 -1.050000 13.629818 8.793450 22.583262
6746 0 2 -1.050000 14.115535 3.493916 19.968807
6747 0 2 -1.050000 7.530268 9.091048 22.718774
6748 0 2 -1.050000 10.351227 7.407044 22.583262
6749 0 2 -1.050000 14.697900 10.477454 19.968807
6750 0 2 -1.050000 13.143275 1.975879 22.718774
6751 0 2 -1.050000 15.720550 1.892895 21.618320
6752 0 2 -1.050000 8.162196 6.817571 24.232775
6753 0 2 -1.050000 12.413047 11.066928 21.482808
6754 0 2 -1.050000 10.494134 7.070815 26.910314
6755 0 2 -1.050000 15.281917 12.667948 21.618320
6756 0 2 -1.050000 14.796200 3.659884 24.232775
6757 0 2 -1.050000 8.990724 5.216550 21.482808
6758 0 2 -1.050000 13.410915 5.552779 26.910314
6759 0 2 -1.050000 6.169764 6.900555 21.618320
6760 0 2 -1.050000 14.213835 10.983943 24.232775
6761 0 2 -1.050000 15.768461 5.177920 21.482808
6762 0 2 -1.050000 13.267182 8.837804 18.148735
6763 0 2 -1.050000 11.590302 9.046695 24.538846
6764 0 2 -1.050000 16.422692 6.817571 27.153302
6765 0 2 -1.050000 8.282799 3.913128 24.403334
6766 0 2 -1.050000 10.494134 7.070815 18.148735
6767 0 2 -1.050000 11.151669 5.514149 24.538846
6768 0 2 -1.050000 17.251220 5.216550 24.403334
6769 0 2 -1.050000 13.410915 5.552779 18.148735
6770 0 2 -1.050000 14.430260 6.900555 24.538846
6771 0 2 -1.050000 10.083587 3.830144 27.153302
6772 0 1 1.575000 4.130248 7.153799 25.021317
6773 0 1 1.575000 4.130248 7.153799 16.259738
6774 0 1 1.575000 6.195372 3.576900 27.941844
6775 0 1 1.575000 24.781488 7.153799 27.941844
6776 0 1 1.575000 3.991059 3.817983 24.824474
6777 0 1 1.575000 22.855553 6.912716 25.218161
6778 0 1 1.575000 6.334561 6.912716 28.138687
6779 0 1 1.575000 3.991059 3.817983 16.062895
6780 0 1 1.575000 7.088745 8.701166 24.824474
6781 0 1 1.575000 7.367123 2.029533 25.218161
6782 0 1 1.575000 7.088745 8.701166 16.062895
6783 0 1 1.575000 1.310941 8.942249 24.824474
6784 0 1 1.575000 2.819307 5.365349 28.138687
6785 0 1 1.575000 1.310941 8.942249 16.062895
6786 0 1 1.575000 0.139189 3.335817 28.138687
6787 0 1 1.575000 6.056183 0.241083 27.745000
6788 0 1 1.575000 4.269437 10.489616 25.218161
6789 0 1 1.575000 9.432247 5.606433 28.138687
6790 0 1 1.575000 1.171751 5.606433 25.218161
6791 0 1 1.575000 6.949555 5.365349 25.218161
6792 0 2 -1.050000 3.253809 5.469795 26.052847
6793 0 3 -0.950000 8.358796 7.490028 28.730386
6794 0 2 -1.050000 6.026858 7.236783 26.052847
6795 0 2 -1.050000 3.110077 8.754820 26.052847
6796 0 3 -0.950000 2.307157 3.323655 28.730386
6797 0 2 -1.050000 3.253809 5.469795 17.291268
6798 0 2 -1.050000 4.930690 5.260904 28.424315
6799 0 2 -1.050000 0.098300 7.490028 25.809859
6800 0 2 -1.050000 6.026858 7.236783 17.291268
6801 0 2 -1.050000 5.855040 3.493916 25.809859
6802 0 2 -1.050000 3.110077 8.754820 17.291268
6803 0 3 -0.950000 2.090732 7.407044 28.424315
6804 0 3 -0.950000 6.437404 10.477454 25.809859
6805 0 3 -0.950000 4.882779 1.975879 28.559827
6806 0 2 -1.050000 5.006687 8.837804 15.228208
6807 0 2 -1.050000 7.460054 1.892895 27.459373
6808 0 2 -1.050000 2.233638 7.070815 15.228208
6809 0 2 -1.050000 0.730228 5.216550 27.323860
6810 0 2 -1.050000 5.150419 5.552779 15.228208
6811 0 3 -0.950000 22.690756 6.900555 27.459373
6812 0 2 -1.050000 7.507965 5.177920 27.323860
6813 0 2 -1.050000 5.006687 8.837804 23.989787
6814 0 2 -1.050000 8.162196 6.817571 15.471196
6815 0 2 -1.050000 2.233638 7.070815 23.989787
6816 0 2 -1.050000 2.405456 10.813683 15.471196
6817 0 2 -1.050000 5.150419 5.552779 23.989787
6818 0 2 -1.050000 1.823091 3.830144 15.471196
6819 0 1 1.575000 16.520992 14.307599 16.259738
6820 0 1 1.575000 18.586116 3.576900 27.941844
6821 0 1 1.575000 16.381802 10.971782 24.824474
6822 0 1 1.575000 16.381802 10.971782 16.062895
6823 0 1 1.575000 19.479488 1.547367 24.824474
6824 0 1 1.575000 19.757867 9.183332 25.218161
6825 0 1 1.575000 15.627619 2.029533 28.138687
6826 0 1 1.575000 19.479488 1.547367 16.062895
6827 0 1 1.575000 13.701685 1.788450 24.824474
6828 0 1 1.575000 19.340299 5.365349 25.218161
6829 0 1 1.575000 13.701685 1.788450 16.062895
6830 0 1 1.575000 16.660181 3.335817 25.218161
6831 0 1 1.575000 21.544612 5.124266 27.745000
6832 0 1 1.575000 15.210051 5.365349 28.138687
6833 0 1 1.575000 9.571437 1.788450 27.745000
6834 0 3 -0.950000 20.749540 0.336229 28.730386
6835 0 2 -1.050000 18.417602 0.082984 26.052847
6836 0 3 -0.950000 14.115535 3.493916 28.730386
6837 0 2 -1.050000 15.500821 1.601020 26.052847
6838 0 2 -1.050000 15.644553 12.623594 17.291268
6839 0 2 -1.050000 12.489044 0.336229 25.809859
6840 0 3 -0.950000 20.628936 3.240671 28.559827
6841 0 2 -1.050000 18.417602 0.082984 17.291268
6842 0 2 -1.050000 17.760066 1.639651 28.424315
6843 0 3 -0.950000 18.245783 10.647715 25.809859
6844 0 3 -0.950000 11.660516 1.937249 28.559827
6845 0 2 -1.050000 15.500821 1.601020 17.291268
6846 0 2 -1.050000 14.481475 0.253244 28.424315
6847 0 2 -1.050000 18.828148 3.323655 25.809859
6848 0 2 -1.050000 17.397430 1.684004 15.228208
6849 0 2 -1.050000 16.543295 3.913128 27.323860
6850 0 2 -1.050000 14.624382 14.224615 15.228208
6851 0 2 -1.050000 19.412165 5.514149 27.459373
6852 0 2 -1.050000 17.541163 12.706578 15.228208
6853 0 2 -1.050000 17.397430 1.684004 23.989787
6854 0 2 -1.050000 20.552940 13.971370 15.471196
6855 0 2 -1.050000 14.796200 3.659884 15.471196
6856 0 2 -1.050000 14.213835 10.983943 15.471196
6857 0 1 1.575000 6.195372 3.576900 19.180265
6858 0 1 1.575000 12.390744 14.307599 19.180265
6859 0 1 1.575000 6.195372 10.730699 19.180265
6860 0 1 1.575000 10.325620 10.730699 16.259738
6861 0 1 1.575000 4.130248 14.307599 16.259738
6862 0 1 1.575000 10.325620 3.576900 16.259738
6863 0 1 1.575000 10.464809 14.066516 16.456582
6864 0 1 1.575000 8.121307 10.971782 21.903948
6865 0 1 1.575000 7.367123 2.029533 16.456582
6866 0 1 1.575000 11.218993 1.547367 21.903948
6867 0 1 1.575000 6.949555 12.519149 16.456582
6868 0 1 1.575000 5.441189 1.788450 21.903948
6869 0 1 1.575000 4.269437 10.489616 16.456582
6870 0 1 1.575000 10.186431 7.394882 16.062895
6871 0 1 1.575000 6.056183 0.241083 18.983421
6872 0 1 1.575000 13.562495 12.760232 16.456582
6873 0 1 1.575000 13.284116 5.124266 16.062895
6874 0 1 1.575000 9.153869 12.278066 18.983421
6875 0 1 1.575000 6.949555 5.365349 16.456582
6876 0 1 1.575000 1.310941 1.788450 16.062895
6877 0 1 1.575000 9.571437 1.788450 18.983421
6878 0 2 -1.050000 4.930690 5.260904 19.662736
6879 0 2 -1.050000 12.489044 0.336229 17.048280
6880 0 2 -1.050000 8.238193 10.394470 19.798248
6881 0 2 -1.050000 5.369322 8.793450 19.662736
6882 0 2 -1.050000 5.855040 3.493916 17.048280
6883 0 2 -1.050000 11.660516 1.937249 19.798248
6884 0 2 -1.050000 14.481475 0.253244 19.662736
6885 0 2 -1.050000 6.437404 10.477454 17.048280
6886 0 2 -1.050000 4.882779 1.975879 19.798248
6887 0 3 -0.950000 7.384057 12.623594 23.132321
6888 0 2 -1.050000 9.060938 12.414703 16.742209
6889 0 2 -1.050000 12.368441 3.240671 16.877722
6890 0 2 -1.050000 10.157106 0.082984 23.132321
6891 0 2 -1.050000 9.499570 1.639651 16.742209
6892 0 2 -1.050000 3.400020 1.937249 16.877722
6893 0 2 -1.050000 7.240325 1.601020 23.132321
6894 0 2 -1.050000 6.220979 0.253244 16.742209
6895 0 2 -1.050000 9.013027 9.129679 16.877722
6896 0 2 -1.050000 9.136935 1.684004 21.069261
6897 0 2 -1.050000 11.590302 9.046695 15.777267
6898 0 2 -1.050000 4.031948 13.971370 18.391723
6899 0 2 -1.050000 8.282799 3.913128 15.641755
6900 0 2 -1.050000 11.151669 5.514149 15.777267
6901 0 2 -1.050000 10.665952 10.813683 18.391723
6902 0 2 -1.050000 4.860476 12.370350 15.641755
6903 0 2 -1.050000 9.280667 12.706578 21.069261
6904 0 2 -1.050000 2.039516 14.054354 15.777267
6905 0 2 -1.050000 10.083587 3.830144 18.391723
6906 0 2 -1.050000 11.638213 12.331719 15.641755
6907 0 2 -1.050000 7.460054 1.892895 18.697794
6908 0 3 -0.950000 12.292444 13.971370 21.312249
6909 0 2 -1.050000 4.152551 11.066928 18.562281
6910 0 2 -1.050000 7.021422 12.667948 18.697794
6911 0 2 -1.050000 6.535704 3.659884 21.312249
6912 0 2 -1.050000 13.120972 12.370350 18.562281
6913 0 2 -1.050000 10.300012 14.054354 18.697794
6914 0 2 -1.050000 5.953339 10.983943 21.312249
6915 0 2 -1.050000 7.507965 5.177920 18.562281
6916 0 1 1.575000 18.586116 10.730699 19.180265
6917 0 1 1.575000 24.781488 7.153799 19.180265
6918 0 1 1.575000 18.586116 3.576900 19.180265
6919 0 1 1.575000 20.651240 7.153799 22.100791
6920 0 1 1.575000 22.716364 3.576900 16.259738
6921 0 1 1.575000 16.520992 7.153799 16.259738
6922 0 1 1.575000 22.716364 10.730699 16.259738
6923 0 1 1.575000 22.855553 6.912716 16.456582
6924 0 1 1.575000 20.512050 3.817983 21.903948
6925 0 1 1.575000 19.757867 9.183332 16.456582
6926 0 1 1.575000 23.609736 8.701166 21.903948
6927 0 1 1.575000 19.340299 5.365349 16.456582
6928 0 1 1.575000 17.831933 8.942249 21.903948
6929 0 1 1.575000 16.660181 3.335817 16.456582
6930 0 1 1.575000 22.577174 0.241083 16.062895
6931 0 1 1.575000 18.446926 7.394882 18.983421
6932 0 1 1.575000 1.171751 5.606433 16.456582
6933 0 1 1.575000 0.893373 12.278066 16.062895
6934 0 1 1.575000 21.544612 5.124266 18.983421
6935 0 1 1.575000 19.340299 12.519149 16.456582
6936 0 1 1.575000 13.701685 8.942249 16.062895
6937 0 1 1.575000 21.962180 8.942249 18.983421
6938 0 2 -1.050000 17.321434 12.414703 19.662736
6939 0 2 -1.050000 0.098300 7.490028 17.048280
6940 0 2 -1.050000 20.628936 3.240671 19.798248
6941 0 2 -1.050000 17.760066 1.639651 19.662736
6942 0 2 -1.050000 18.245783 10.647715 17.048280
6943 0 2 -1.050000 24.051260 9.091048 19.798248
6944 0 2 -1.050000 2.090732 7.407044 19.662736
6945 0 2 -1.050000 18.828148 3.323655 17.048280
6946 0 2 -1.050000 17.273523 9.129679 19.798248
6947 0 2 -1.050000 19.774801 5.469795 23.132321
6948 0 2 -1.050000 21.451682 5.260904 16.742209
6949 0 2 -1.050000 24.759184 10.394470 16.877722
6950 0 2 -1.050000 22.547850 7.236783 23.132321
6951 0 2 -1.050000 21.890314 8.793450 16.742209
6952 0 2 -1.050000 15.790764 9.091048 16.877722
6953 0 2 -1.050000 19.631069 8.754820 23.132321
6954 0 2 -1.050000 18.611723 7.407044 16.742209
6955 0 2 -1.050000 21.403771 1.975879 16.877722
6956 0 2 -1.050000 21.527678 8.837804 21.069261
6957 0 2 -1.050000 23.981046 1.892895 15.777267
6958 0 2 -1.050000 16.422692 6.817571 18.391723
6959 0 2 -1.050000 20.673543 11.066928 15.641755
6960 0 2 -1.050000 18.754630 7.070815 21.069261
6961 0 2 -1.050000 23.542413 12.667948 15.777267
6962 0 2 -1.050000 23.056696 3.659884 18.391723
6963 0 2 -1.050000 17.251220 5.216550 15.641755
6964 0 2 -1.050000 21.671411 5.552779 21.069261
6965 0 2 -1.050000 14.430260 6.900555 15.777267
6966 0 2 -1.050000 22.474331 10.983943 18.391723
6967 0 2 -1.050000 24.028957 5.177920 15.641755
6968 0 2 -1.050000 19.850798 9.046695 18.697794
6969 0 2 -1.050000 24.683188 6.817571 21.312249
6970 0 2 -1.050000 16.543295 3.913128 18.562281
6971 0 2 -1.050000 19.412165 5.514149 18.697794
6972 0 2 -1.050000 18.926448 10.813683 21.312249
6973 0 2 -1.050000 0.730228 5.216550 18.562281
6974 0 2 -1.050000 22.690756 6.900555 18.697794
6975 0 2 -1.050000 18.344083 3.830144 21.312249
6976 0 2 -1.050000 19.898709 12.331719 18.562281
6977 0 1 1.575000 24.781488 14.307599 1.657107
6978 0 1 1.575000 47.497851 3.576900 7.498159
6979 0 1 1.575000 28.911736 14.307599 7.498159
6980 0 1 1.575000 47.497851 10.730699 7.498159
6981 0 1 1.575000 49.562975 14.307599 10.418686
6982 0 1 1.575000 26.846612 10.730699 4.577633
6983 0 1 1.575000 45.432728 14.307599 4.577633
6984 0 1 1.575000 26.846612 3.576900 4.577633
6985 0 1 1.575000 49.423786 10.971782 1.460263
6986 0 1 1.575000 43.506793 14.066516 1.853950
6987 0 1 1.575000 26.985801 14.066516 4.774476
6988 0 1 1.575000 49.423786 10.971782 10.221842
6989 0 1 1.575000 27.739984 1.547367 1.460263
6990 0 1 1.575000 28.018363 9.183332 1.853950
6991 0 1 1.575000 48.669603 2.029533 4.774476
6992 0 1 1.575000 27.739984 1.547367 10.221842
6993 0 1 1.575000 46.743668 1.788450 1.460263
6994 0 1 1.575000 27.600795 5.365349 1.853950
6995 0 1 1.575000 48.252035 12.519149 4.774476
6996 0 1 1.575000 46.743668 1.788450 10.221842
6997 0 1 1.575000 45.571917 10.489616 4.774476
6998 0 1 1.575000 26.707422 7.394882 4.380790
6999 0 1 1.575000 47.358662 0.241083 7.301316
7000 0 1 1.575000 24.920677 3.335817 1.853950
7001 0 1 1.575000 30.083487 12.760232 4.774476
7002 0 1 1.575000 29.805108 5.124266 4.380790
7003 0 1 1.575000 25.674860 12.278066 7.301316
7004 0 1 1.575000 46.604479 12.760232 1.853950
7005 0 1 1.575000 48.252035 5.365349 4.774476
7006 0 1 1.575000 42.613420 1.788450 4.380790
7007 0 1 1.575000 26.092428 1.788450 7.301316
7008 0 1 1.575000 27.600795 12.519149 1.853950
7009 0 2 -1.050000 48.686537 12.623594 2.688637
7010 0 2 -1.050000 46.233170 5.260904 7.980630
7011 0 2 -1.050000 29.010036 0.336229 5.366175
7012 0 2 -1.050000 49.540672 10.394470 8.116143
7013 0 2 -1.050000 26.678098 0.082984 2.688637
7014 0 2 -1.050000 46.671802 8.793450 7.980630
7015 0 2 -1.050000 47.157519 3.493916 5.366175
7016 0 2 -1.050000 28.181508 1.937249 8.116143
7017 0 2 -1.050000 48.542804 1.601020 2.688637
7018 0 2 -1.050000 31.002467 0.253244 7.980630
7019 0 2 -1.050000 47.739884 10.477454 5.366175
7020 0 2 -1.050000 46.185259 1.975879 8.116143
7021 0 2 -1.050000 48.686537 12.623594 11.450216
7022 0 2 -1.050000 25.581930 12.414703 5.060104
7023 0 2 -1.050000 45.531027 0.336229 2.445649
7024 0 2 -1.050000 28.889432 3.240671 5.195616
7025 0 2 -1.050000 26.678098 0.082984 11.450216
7026 0 2 -1.050000 26.020562 1.639651 5.060104
7027 0 2 -1.050000 26.506279 10.647715 2.445649
7028 0 2 -1.050000 44.702500 1.937249 5.195616
7029 0 2 -1.050000 48.542804 1.601020 11.450216
7030 0 2 -1.050000 47.523459 0.253244 5.060104
7031 0 2 -1.050000 27.088644 3.323655 2.445649
7032 0 2 -1.050000 25.534019 9.129679 5.195616
7033 0 2 -1.050000 25.657926 1.684004 9.387156
7034 0 2 -1.050000 28.111294 9.046695 4.095162
7035 0 2 -1.050000 45.334428 13.971370 6.709617
7036 0 2 -1.050000 24.803791 3.913128 3.959650
7037 0 2 -1.050000 47.666366 14.224615 9.387156
7038 0 2 -1.050000 27.672661 5.514149 4.095162
7039 0 2 -1.050000 27.186944 10.813683 6.709617
7040 0 2 -1.050000 46.162955 12.370350 3.959650
7041 0 2 -1.050000 25.801659 12.706578 9.387156
7042 0 2 -1.050000 43.341996 14.054354 4.095162
7043 0 2 -1.050000 26.604579 3.830144 6.709617
7044 0 2 -1.050000 28.159205 12.331719 3.959650
7045 0 2 -1.050000 25.657926 1.684004 0.625577
7046 0 2 -1.050000 48.762533 1.892895 7.015688
7047 0 2 -1.050000 28.813436 13.971370 9.630144
7048 0 2 -1.050000 45.455031 11.066928 6.880176
7049 0 2 -1.050000 47.666366 14.224615 0.625577
7050 0 2 -1.050000 48.323901 12.667948 7.015688
7051 0 2 -1.050000 47.838184 3.659884 9.630144
7052 0 2 -1.050000 29.641964 12.370350 6.880176
7053 0 2 -1.050000 25.801659 12.706578 0.625577
7054 0 2 -1.050000 26.821004 14.054354 7.015688
7055 0 2 -1.050000 47.255819 10.983943 9.630144
7056 0 2 -1.050000 48.810444 5.177920 6.880176
7057 0 1 1.575000 37.172232 7.153799 1.657107
7058 0 1 1.575000 35.107108 10.730699 7.498159
7059 0 1 1.575000 41.302480 7.153799 7.498159
7060 0 1 1.575000 35.107108 3.576900 7.498159
7061 0 1 1.575000 37.172232 7.153799 10.418686
7062 0 1 1.575000 39.237356 3.576900 4.577633
7063 0 1 1.575000 33.041984 7.153799 4.577633
7064 0 1 1.575000 39.237356 10.730699 4.577633
7065 0 1 1.575000 37.033042 3.817983 1.460263
7066 0 1 1.575000 31.116049 6.912716 1.853950
7067 0 1 1.575000 39.376545 6.912716 4.774476
7068 0 1 1.575000 37.033042 3.817983 10.221842
7069 0 1 1.575000 40.130728 8.701166 1.460263
7070 0 1 1.575000 40.409107 2.029533 1.853950
7071 0 1 1.575000 36.278859 9.183332 4.774476
7072 0 1 1.575000 40.130728 8.701166 10.221842
7073 0 1 1.575000 34.352924 8.942249 1.460263
7074 0 1 1.575000 39.991539 12.519149 1.853950
7075 0 1 1.575000 35.861291 5.365349 4.774476
7076 0 1 1.575000 34.352924 8.942249 10.221842
7077 0 1 1.575000 33.181173 3.335817 4.774476
7078 0 1 1.575000 39.098166 0.241083 4.380790
7079 0 1 1.575000 34.967918 7.394882 7.301316
7080 0 1 1.575000 37.311421 10.489616 1.853950
7081 0 1 1.575000 42.474231 5.606433 4.774476
7082 0 1 1.575000 42.195852 12.278066 4.380790
7083 0 1 1.575000 38.065604 5.124266 7.301316
7084 0 1 1.575000 34.213735 5.606433 1.853950
7085 0 1 1.575000 35.861291 12.519149 4.774476
7086 0 1 1.575000 30.222676 8.942249 4.380790
7087 0 1 1.575000 38.483172 8.942249 7.301316
7088 0 1 1.575000 39.991539 5.365349 1.853950
7089 0 2 -1.050000 36.295793 5.469795 2.688637
7090 0 2 -1.050000 33.842426 12.414703 7.980630
7091 0 2 -1.050000 41.400779 7.490028 5.366175
7092 0 2 -1.050000 37.149928 3.240671 8.116143
7093 0 2 -1.050000 39.068841 7.236783 2.688637
7094 0 2 -1.050000 34.281058 1.639651 7.980630
7095 0 2 -1.050000 34.766775 10.647715 5.366175
7096 0 2 -1.050000 40.572252 9.091048 8.116143
7097 0 2 -1.050000 36.152060 8.754820 2.688637
7098 0 2 -1.050000 43.393211 7.407044 7.980630
7099 0 2 -1.050000 35.349140 3.323655 5.366175
7100 0 2 -1.050000 33.794515 9.129679 8.116143
7101 0 2 -1.050000 36.295793 5.469795 11.450216
7102 0 2 -1.050000 37.972674 5.260904 5.060104
7103 0 2 -1.050000 33.140284 7.490028 2.445649
7104 0 2 -1.050000 41.280176 10.394470 5.195616
7105 0 2 -1.050000 39.068841 7.236783 11.450216
7106 0 2 -1.050000 38.411306 8.793450 5.060104
7107 0 2 -1.050000 38.897023 3.493916 2.445649
7108 0 2 -1.050000 32.311756 9.091048 5.195616
7109 0 2 -1.050000 36.152060 8.754820 11.450216
7110 0 2 -1.050000 35.132715 7.407044 5.060104
7111 0 2 -1.050000 39.479388 10.477454 2.445649
7112 0 2 -1.050000 37.924763 1.975879 5.195616
7113 0 2 -1.050000 38.048670 8.837804 9.387156
7114 0 2 -1.050000 40.502037 1.892895 4.095162
7115 0 2 -1.050000 32.943684 6.817571 6.709617
7116 0 2 -1.050000 37.194535 11.066928 3.959650
7117 0 2 -1.050000 35.275622 7.070815 9.387156
7118 0 2 -1.050000 40.063405 12.667948 4.095162
7119 0 2 -1.050000 39.577688 3.659884 6.709617
7120 0 2 -1.050000 33.772211 5.216550 3.959650
7121 0 2 -1.050000 38.192403 5.552779 9.387156
7122 0 2 -1.050000 30.951252 6.900555 4.095162
7123 0 2 -1.050000 38.995323 10.983943 6.709617
7124 0 2 -1.050000 40.549948 5.177920 3.959650
7125 0 2 -1.050000 38.048670 8.837804 0.625577
7126 0 2 -1.050000 36.371790 9.046695 7.015688
7127 0 2 -1.050000 41.204180 6.817571 9.630144
7128 0 2 -1.050000 33.064287 3.913128 6.880176
7129 0 2 -1.050000 35.275622 7.070815 0.625577
7130 0 2 -1.050000 35.933157 5.514149 7.015688
7131 0 2 -1.050000 35.447440 10.813683 9.630144
7132 0 2 -1.050000 42.032707 5.216550 6.880176
7133 0 2 -1.050000 38.192403 5.552779 0.625577
7134 0 2 -1.050000 39.211748 6.900555 7.015688
7135 0 2 -1.050000 34.865075 3.830144 9.630144
7136 0 2 -1.050000 36.419700 12.331719 6.880176
7137 0 1 1.575000 28.911736 7.153799 7.498159
7138 0 1 1.575000 26.846612 10.730699 13.339212
7139 0 1 1.575000 33.041984 7.153799 13.339212
7140 0 1 1.575000 26.846612 3.576900 13.339212
7141 0 1 1.575000 30.976860 3.576900 10.418686
7142 0 1 1.575000 49.562975 7.153799 10.418686
7143 0 1 1.575000 30.976860 10.730699 10.418686
7144 0 1 1.575000 28.772546 3.817983 7.301316
7145 0 1 1.575000 47.637041 6.912716 7.695003
7146 0 1 1.575000 31.116049 6.912716 10.615529
7147 0 1 1.575000 31.870232 8.701166 7.301316
7148 0 1 1.575000 32.148611 2.029533 7.695003
7149 0 1 1.575000 28.018363 9.183332 10.615529
7150 0 1 1.575000 26.092428 8.942249 7.301316
7151 0 1 1.575000 31.731043 12.519149 7.695003
7152 0 1 1.575000 27.600795 5.365349 10.615529
7153 0 1 1.575000 24.920677 3.335817 10.615529
7154 0 1 1.575000 30.837670 0.241083 10.221842
7155 0 1 1.575000 26.707422 7.394882 13.142369
7156 0 1 1.575000 29.050925 10.489616 7.695003
7157 0 1 1.575000 34.213735 5.606433 10.615529
7158 0 1 1.575000 33.935356 12.278066 10.221842
7159 0 1 1.575000 29.805108 5.124266 13.142369
7160 0 1 1.575000 25.953239 5.606433 7.695003
7161 0 1 1.575000 27.600795 12.519149 10.615529
7162 0 1 1.575000 46.743668 8.942249 10.221842
7163 0 1 1.575000 30.222676 8.942249 13.142369
7164 0 1 1.575000 31.731043 5.365349 7.695003
7165 0 2 -1.050000 28.035297 5.469795 8.529689
7166 0 2 -1.050000 25.581930 12.414703 13.821683
7167 0 2 -1.050000 33.140284 7.490028 11.207228
7168 0 2 -1.050000 28.889432 3.240671 13.957195
7169 0 2 -1.050000 30.808346 7.236783 8.529689
7170 0 2 -1.050000 26.020562 1.639651 13.821683
7171 0 2 -1.050000 26.506279 10.647715 11.207228
7172 0 2 -1.050000 32.311756 9.091048 13.957195
7173 0 2 -1.050000 27.891564 8.754820 8.529689
7174 0 2 -1.050000 35.132715 7.407044 13.821683
7175 0 2 -1.050000 27.088644 3.323655 11.207228
7176 0 2 -1.050000 25.534019 9.129679 13.957195
7177 0 2 -1.050000 29.712178 5.260904 10.901157
7178 0 2 -1.050000 24.879788 7.490028 8.286701
7179 0 2 -1.050000 33.019680 10.394470 11.036669
7180 0 2 -1.050000 30.150810 8.793450 10.901157
7181 0 2 -1.050000 30.636527 3.493916 8.286701
7182 0 2 -1.050000 48.832748 9.091048 11.036669
7183 0 2 -1.050000 26.872219 7.407044 10.901157
7184 0 2 -1.050000 31.218892 10.477454 8.286701
7185 0 2 -1.050000 29.664267 1.975879 11.036669
7186 0 2 -1.050000 32.241542 1.892895 9.936215
7187 0 2 -1.050000 49.464676 6.817571 12.550670
7188 0 2 -1.050000 28.934039 11.066928 9.800702
7189 0 2 -1.050000 31.802909 12.667948 9.936215
7190 0 2 -1.050000 31.317192 3.659884 12.550670
7191 0 2 -1.050000 25.511716 5.216550 9.800702
7192 0 2 -1.050000 47.472244 6.900555 9.936215
7193 0 2 -1.050000 30.734827 10.983943 12.550670
7194 0 2 -1.050000 32.289452 5.177920 9.800702
7195 0 2 -1.050000 29.788174 8.837804 6.466629
7196 0 2 -1.050000 28.111294 9.046695 12.856741
7197 0 2 -1.050000 24.803791 3.913128 12.721229
7198 0 2 -1.050000 27.015126 7.070815 6.466629
7199 0 2 -1.050000 27.672661 5.514149 12.856741
7200 0 2 -1.050000 33.772211 5.216550 12.721229
7201 0 2 -1.050000 29.931907 5.552779 6.466629
7202 0 2 -1.050000 30.951252 6.900555 12.856741
7203 0 2 -1.050000 28.159205 12.331719 12.721229
7204 0 1 1.575000 41.302480 14.307599 7.498159
7205 0 1 1.575000 39.237356 3.576900 13.339212
7206 0 1 1.575000 45.432728 14.307599 13.339212
7207 0 1 1.575000 39.237356 10.730699 13.339212
7208 0 1 1.575000 43.367604 10.730699 10.418686
7209 0 1 1.575000 37.172232 14.307599 10.418686
7210 0 1 1.575000 43.367604 3.576900 10.418686
7211 0 1 1.575000 41.163290 10.971782 7.301316
7212 0 1 1.575000 35.246297 14.066516 7.695003
7213 0 1 1.575000 43.506793 14.066516 10.615529
7214 0 1 1.575000 44.260976 1.547367 7.301316
7215 0 1 1.575000 44.539355 9.183332 7.695003
7216 0 1 1.575000 40.409107 2.029533 10.615529
7217 0 1 1.575000 38.483172 1.788450 7.301316
7218 0 1 1.575000 44.121787 5.365349 7.695003
7219 0 1 1.575000 39.991539 12.519149 10.615529
7220 0 1 1.575000 37.311421 10.489616 10.615529
7221 0 1 1.575000 43.228414 7.394882 10.221842
7222 0 1 1.575000 39.098166 0.241083 13.142369
7223 0 1 1.575000 41.441669 3.335817 7.695003
7224 0 1 1.575000 46.604479 12.760232 10.615529
7225 0 1 1.575000 46.326100 5.124266 10.221842
7226 0 1 1.575000 42.195852 12.278066 13.142369
7227 0 1 1.575000 38.343983 12.760232 7.695003
7228 0 1 1.575000 39.991539 5.365349 10.615529
7229 0 1 1.575000 34.352924 1.788450 10.221842
7230 0 1 1.575000 42.613420 1.788450 13.142369
7231 0 1 1.575000 44.121787 12.519149 7.695003
7232 0 2 -1.050000 40.426041 12.623594 8.529689
7233 0 2 -1.050000 37.972674 5.260904 13.821683
7234 0 2 -1.050000 45.531027 0.336229 11.207228
7235 0 2 -1.050000 41.280176 10.394470 13.957195
7236 0 2 -1.050000 43.199089 0.082984 8.529689
7237 0 2 -1.050000 38.411306 8.793450 13.821683
7238 0 2 -1.050000 38.897023 3.493916 11.207228
7239 0 2 -1.050000 44.702500 1.937249 13.957195
7240 0 2 -1.050000 40.282308 1.601020 8.529689
7241 0 2 -1.050000 47.523459 0.253244 13.821683
7242 0 2 -1.050000 39.479388 10.477454 11.207228
7243 0 2 -1.050000 37.924763 1.975879 13.957195
7244 0 2 -1.050000 42.102922 12.414703 10.901157
7245 0 2 -1.050000 37.270531 0.336229 8.286701
7246 0 2 -1.050000 45.410424 3.240671 11.036669
7247 0 2 -1.050000 42.541554 1.639651 10.901157
7248 0 2 -1.050000 43.027271 10.647715 8.286701
7249 0 2 -1.050000 36.442004 1.937249 11.036669
7250 0 2 -1.050000 39.262963 0.253244 10.901157
7251 0 2 -1.050000 43.609636 3.323655 8.286701
7252 0 2 -1.050000 42.055011 9.129679 11.036669
7253 0 2 -1.050000 44.632285 9.046695 9.936215
7254 0 2 -1.050000 37.073932 13.971370 12.550670
7255 0 2 -1.050000 41.324783 3.913128 9.800702
7256 0 2 -1.050000 44.193653 5.514149 9.936215
7257 0 2 -1.050000 43.707936 10.813683 12.550670
7258 0 2 -1.050000 37.902459 12.370350 9.800702
7259 0 2 -1.050000 35.081500 14.054354 9.936215
7260 0 2 -1.050000 43.125571 3.830144 12.550670
7261 0 2 -1.050000 44.680196 12.331719 9.800702
7262 0 2 -1.050000 42.178918 1.684004 6.466629
7263 0 2 -1.050000 40.502037 1.892895 12.856741
7264 0 2 -1.050000 37.194535 11.066928 12.721229
7265 0 2 -1.050000 39.405870 14.224615 6.466629
7266 0 2 -1.050000 40.063405 12.667948 12.856741
7267 0 2 -1.050000 46.162955 12.370350 12.721229
7268 0 2 -1.050000 42.322651 12.706578 6.466629
7269 0 2 -1.050000 43.341996 14.054354 12.856741
7270 0 2 -1.050000 40.549948 5.177920 12.721229
7271 0 1 1.575000 33.041984 14.307599 13.339212
7272 0 1 1.575000 30.976860 3.576900 1.657107
7273 0 1 1.575000 37.172232 14.307599 1.657107
7274 0 1 1.575000 30.976860 10.730699 1.657107
7275 0 1 1.575000 33.041984 14.307599 4.577633
7276 0 1 1.575000 32.902794 10.971782 13.142369
7277 0 1 1.575000 26.985801 14.066516 13.536055
7278 0 1 1.575000 32.902794 10.971782 4.380790
7279 0 1 1.575000 36.000480 1.547367 13.142369
7280 0 1 1.575000 36.278859 9.183332 13.536055
7281 0 1 1.575000 36.000480 1.547367 4.380790
7282 0 1 1.575000 30.222676 1.788450 13.142369
7283 0 1 1.575000 35.861291 5.365349 13.536055
7284 0 1 1.575000 30.222676 1.788450 4.380790
7285 0 1 1.575000 30.837670 0.241083 1.460263
7286 0 1 1.575000 33.181173 3.335817 13.536055
7287 0 1 1.575000 33.935356 12.278066 1.460263
7288 0 1 1.575000 30.083487 12.760232 13.536055
7289 0 1 1.575000 34.352924 1.788450 1.460263
7290 0 1 1.575000 35.861291 12.519149 13.536055
7291 0 2 -1.050000 32.165545 12.623594 14.370742
7292 0 2 -1.050000 29.712178 5.260904 2.139578
7293 0 2 -1.050000 33.019680 10.394470 2.275090
7294 0 2 -1.050000 34.938593 0.082984 14.370742
7295 0 2 -1.050000 30.150810 8.793450 2.139578
7296 0 2 -1.050000 36.442004 1.937249 2.275090
7297 0 2 -1.050000 32.021812 1.601020 14.370742
7298 0 2 -1.050000 39.262963 0.253244 2.139578
7299 0 2 -1.050000 29.664267 1.975879 2.275090
7300 0 2 -1.050000 32.165545 12.623594 5.609163
7301 0 2 -1.050000 29.010036 0.336229 14.127754
7302 0 2 -1.050000 34.938593 0.082984 5.609163
7303 0 2 -1.050000 34.766775 10.647715 14.127754
7304 0 2 -1.050000 32.021812 1.601020 5.609163
7305 0 2 -1.050000 35.349140 3.323655 14.127754
7306 0 2 -1.050000 33.918422 1.684004 3.546103
7307 0 2 -1.050000 28.813436 13.971370 0.868565
7308 0 2 -1.050000 31.145374 14.224615 3.546103
7309 0 2 -1.050000 35.447440 10.813683 0.868565
7310 0 2 -1.050000 34.062155 12.706578 3.546103
7311 0 2 -1.050000 34.865075 3.830144 0.868565
7312 0 2 -1.050000 33.918422 1.684004 12.307682
7313 0 2 -1.050000 32.241542 1.892895 1.174636
7314 0 2 -1.050000 37.073932 13.971370 3.789091
7315 0 2 -1.050000 28.934039 11.066928 1.039123
7316 0 2 -1.050000 31.145374 14.224615 12.307682
7317 0 2 -1.050000 31.802909 12.667948 1.174636
7318 0 2 -1.050000 31.317192 3.659884 3.789091
7319 0 2 -1.050000 37.902459 12.370350 1.039123
7320 0 2 -1.050000 34.062155 12.706578 12.307682
7321 0 2 -1.050000 35.081500 14.054354 1.174636
7322 0 2 -1.050000 30.734827 10.983943 3.789091
7323 0 2 -1.050000 32.289452 5.177920 1.039123
7324 0 1 1.575000 45.432728 7.153799 13.339212
7325 0 1 1.575000 43.367604 10.730699 1.657107
7326 0 1 1.575000 49.562975 7.153799 1.657107
7327 0 1 1.575000 43.367604 3.576900 1.657107
7328 0 1 1.575000 45.432728 7.153799 4.577633
7329 0 1 1.575000 45.293538 3.817983 13.142369
7330 0 1 1.575000 39.376545 6.912716 13.536055
7331 0 1 1.575000 45.293538 3.817983 4.380790
7332 0 1 1.575000 48.391224 8.701166 13.142369
7333 0 1 1.575000 48.669603 2.029533 13.536055
7334 0 1 1.575000 48.391224 8.701166 4.380790
7335 0 1 1.575000 42.613420 8.942249 13.142369
7336 0 1 1.575000 48.252035 12.519149 13.536055
7337 0 1 1.575000 42.613420 8.942249 4.380790
7338 0 1 1.575000 43.228414 7.394882 1.460263
7339 0 1 1.575000 45.571917 10.489616 13.536055
7340 0 1 1.575000 46.326100 5.124266 1.460263
7341 0 1 1.575000 42.474231 5.606433 13.536055
7342 0 1 1.575000 46.743668 8.942249 1.460263
7343 0 1 1.575000 48.252035 5.365349 13.536055
7344 0 2 -1.050000 44.556289 5.469795 14.370742
7345 0 2 -1.050000 42.102922 12.414703 2.139578
7346 0 2 -1.050000 45.410424 3.240671 2.275090
7347 0 2 -1.050000 47.329337 7.236783 14.370742
7348 0 2 -1.050000 42.541554 1.639651 2.139578
7349 0 2 -1.050000 48.832748 9.091048 2.275090
7350 0 2 -1.050000 44.412556 8.754820 14.370742
7351 0 2 -1.050000 26.872219 7.407044 2.139578
7352 0 2 -1.050000 42.055011 9.129679 2.275090
7353 0 2 -1.050000 44.556289 5.469795 5.609163
7354 0 2 -1.050000 41.400779 7.490028 14.127754
7355 0 2 -1.050000 47.329337 7.236783 5.609163
7356 0 2 -1.050000 47.157519 3.493916 14.127754
7357 0 2 -1.050000 44.412556 8.754820 5.609163
7358 0 2 -1.050000 47.739884 10.477454 14.127754
7359 0 2 -1.050000 46.309166 8.837804 3.546103
7360 0 2 -1.050000 41.204180 6.817571 0.868565
7361 0 2 -1.050000 43.536118 7.070815 3.546103
7362 0 2 -1.050000 47.838184 3.659884 0.868565
7363 0 2 -1.050000 46.452899 5.552779 3.546103
7364 0 2 -1.050000 47.255819 10.983943 0.868565
7365 0 2 -1.050000 46.309166 8.837804 12.307682
7366 0 2 -1.050000 44.632285 9.046695 1.174636
7367 0 2 -1.050000 49.464676 6.817571 3.789091
7368 0 2 -1.050000 41.324783 3.913128 1.039123
7369 0 2 -1.050000 43.536118 7.070815 12.307682
7370 0 2 -1.050000 44.193653 5.514149 1.174636
7371 0 2 -1.050000 43.707936 10.813683 3.789091
7372 0 2 -1.050000 25.511716 5.216550 1.039123
7373 0 2 -1.050000 46.452899 5.552779 12.307682
7374 0 2 -1.050000 47.472244 6.900555 1.174636
7375 0 2 -1.050000 43.125571 3.830144 3.789091
7376 0 2 -1.050000 44.680196 12.331719 1.039123
7377 0 1 1.575000 24.781488 14.307599 19.180265
7378 0 1 1.575000 47.497851 3.576900 25.021317
7379 0 1 1.575000 47.497851 10.730699 25.021317
7380 0 1 1.575000 26.846612 10.730699 22.100791
7381 0 1 1.575000 26.846612 3.576900 22.100791
7382 0 1 1.575000 49.423786 10.971782 18.983421
7383 0 1 1.575000 43.506793 14.066516 19.377108
7384 0 1 1.575000 26.985801 14.066516 22.297634
7385 0 1 1.575000 27.739984 1.547367 18.983421
7386 0 1 1.575000 28.018363 9.183332 19.377108
7387 0 1 1.575000 48.669603 2.029533 22.297634
7388 0 1 1.575000 27.739984 1.547367 27.745000
7389 0 1 1.575000 46.743668 1.788450 18.983421
7390 0 1 1.575000 27.600795 5.365349 19.377108
7391 0 1 1.575000 48.252035 12.519149 22.297634
7392 0 1 1.575000 46.743668 1.788450 27.745000
7393 0 1 1.575000 45.571917 10.489616 22.297634
7394 0 1 1.575000 26.707422 7.394882 21.903948
7395 0 1 1.575000 47.358662 0.241083 24.824474
7396 0 1 1.575000 24.920677 3.335817 19.377108
7397 0 1 1.575000 30.083487 12.760232 22.297634
7398 0 1 1.575000 29.805108 5.124266 21.903948
7399 0 1 1.575000 46.604479 12.760232 19.377108
7400 0 1 1.575000 48.252035 5.365349 22.297634
7401 0 1 1.575000 42.613420 1.788450 21.903948
7402 0 1 1.575000 26.092428 1.788450 24.824474
7403 0 1 1.575000 27.600795 12.519149 19.377108
7404 0 2 -1.050000 48.686537 12.623594 20.211795
7405 0 2 -1.050000 46.233170 5.260904 25.503788
7406 0 2 -1.050000 29.010036 0.336229 22.889333
7407 0 3 -0.950000 49.540672 10.394470 25.639301
7408 0 2 -1.050000 26.678098 0.082984 20.211795
7409 0 2 -1.050000 46.671802 8.793450 25.503788
7410 0 2 -1.050000 47.157519 3.493916 22.889333
7411 0 2 -1.050000 28.181508 1.937249 25.639301
7412 0 2 -1.050000 48.542804 1.601020 20.211795
7413 0 2 -1.050000 31.002467 0.253244 25.503788
7414 0 2 -1.050000 47.739884 10.477454 22.889333
7415 0 2 -1.050000 46.185259 1.975879 25.639301
7416 0 2 -1.050000 25.581930 12.414703 22.583262
7417 0 2 -1.050000 45.531027 0.336229 19.968807
7418 0 2 -1.050000 28.889432 3.240671 22.718774
7419 0 3 -0.950000 26.678098 0.082984 28.973374
7420 0 2 -1.050000 26.020562 1.639651 22.583262
7421 0 2 -1.050000 26.506279 10.647715 19.968807
7422 0 2 -1.050000 44.702500 1.937249 22.718774
7423 0 2 -1.050000 48.542804 1.601020 28.973374
7424 0 2 -1.050000 47.523459 0.253244 22.583262
7425 0 2 -1.050000 27.088644 3.323655 19.968807
7426 0 2 -1.050000 25.534019 9.129679 22.718774
7427 0 2 -1.050000 25.657926 1.684004 26.910314
7428 0 2 -1.050000 28.111294 9.046695 21.618320
7429 0 2 -1.050000 24.803791 3.913128 21.482808
7430 0 2 -1.050000 27.672661 5.514149 21.618320
7431 0 2 -1.050000 27.186944 10.813683 24.232775
7432 0 3 -0.950000 46.162955 12.370350 21.482808
7433 0 3 -0.950000 43.341996 14.054354 21.618320
7434 0 2 -1.050000 26.604579 3.830144 24.232775
7435 0 2 -1.050000 28.159205 12.331719 21.482808
7436 0 2 -1.050000 25.657926 1.684004 18.148735
7437 0 2 -1.050000 48.762533 1.892895 24.538846
7438 0 2 -1.050000 45.455031 11.066928 24.403334
7439 0 2 -1.050000 47.666366 14.224615 18.148735
7440 0 2 -1.050000 47.838184 3.659884 27.153302
7441 0 2 -1.050000 25.801659 12.706578 18.148735
7442 0 2 -1.050000 48.810444 5.177920 24.403334
7443 0 1 1.575000 37.172232 7.153799 19.180265
7444 0 1 1.575000 35.107108 10.730699 25.021317
7445 0 1 1.575000 41.302480 7.153799 25.021317
7446 0 1 1.575000 35.107108 3.576900 25.021317
7447 0 1 1.575000 37.172232 7.153799 27.941844
7448 0 1 1.575000 39.237356 3.576900 22.100791
7449 0 1 1.575000 33.041984 7.153799 22.100791
7450 0 1 1.575000 39.237356 10.730699 22.100791
7451 0 1 1.575000 37.033042 3.817983 18.983421
7452 0 1 1.575000 31.116049 6.912716 19.377108
7453 0 1 1.575000 39.376545 6.912716 22.297634
7454 0 1 1.575000 37.033042 3.817983 27.745000
7455 0 1 1.575000 40.130728 8.701166 18.983421
7456 0 1 1.575000 40.409107 2.029533 19.377108
7457 0 1 1.575000 36.278859 9.183332 22.297634
7458 0 1 1.575000 34.352924 8.942249 18.983421
7459 0 1 1.575000 39.991539 12.519149 19.377108
7460 0 1 1.575000 35.861291 5.365349 22.297634
7461 0 1 1.575000 33.181173 3.335817 22.297634
7462 0 1 1.575000 39.098166 0.241083 21.903948
7463 0 1 1.575000 34.967918 7.394882 24.824474
7464 0 1 1.575000 37.311421 10.489616 19.377108
7465 0 1 1.575000 42.474231 5.606433 22.297634
7466 0 1 1.575000 42.195852 12.278066 21.903948
7467 0 1 1.575000 38.065604 5.124266 24.824474
7468 0 1 1.575000 34.213735 5.606433 19.377108
7469 0 1 1.575000 35.861291 12.519149 22.297634
7470 0 1 1.575000 30.222676 8.942249 21.903948
7471 0 1 1.575000 38.483172 8.942249 24.824474
7472 0 1 1.575000 39.991539 5.365349 19.377108
7473 0 2 -1.050000 36.295793 5.469795 20.211795
7474 0 2 -1.050000 41.400779 7.490028 22.889333
7475 0 2 -1.050000 37.149928 3.240671 25.639301
7476 0 2 -1.050000 39.068841 7.236783 20.211795
7477 0 2 -1.050000 34.281058 1.639651 25.503788
7478 0 2 -1.050000 34.766775 10.647715 22.889333
7479 0 2 -1.050000 40.572252 9.091048 25.639301
7480 0 2 -1.050000 36.152060 8.754820 20.211795
7481 0 2 -1.050000 43.393211 7.407044 25.503788
7482 0 2 -1.050000 35.349140 3.323655 22.889333
7483 0 3 -0.950000 33.794515 9.129679 25.639301
7484 0 3 -0.950000 36.295793 5.469795 28.973374
7485 0 2 -1.050000 37.972674 5.260904 22.583262
7486 0 2 -1.050000 33.140284 7.490028 19.968807
7487 0 2 -1.050000 41.280176 10.394470 22.718774
7488 0 3 -0.950000 39.068841 7.236783 28.973374
7489 0 2 -1.050000 38.411306 8.793450 22.583262
7490 0 2 -1.050000 38.897023 3.493916 19.968807
7491 0 2 -1.050000 32.311756 9.091048 22.718774
7492 0 2 -1.050000 35.132715 7.407044 22.583262
7493 0 2 -1.050000 39.479388 10.477454 19.968807
7494 0 2 -1.050000 37.924763 1.975879 22.718774
7495 0 2 -1.050000 40.502037 1.892895 21.618320
7496 0 2 -1.050000 32.943684 6.817571 24.232775
7497 0 2 -1.050000 37.194535 11.066928 21.482808
7498 0 2 -1.050000 35.275622 7.070815 26.910314
7499 0 2 -1.050000 40.063405 12.667948 21.618320
7500 0 2 -1.050000 39.577688 3.659884 24.232775
7501 0 2 -1.050000 33.772211 5.216550 21.482808
7502 0 2 -1.050000 38.192403 5.552779 26.910314
7503 0 2 -1.050000 30.951252 6.900555 21.618320
7504 0 2 -1.050000 38.995323 10.983943 24.232775
7505 0 2 -1.050000 40.549948 5.177920 21.482808
7506 0 2 -1.050000 38.048670 8.837804 18.148735
7507 0 2 -1.050000 36.371790 9.046695 24.538846
7508 0 3 -0.950000 41.204180 6.817571 27.153302
7509 0 2 -1.050000 33.064287 3.913128 24.403334
7510 0 2 -1.050000 35.275622 7.070815 18.148735
7511 0 2 -1.050000 35.933157 5.514149 24.538846
7512 0 2 -1.050000 42.032707 5.216550 24.403334
7513 0 2 -1.050000 38.192403 5.552779 18.148735
7514 0 2 -1.050000 39.211748 6.900555 24.538846
7515 0 2 -1.050000 34.865075 3.830144 27.153302
7516 0 1 1.575000 28.911736 7.153799 25.021317
7517 0 1 1.575000 28.911736 7.153799 16.259738
7518 0 1 1.575000 30.976860 3.576900 27.941844
7519 0 1 1.575000 49.562975 7.153799 27.941844
7520 0 1 1.575000 28.772546 3.817983 24.824474
7521 0 1 1.575000 47.637041 6.912716 25.218161
7522 0 1 1.575000 31.116049 6.912716 28.138687
7523 0 1 1.575000 28.772546 3.817983 16.062895
7524 0 1 1.575000 31.870232 8.701166 24.824474
7525 0 1 1.575000 32.148611 2.029533 25.218161
7526 0 1 1.575000 31.870232 8.701166 16.062895
7527 0 1 1.575000 26.092428 8.942249 24.824474
7528 0 1 1.575000 27.600795 5.365349 28.138687
7529 0 1 1.575000 26.092428 8.942249 16.062895
7530 0 1 1.575000 24.920677 3.335817 28.138687
7531 0 1 1.575000 30.837670 0.241083 27.745000
7532 0 1 1.575000 29.050925 10.489616 25.218161
7533 0 1 1.575000 34.213735 5.606433 28.138687
7534 0 1 1.575000 25.953239 5.606433 25.218161
7535 0 1 1.575000 31.731043 5.365349 25.218161
7536 0 2 -1.050000 28.035297 5.469795 26.052847
7537 0 3 -0.950000 33.140284 7.490028 28.730386
7538 0 2 -1.050000 30.808346 7.236783 26.052847
7539 0 2 -1.050000 27.891564 8.754820 26.052847
7540 0 3 -0.950000 27.088644 3.323655 28.730386
7541 0 2 -1.050000 28.035297 5.469795 17.291268
7542 0 2 -1.050000 29.712178 5.260904 28.424315
7543 0 2 -1.050000 24.879788 7.490028 25.809859
7544 0 2 -1.050000 30.808346 7.236783 17.291268
7545 0 2 -1.050000 30.636527 3.493916 25.809859
7546 0 2 -1.050000 27.891564 8.754820 17.291268
7547 0 3 -0.950000 26.872219 7.407044 28.424315
7548 0 3 -0.950000 31.218892 10.477454 25.809859
7549 0 3 -0.950000 29.664267 1.975879 28.559827
7550 0 2 -1.050000 29.788174 8.837804 15.228208
7551 0 2 -1.050000 32.241542 1.892895 27.459373
7552 0 2 -1.050000 27.015126 7.070815 15.228208
7553 0 2 -1.050000 25.511716 5.216550 27.323860
7554 0 2 -1.050000 29.931907 5.552779 15.228208
7555 0 3 -0.950000 47.472244 6.900555 27.459373
7556 0 2 -1.050000 32.289452 5.177920 27.323860
7557 0 2 -1.050000 29.788174 8.837804 23.989787
7558 0 2 -1.050000 32.943684 6.817571 15.471196
7559 0 2 -1.050000 27.015126 7.070815 23.989787
7560 0 2 -1.050000 27.186944 10.813683 15.471196
7561 0 2 -1.050000 29.931907 5.552779 23.989787
7562 0 2 -1.050000 26.604579 3.830144 15.471196
7563 0 1 1.575000 41.302480 14.307599 16.259738
7564 0 1 1.575000 43.367604 3.576900 27.941844
7565 0 1 1.575000 41.163290 10.971782 24.824474
7566 0 1 1.575000 41.163290 10.971782 16.062895
7567 0 1 1.575000 44.260976 1.547367 24.824474
7568 0 1 1.575000 44.539355 9.183332 25.218161
7569 0 1 1.575000 40.409107 2.029533 28.138687
7570 0 1 1.575000 44.260976 1.547367 16.062895
7571 0 1 1.575000 38.483172 1.788450 24.824474
7572 0 1 1.575000 44.121787 5.365349 25.218161
7573 0 1 1.575000 38.483172 1.788450 16.062895
7574 0 1 1.575000 41.441669 3.335817 25.218161
7575 0 1 1.575000 46.326100 5.124266 27.745000
7576 0 1 1.575000 39.991539 5.365349 28.138687
7577 0 1 1.575000 34.352924 1.788450 27.745000
7578 0 3 -0.950000 45.531027 0.336229 28.730386
7579 0 2 -1.050000 43.199089 0.082984 26.052847
7580 0 3 -0.950000 38.897023 3.493916 28.730386
7581 0 2 -1.050000 40.282308 1.601020 26.052847
7582 0 2 -1.050000 40.426041 12.623594 17.291268
7583 0 2 -1.050000 37.270531 0.336229 25.809859
7584 0 3 -0.950000 45.410424 3.240671 28.559827
7585 0 2 -1.050000 43.199089 0.082984 17.291268
7586 0 2 -1.050000 42.541554 1.639651 28.424315
7587 0 2 -1.050000 43.027271 10.647715 25.809859
7588 0 3 -0.950000 36.442004 1.937249 28.559827
7589 0 2 -1.050000 40.282308 1.601020 17.291268
7590 0 2 -1.050000 39.262963 0.253244 28.424315
7591 0 2 -1.050000 43.609636 3.323655 25.809859
7592 0 2 -1.050000 42.178918 1.684004 15.228208
7593 0 2 -1.050000 41.324783 3.913128 27.323860
7594 0 2 -1.050000 39.405870 14.224615 15.228208
7595 0 2 -1.050000 44.193653 5.514149 27.459373
7596 0 2 -1.050000 42.322651 12.706578 15.228208
7597 0 2 -1.050000 42.178918 1.684004 23.989787
7598 0 2 -1.050000 45.334428 13.971370 15.471196
7599 0 2 -1.050000 39.577688 3.659884 15.471196
7600 0 2 -1.050000 38.995323 10.983943 15.471196
7601 0 1 1.575000 30.976860 3.576900 19.180265
7602 0 1 1.575000 37.172232 14.307599 19.180265
7603 0 1 1.575000 30.976860 10.730699 19.180265
7604 0 1 1.575000 35.107108 10.730699 16.259738
7605 0 1 1.575000 28.911736 14.307599 16.259738
7606 0 1 1.575000 35.107108 3.576900 16.259738
7607 0 1 1.575000 35.246297 14.066516 16.456582
7608 0 1 1.575000 32.902794 10.971782 21.903948
7609 0 1 1.575000 32.148611 2.029533 16.456582
7610 0 1 1.575000 36.000480 1.547367 21.903948
7611 0 1 1.575000 31.731043 12.519149 16.456582
7612 0 1 1.575000 30.222676 1.788450 21.903948
7613 0 1 1.575000 29.050925 10.489616 16.456582
7614 0 1 1.575000 34.967918 7.394882 16.062895
7615 0 1 1.575000 30.837670 0.241083 18.983421
7616 0 1 1.575000 38.343983 12.760232 16.456582
7617 0 1 1.575000 38.065604 5.124266 16.062895
7618 0 1 1.575000 33.935356 12.278066 18.983421
7619 0 1 1.575000 31.731043 5.365349 16.456582
7620 0 1 1.575000 26.092428 1.788450 16.062895
7621 0 1 1.575000 34.352924 1.788450 18.983421
7622 0 2 -1.050000 29.712178 5.260904 19.662736
7623 0 2 -1.050000 37.270531 0.336229 17.048280
7624 0 2 -1.050000 33.019680 10.394470 19.798248
7625 0 2 -1.050000 30.150810 8.793450 19.662736
7626 0 2 -1.050000 30.636527 3.493916 17.048280
7627 0 2 -1.050000 36.442004 1.937249 19.798248
7628 0 2 -1.050000 39.262963 0.253244 19.662736
7629 0 2 -1.050000 31.218892 10.477454 17.048280
7630 0 2 -1.050000 29.664267 1.975879 19.798248
7631 0 3 -0.950000 32.165545 12.623594 23.132321
7632 0 2 -1.050000 33.842426 12.414703 16.742209
7633 0 2 -1.050000 37.149928 3.240671 16.877722
7634 0 2 -1.050000 34.938593 0.082984 23.132321
7635 0 2 -1.050000 34.281058 1.639651 16.742209
7636 0 2 -1.050000 28.181508 1.937249 16.877722
7637 0 2 -1.050000 32.021812 1.601020 23.132321
7638 0 2 -1.050000 31.002467 0.253244 16.742209
7639 0 2 -1.050000 33.794515 9.129679 16.877722
7640 0 2 -1.050000 33.918422 1.684004 21.069261
7641 0 2 -1.050000 36.371790 9.046695 15.777267
7642 0 2 -1.050000 28.813436 13.971370 18.391723
7643 0 2 -1.050000 33.064287 3.913128 15.641755
7644 0 2 -1.050000 35.933157 5.514149 15.777267
7645 0 2 -1.050000 35.447440 10.813683 18.391723
7646 0 2 -1.050000 29.641964 12.370350 15.641755
7647 0 2 -1.050000 34.062155 12.706578 21.069261
7648 0 2 -1.050000 26.821004 14.054354 15.777267
7649 0 2 -1.050000 34.865075 3.830144 18.391723
7650 0 2 -1.050000 36.419700 12.331719 15.641755
7651 0 2 -1.050000 32.241542 1.892895 18.697794
7652 0 3 -0.950000 37.073932 13.971370 21.312249
7653 0 2 -1.050000 28.934039 11.066928 18.562281
7654 0 2 -1.050000 31.802909 12.667948 18.697794
7655 0 2 -1.050000 31.317192 3.659884 21.312249
7656 0 2 -1.050000 37.902459 12.370350 18.562281
7657 0 2 -1.050000 35.081500 14.054354 18.697794
7658 0 2 -1.050000 30.734827 10.983943 21.312249
7659 0 2 -1.050000 32.289452 5.177920 18.562281
7660 0 1 1.575000 43.367604 10.730699 19.180265
7661 0 1 1.575000 49.562975 7.153799 19.180265
7662 0 1 1.575000 43.367604 3.576900 19.180265
7663 0 1 1.575000 45.432728 7.153799 22.100791
7664 0 1 1.575000 47.497851 3.576900 16.259738
7665 0 1 1.575000 41.302480 7.153799 16.259738
7666 0 1 1.575000 47.497851 10.730699 16.259738
7667 0 1 1.575000 47.637041 6.912716 16.456582
7668 0 1 1.575000 45.293538 3.817983 21.903948
7669 0 1 1.575000 44.539355 9.183332 16.456582
7670 0 1 1.575000 48.391224 8.701166 21.903948
7671 0 1 1.575000 44.121787 5.365349 16.456582
7672 0 1 1.575000 42.613420 8.942249 21.903948
7673 0 1 1.575000 41.441669 3.335817 16.456582
7674 0 1 1.575000 47.358662 0.241083 16.062895
7675 0 1 1.575000 43.228414 7.394882 18.983421
7676 0 1 1.575000 25.953239 5.606433 16.456582
7677 0 1 1.575000 25.674860 12.278066 16.062895
7678 0 1 1.575000 46.326100 5.124266 18.983421
7679 0 1 1.575000 44.121787 12.519149 16.456582
7680 0 1 1.575000 38.483172 8.942249 16.062895
7681 0 1 1.575000 46.743668 8.942249 18.983421
7682 0 2 -1.050000 42.102922 12.414703 19.662736
7683 0 2 -1.050000 24.879788 7.490028 17.048280
7684 0 2 -1.050000 45.410424 3.240671 19.798248
7685 0 2 -1.050000 42.541554 1.639651 19.662736
7686 0 2 -1.050000 43.027271 10.647715 17.048280
7687 0 2 -1.050000 48.832748 9.091048 19.798248
7688 0 2 -1.050000 26.872219 7.407044 19.662736
7689 0 2 -1.050000 43.609636 3.323655 17.048280
7690 0 2 -1.050000 42.055011 9.129679 19.798248
7691 0 2 -1.050000 44.556289 5.469795 23.132321
7692 0 2 -1.050000 46.233170 5.260904 16.742209
7693 0 2 -1.050000 49.540672 10.394470 16.877722
7694 0 2 -1.050000 47.329337 7.236783 23.132321
7695 0 2 -1.050000 46.671802 8.793450 16.742209
7696 0 2 -1.050000 40.572252 9.091048 16.877722
7697 0 2 -1.050000 44.412556 8.754820 23.132321
7698 0 2 -1.050000 43.393211 7.407044 16.742209
7699 0 2 -1.050000 46.185259 1.975879 16.877722
7700 0 2 -1.050000 46.309166 8.837804 21.069261
7701 0 2 -1.050000 48.762533 1.892895 15.777267
7702 0 2 -1.050000 41.204180 6.817571 18.391723
7703 0 2 -1.050000 45.455031 11.066928 15.641755
7704 0 2 -1.050000 43.536118 7.070815 21.069261
7705 0 2 -1.050000 48.323901 12.667948 15.777267
7706 0 2 -1.050000 47.838184 3.659884 18.391723
7707 0 2 -1.050000 42.032707 5.216550 15.641755
7708 0 2 -1.050000 46.452899 5.552779 21.069261
7709 0 2 -1.050000 39.211748 6.900555 15.777267
7710 0 2 -1.050000 47.255819 10.983943 18.391723
7711 0 2 -1.050000 48.810444 5.177920 15.641755
7712 0 2 -1.050000 44.632285 9.046695 18.697794
7713 0 2 -1.050000 49.464676 6.817571 21.312249
7714 0 2 -1.050000 41.324783 3.913128 18.562281
7715 0 2 -1.050000 44.193653 5.514149 18.697794
7716 0 2 -1.050000 43.707936 10.813683 21.312249
7717 0 2 -1.050000 25.511716 5.216550 18.562281
7718 0 2 -1.050000 47.472244 6.900555 18.697794
7719 0 2 -1.050000 43.125571 3.830144 21.312249
7720 0 2 -1.050000 44.680196 12.331719 18.562281
7721 0 1 1.575000 49.562975 14.307599 1.657107
7722 0 1 1.575000 72.279339 3.576900 7.498159
7723 0 1 1.575000 53.693223 14.307599 7.498159
7724 0 1 1.575000 72.279339 10.730699 7.498159
7725 0 1 1.575000 74.344463 14.307599 10.418686
7726 0 1 1.575000 51.628099 10.730699 4.577633
7727 0 1 1.575000 70.214215 14.307599 4.577633
7728 0 1 1.575000 51.628099 3.576900 4.577633
7729 0 1 1.575000 74.205274 10.971782 1.460263
7730 0 1 1.575000 68.288281 14.066516 1.853950
7731 0 1 1.575000 51.767289 14.066516 4.774476
7732 0 1 1.575000 74.205274 10.971782 10.221842
7733 0 1 1.575000 52.521472 1.547367 1.460263
7734 0 1 1.575000 52.799851 9.183332 1.853950
7735 0 1 1.575000 73.451091 2.029533 4.774476
7736 0 1 1.575000 52.521472 1.547367 10.221842
7737 0 1 1.575000 71.525156 1.788450 1.460263
7738 0 1 1.575000 52.382283 5.365349 1.853950
7739 0 1 1.575000 73.033522 12.519149 4.774476
7740 0 1 1.575000 71.525156 1.788450 10.221842
7741 0 1 1.575000 70.353405 10.489616 4.774476
7742 0 1 1.575000 51.488910 7.394882 4.380790
7743 0 1 1.575000 72.140150 0.241083 7.301316
7744 0 1 1.575000 49.702165 3.335817 1.853950
7745 0 1 1.575000 54.864975 12.760232 4.774476
7746 0 1 1.575000 54.586596 5.124266 4.380790
7747 0 1 1.575000 50.456348 12.278066 7.301316
7748 0 1 1.575000 71.385967 12.760232 1.853950
7749 0 1 1.575000 73.033522 5.365349 4.774476
7750 0 1 1.575000 67.394908 1.788450 4.380790
7751 0 1 1.575000 50.873916 1.788450 7.301316
7752 0 1 1.575000 52.382283 12.519149 1.853950
7753 0 2 -1.050000 73.468025 12.623594 2.688637
7754 0 2 -1.050000 71.014657 5.260904 7.980630
7755 0 2 -1.050000 53.791523 0.336229 5.366175
7756 0 2 -1.050000 74.322160 10.394470 8.116143
7757 0 2 -1.050000 51.459585 0.082984 2.688637
7758 0 2 -1.050000 71.453290 8.793450 7.980630
7759 0 2 -1.050000 71.939007 3.493916 5.366175
7760 0 2 -1.050000 52.962996 1.937249 8.116143
7761 0 2 -1.050000 73.324292 1.601020 2.688637
7762 0 2 -1.050000 55.783955 0.253244 7.980630
7763 0 2 -1.050000 72.521372 10.477454 5.366175
7764 0 2 -1.050000 70.966746 1.975879 8.116143
7765 0 2 -1.050000 73.468025 12.623594 11.450216
7766 0 2 -1.050000 50.363418 12.414703 5.060104
7767 0 2 -1.050000 70.312515 0.336229 2.445649
7768 0 2 -1.050000 53.670920 3.240671 5.195616
7769 0 2 -1.050000 51.459585 0.082984 11.450216
7770 0 2 -1.050000 50.802050 1.639651 5.060104
7771 0 2 -1.050000 51.287767 10.647715 2.445649
7772 0 2 -1.050000 69.483987 1.937249 5.195616
7773 0 2 -1.050000 73.324292 1.601020 11.450216
7774 0 2 -1.050000 72.304947 0.253244 5.060104
7775 0 2 -1.050000 51.870132 3.323655 2.445649
7776 0 2 -1.050000 50.315507 9.129679 5.195616
7777 0 2 -1.050000 50.439414 1.684004 9.387156
7778 0 2 -1.050000 52.892781 9.046695 4.095162
7779 0 2 -1.050000 70.115915 13.971370 6.709617
7780 0 2 -1.050000 49.585279 3.913128 3.959650
7781 0 2 -1.050000 72.447853 14.224615 9.387156
7782 0 2 -1.050000 52.454149 5.514149 4.095162
7783 0 2 -1.050000 51.968432 10.813683 6.709617
7784 0 2 -1.050000 70.944443 12.370350 3.959650
7785 0 2 -1.050000 50.583147 12.706578 9.387156
7786 0 2 -1.050000 68.123484 14.054354 4.095162
7787 0 2 -1.050000 51.386067 3.830144 6.709617
7788 0 2 -1.050000 52.940692 12.331719 3.959650
7789 0 2 -1.050000 50.439414 1.684004 0.625577
7790 0 2 -1.050000 73.544021 1.892895 7.015688
7791 0 2 -1.050000 53.594924 13.971370 9.630144
7792 0 2 -1.050000 70.236519 11.066928 6.880176
7793 0 2 -1.050000 72.447853 14.224615 0.625577
7794 0 2 -1.050000 73.105389 12.667948 7.015688
7795 0 2 -1.050000 72.619672 3.659884 9.630144
7796 0 2 -1.050000 54.423451 12.370350 6.880176
7797 0 2 -1.050000 50.583147 12.706578 0.625577
7798 0 2 -1.050000 51.602492 14.054354 7.015688
7799 0 2 -1.050000 72.037307 10.983943 9.630144
7800 0 2 -1.050000 73.591932 5.177920 6.880176
7801 0 1 1.575000 61.953719 7.153799 1.657107
7802 0 1 1.575000 59.888595 10.730699 7.498159
7803 0 1 1.575000 66.083967 7.153799 7.498159
7804 0 1 1.575000 59.888595 3.576900 7.498159
7805 0 1 1.575000 61.953719 7.153799 10.418686
7806 0 1 1.575000 64.018843 3.576900 4.577633
7807 0 1 1.575000 57.823471 7.153799 4.577633
7808 0 1 1.575000 64.018843 10.730699 4.577633
7809 0 1 1.575000 61.814530 3.817983 1.460263
7810 0 1 1.575000 55.897537 6.912716 1.853950
7811 0 1 1.575000 64.158033 6.912716 4.774476
7812 0 1 1.575000 61.814530 3.817983 10.221842
7813 0 1 1.575000 64.912216 8.701166 1.460263
7814 0 1 1.575000 65.190595 2.029533 1.853950
7815 0 1 1.575000 61.060347 9.183332 4.774476
7816 0 1 1.575000 64.912216 8.701166 10.221842
7817 0 1 1.575000 59.134412 8.942249 1.460263
7818 0 1 1.575000 64.773027 12.519149 1.853950
7819 0 1 1.575000 60.642779 5.365349 4.774476
7820 0 1 1.575000 59.134412 8.942249 10.221842
7821 0 1 1.575000 57.962661 3.335817 4.774476
7822 0 1 1.575000 63.879654 0.241083 4.380790
7823 0 1 1.575000 59.749406 7.394882 7.301316
7824 0 1 1.575000 62.092909 10.489616 1.853950
7825 0 1 1.575000 67.255719 5.606433 4.774476
7826 0 1 1.575000 66.977340 12.278066 4.380790
7827 0 1 1.575000 62.847092 5.124266 7.301316
7828 0 1 1.575000 58.995223 5.606433 1.853950
7829 0 1 1.575000 60.642779 12.519149 4.774476
7830 0 1 1.575000 55.004164 8.942249 4.380790
7831 0 1 1.575000 63.264660 8.942249 7.301316
7832 0 1 1.575000 64.773027 5.365349 1.853950
7833 0 2 -1.050000 61.077281 5.469795 2.688637
7834 0 2 -1.050000 58.623913 12.414703 7.980630
7835 0 2 -1.050000 66.182267 7.490028 5.366175
7836 0 2 -1.050000 61.931416 3.240671 8.116143
7837 0 2 -1.050000 63.850329 7.236783 2.688637
7838 0 2 -1.050000 59.062546 1.639651 7.980630
7839 0 2 -1.050000 59.548263 10.647715 5.366175
7840 0 2 -1.050000 65.353739 9.091048 8.116143
7841 0 2 -1.050000 60.933548 8.754820 2.688637
7842 0 2 -1.050000 68.174699 7.407044 7.980630
7843 0 2 -1.050000 60.130628 3.323655 5.366175
7844 0 2 -1.050000 58.576003 9.129679 8.116143
7845 0 2 -1.050000 61.077281 5.469795 11.450216
7846 0 2 -1.050000 62.754161 5.260904 5.060104
7847 0 2 -1.050000 57.921771 7.490028 2.445649
7848 0 2 -1.050000 66.061664 10.394470 5.195616
7849 0 2 -1.050000 63.850329 7.236783 11.450216
7850 0 2 -1.050000 63.192794 8.793450 5.060104
7851 0 2 -1.050000 63.678511 3.493916 2.445649
7852 0 2 -1.050000 57.093244 9.091048 5.195616
7853 0 2 -1.050000 60.933548 8.754820 11.450216
7854 0 2 -1.050000 59.914203 7.407044 5.060104
7855 0 2 -1.050000 64.260876 10.477454 2.445649
7856 0 2 -1.050000 62.706250 1.975879 5.195616
7857 0 2 -1.050000 62.830158 8.837804 9.387156
7858 0 2 -1.050000 65.283525 1.892895 4.095162
7859 0 2 -1.050000 57.725171 6.817571 6.709617
7860 0 2 -1.050000 61.976023 11.066928 3.959650
7861 0 2 -1.050000 60.057109 7.070815 9.387156
7862 0 2 -1.050000 64.844893 12.667948 4.095162
7863 0 2 -1.050000 64.359176 3.659884 6.709617
7864 0 2 -1.050000 58.553699 5.216550 3.959650
7865 0 2 -1.050000 62.973891 5.552779 9.387156
7866 0 2 -1.050000 55.732740 6.900555 4.095162
7867 0 2 -1.050000 63.776811 10.983943 6.709617
7868 0 2 -1.050000 65.331436 5.177920 3.959650
7869 0 2 -1.050000 62.830158 8.837804 0.625577
7870 0 2 -1.050000 61.153277 9.046695 7.015688
7871 0 2 -1.050000 65.985667 6.817571 9.630144
7872 0 2 -1.050000 57.845775 3.913128 6.880176
7873 0 2 -1.050000 60.057109 7.070815 0.625577
7874 0 2 -1.050000 60.714645 5.514149 7.015688
7875 0 2 -1.050000 60.228928 10.813683 9.630144
7876 0 2 -1.050000 66.814195 5.216550 6.880176
7877 0 2 -1.050000 62.973891 5.552779 0.625577
7878 0 2 -1.050000 63.993236 6.900555 7.015688
7879 0 2 -1.050000 59.646563 3.830144 9.630144
7880 0 2 -1.050000 61.201188 12.331719 6.880176
7881 0 1 1.575000 53.693223 7.153799 7.498159
7882 0 1 1.575000 51.628099 10.730699 13.339212
7883 0 1 1.575000 57.823471 7.153799 13.339212
7884 0 1 1.575000 51.628099 3.576900 13.339212
7885 0 1 1.575000 55.758347 3.576900 10.418686
7886 0 1 1.575000 74.344463 7.153799 10.418686
7887 0 1 1.575000 55.758347 10.730699 10.418686
7888 0 1 1.575000 53.554034 3.817983 7.301316
7889 0 1 1.575000 72.418529 6.912716 7.695003
7890 0 1 1.575000 55.897537 6.912716 10.615529
7891 0 1 1.575000 56.651720 8.701166 7.301316
7892 0 1 1.575000 56.930099 2.029533 7.695003
7893 0 1 1.575000 52.799851 9.183332 10.615529
7894 0 1 1.575000 50.873916 8.942249 7.301316
7895 0 1 1.575000 56.512531 12.519149 7.695003
7896 0 1 1.575000 52.382283 5.365349 10.615529
7897 0 1 1.575000 49.702165 3.335817 10.615529
7898 0 1 1.575000 55.619158 0.241083 10.221842
7899 0 1 1.575000 51.488910 7.394882 13.142369
7900 0 1 1.575000 53.832413 10.489616 7.695003
7901 0 1 1.575000 58.995223 5.606433 10.615529
7902 0 1 1.575000 58.716844 12.278066 10.221842
7903 0 1 1.575000 54.586596 5.124266 13.142369
7904 0 1 1.575000 50.734727 5.606433 7.695003
7905 0 1 1.575000 52.382283 12.519149 10.615529
7906 0 1 1.575000 71.525156 8.942249 10.221842
7907 0 1 1.575000 55.004164 8.942249 13.142369
7908 0 1 1.575000 56.512531 5.365349 7.695003
7909 0 2 -1.050000 52.816785 5.469795 8.529689
7910 0 2 -1.050000 50.363418 12.414703 13.821683
7911 0 2 -1.050000 57.921771 7.490028 11.207228
7912 0 2 -1.050000 53.670920 3.240671 13.957195
7913 0 2 -1.050000 55.589833 7.236783 8.529689
7914 0 2 -1.050000 50.802050 1.639651 13.821683
7915 0 2 -1.050000 51.287767 10.647715 11.207228
7916 0 2 -1.050000 57.093244 9.091048 13.957195
7917 0 2 -1.050000 52.673052 8.754820 8.529689
7918 0 2 -1.050000 59.914203 7.407044 13.821683
7919 0 2 -1.050000 51.870132 3.323655 11.207228
7920 0 2 -1.050000 50.315507 9.129679 13.957195
7921 0 2 -1.050000 54.493665 5.260904 10.901157
7922 0 2 -1.050000 49.661275 7.490028 8.286701
7923 0 2 -1.050000 57.801168 10.394470 11.036669
7924 0 2 -1.050000 54.932298 8.793450 10.901157
7925 0 2 -1.050000 55.418015 3.493916 8.286701
7926 0 2 -1.050000 73.614235 9.091048 11.036669
7927 0 2 -1.050000 51.653707 7.407044 10.901157
7928 0 2 -1.050000 56.000380 10.477454 8.286701
7929 0 2 -1.050000 54.445755 1.975879 11.036669
7930 0 2 -1.050000 57.023029 1.892895 9.936215
7931 0 2 -1.050000 74.246163 6.817571 12.550670
7932 0 2 -1.050000 53.715527 11.066928 9.800702
7933 0 2 -1.050000 56.584397 12.667948 9.936215
7934 0 2 -1.050000 56.098680 3.659884 12.550670
7935 0 2 -1.050000 50.293203 5.216550 9.800702
7936 0 2 -1.050000 72.253732 6.900555 9.936215
7937 0 2 -1.050000 55.516315 10.983943 12.550670
7938 0 2 -1.050000 57.070940 5.177920 9.800702
7939 0 2 -1.050000 54.569662 8.837804 6.466629
7940 0 2 -1.050000 52.892781 9.046695 12.856741
7941 0 2 -1.050000 49.585279 3.913128 12.721229
7942 0 2 -1.050000 51.796614 7.070815 6.466629
7943 0 2 -1.050000 52.454149 5.514149 12.856741
7944 0 2 -1.050000 58.553699 5.216550 12.721229
7945 0 2 -1.050000 54.713395 5.552779 6.466629
7946 0 2 -1.050000 55.732740 6.900555 12.856741
7947 0 2 -1.050000 52.940692 12.331719 12.721229
7948 0 1 1.575000 66.083967 14.307599 7.498159
7949 0 1 1.575000 64.018843 3.576900 13.339212
7950 0 1 1.575000 70.214215 14.307599 13.339212
7951 0 1 1.575000 64.018843 10.730699 13.339212
7952 0 1 1.575000 68.149091 10.730699 10.418686
7953 0 1 1.575000 61.953719 14.307599 10.418686
7954 0 1 1.575000 68.149091 3.576900 10.418686
7955 0 1 1.575000 65.944778 10.971782 7.301316
7956 0 1 1.575000 60.027785 14.066516 7.695003
7957 0 1 1.575000 68.288281 14.066516 10.615529
7958 0 1 1.575000 69.042464 1.547367 7.301316
7959 0 1 1.575000 69.320843 9.183332 7.695003
7960 0 1 1.575000 65.190595 2.029533 10.615529
7961 0 1 1.575000 63.264660 1.788450 7.301316
7962 0 1 1.575000 68.903275 5.365349 7.695003
7963 0 1 1.575000 64.773027 12.519149 10.615529
7964 0 1 1.575000 62.092909 10.489616 10.615529
7965 0 1 1.575000 68.009902 7.394882 10.221842
7966 0 1 1.575000 63.879654 0.241083 13.142369
7967 0 1 1.575000 66.223157 3.335817 7.695003
7968 0 1 1.575000 71.385967 12.760232 10.615529
7969 0 1 1.575000 71.107588 5.124266 10.221842
7970 0 1 1.575000 66.977340 12.278066 13.142369
7971 0 1 1.575000 63.125471 12.760232 7.695003
7972 0 1 1.575000 64.773027 5.365349 10.615529
7973 0 1 1.575000 59.134412 1.788450 10.221842
7974 0 1 1.575000 67.394908 1.788450 13.142369
7975 0 1 1.575000 68.903275 12.519149 7.695003
7976 0 2 -1.050000 65.207529 12.623594 8.529689
7977 0 2 -1.050000 62.754161 5.260904 13.821683
7978 0 2 -1.050000 70.312515 0.336229 11.207228
7979 0 2 -1.050000 66.061664 10.394470 13.957195
7980 0 2 -1.050000 67.980577 0.082984 8.529689
7981 0 2 -1.050000 63.192794 8.793450 13.821683
7982 0 2 -1.050000 63.678511 3.493916 11.207228
7983 0 2 -1.050000 69.483987 1.937249 13.957195
7984 0 2 -1.050000 65.063796 1.601020 8.529689
7985 0 2 -1.050000 72.304947 0.253244 13.821683
7986 0 2 -1.050000 64.260876 10.477454 11.207228
7987 0 2 -1.050000 62.706250 1.975879 13.957195
7988 0 2 -1.050000 66.884409 12.414703 10.901157
7989 0 2 -1.050000 62.052019 0.336229 8.286701
7990 0 2 -1.050000 70.191912 3.240671 11.036669
7991 0 2 -1.050000 67.323042 1.639651 10.901157
7992 0 2 -1.050000 67.808759 10.647715 8.286701
7993 0 2 -1.050000 61.223491 1.937249 11.036669
7994 0 2 -1.050000 64.044451 0.253244 10.901157
7995 0 2 -1.050000 68.391124 3.323655 8.286701
7996 0 2 -1.050000 66.836498 9.129679 11.036669
7997 0 2 -1.050000 69.413773 9.046695 9.936215
7998 0 2 -1.050000 61.855419 13.971370 12.550670
7999 0 2 -1.050000 66.106271 3.913128 9.800702
8000 0 2 -1.050000 68.975141 5.514149 9.936215
8001 0 2 -1.050000 68.489424 10.813683 12.550670
8002 0 2 -1.050000 62.683947 12.370350 9.800702
8003 0 2 -1.050000 59.862988 14.054354 9.936215
8004 0 2 -1.050000 67.907059 3.830144 12.550670
8005 0 2 -1.050000 69.461684 12.331719 9.800702
8006 0 2 -1.050000 66.960406 1.684004 6.466629
8007 0 2 -1.050000 65.283525 1.892895 12.856741
8008 0 2 -1.050000 61.976023 11.066928 12.721229
8009 0 2 -1.050000 64.187357 14.224615 6.466629
8010 0 2 -1.050000 64.844893 12.667948 12.856741
8011 0 2 -1.050000 70.944443 12.370350 12.721229
8012 0 2 -1.050000 67.104139 12.706578 6.466629
8013 0 2 -1.050000 68.123484 14.054354 12.856741
8014 0 2 -1.050000 65.331436 5.177920 12.721229
8015 0 1 1.575000 57.823471 14.307599 13.339212
8016 0 1 1.575000 55.758347 3.576900 1.657107
8017 0 1 1.575000 61.953719 14.307599 1.657107
8018 0 1 1.575000 55.758347 10.730699 1.657107
8019 0 1 1.575000 57.823471 14.307599 4.577633
8020 0 1 1.575000 57.684282 10.971782 13.142369
8021 0 1 1.575000 51.767289 14.066516 13.536055
8022 0 1 1.575000 57.684282 10.971782 4.380790
8023 0 1 1.575000 60.781968 1.547367 13.142369
8024 0 1 1.575000 61.060347 9.183332 13.536055
8025 0 1 1.575000 60.781968 1.547367 4.380790
8026 0 1 1.575000 55.004164 1.788450 13.142369
8027 0 1 1.575000 60.642779 5.365349 13.536055
8028 0 1 1.575000 55.004164 1.788450 4.380790
8029 0 1 1.575000 55.619158 0.241083 1.460263
8030 0 1 1.575000 57.962661 3.335817 13.536055
8031 0 1 1.575000 58.716844 12.278066 1.460263
8032 0 1 1.575000 54.864975 12.760232 13.536055
8033 0 1 1.575000 59.134412 1.788450 1.460263
8034 0 1 1.575000 60.642779 12.519149 13.536055
8035 0 2 -1.050000 56.947033 12.623594 14.370742
8036 0 2 -1.050000 54.493665 5.260904 2.139578
8037 0 2 -1.050000 57.801168 10.394470 2.275090
8038 0 2 -1.050000 59.720081 0.082984 14.370742
8039 0 2 -1.050000 54.932298 8.793450 2.139578
8040 0 2 -1.050000 61.223491 1.937249 2.275090
8041 0 2 -1.050000 56.803300 1.601020 14.370742
8042 0 2 -1.050000 64.044451 0.253244 2.139578
8043 0 2 -1.050000 54.445755 1.975879 2.275090
8044 0 2 -1.050000 56.947033 12.623594 5.609163
8045 0 2 -1.050000 53.791523 0.336229 14.127754
8046 0 2 -1.050000 59.720081 0.082984 5.609163
8047 0 2 -1.050000 59.548263 10.647715 14.127754
8048 0 2 -1.050000 56.803300 1.601020 5.609163
8049 0 2 -1.050000 60.130628 3.323655 14.127754
8050 0 2 -1.050000 58.699910 1.684004 3.546103
8051 0 2 -1.050000 53.594924 13.971370 0.868565
8052 0 2 -1.050000 55.926862 14.224615 3.546103
8053 0 2 -1.050000 60.228928 10.813683 0.868565
8054 0 2 -1.050000 58.843643 12.706578 3.546103
8055 0 2 -1.050000 59.646563 3.830144 0.868565
8056 0 2 -1.050000 58.699910 1.684004 12.307682
8057 0 2 -1.050000 57.023029 1.892895 1.174636
8058 0 2 -1.050000 61.855419 13.971370 3.789091
8059 0 2 -1.050000 53.715527 11.066928 1.039123
8060 0 2 -1.050000 55.926862 14.224615 12.307682
8061 0 2 -1.050000 56.584397 12.667948 1.174636
8062 0 2 -1.050000 56.098680 3.659884 3.789091
8063 0 2 -1.050000 62.683947 12.370350 1.039123
8064 0 2 -1.050000 58.843643 12.706578 12.307682
8065 0 2 -1.050000 59.862988 14.054354 1.174636
8066 0 2 -1.050000 55.516315 10.983943 3.789091
8067 0 2 -1.050000 57.070940 5.177920 1.039123
8068 0 1 1.575000 70.214215 7.153799 13.339212
8069 0 1 1.575000 68.149091 10.730699 1.657107
8070 0 1 1.575000 74.344463 7.153799 1.657107
8071 0 1 1.575000 68.149091 3.576900 1.657107
8072 0 1 1.575000 70.214215 7.153799 4.577633
8073 0 1 1.575000 70.075026 3.817983 13.142369
8074 0 1 1.575000 64.158033 6.912716 13.536055
8075 0 1 1.575000 70.075026 3.817983 4.380790
8076 0 1 1.575000 73.172712 8.701166 13.142369
8077 0 1 1.575000 73.451091 2.029533 13.536055
8078 0 1 1.575000 73.172712 8.701166 4.380790
8079 0 1 1.575000 67.394908 8.942249 13.142369
8080 0 1 1.575000 73.033522 12.519149 13.536055
8081 0 1 1.575000 67.394908 8.942249 4.380790
8082 0 1 1.575000 68.009902 7.394882 1.460263
8083 0 1 1.575000 70.353405 10.489616 13.536055
8084 0 1 1.575000 71.107588 5.124266 1.460263
8085 0 1 1.575000 67.255719 5.606433 13.536055
8086 0 1 1.575000 71.525156 8.942249 1.460263
8087 0 1 1.575000 73.033522 5.365349 13.536055
8088 0 2 -1.050000 69.337777 5.469795 14.370742
8089 0 2 -1.050000 66.884409 12.414703 2.139578
8090 0 2 -1.050000 70.191912 3.240671 2.275090
8091 0 2 -1.050000 72.110825 7.236783 14.370742
8092 0 2 -1.050000 67.323042 1.639651 2.139578
8093 0 2 -1.050000 73.614235 9.091048 2.275090
8094 0 2 -1.050000 69.194044 8.754820 14.370742
8095 0 2 -1.050000 51.653707 7.407044 2.139578
8096 0 2 -1.050000 66.836498 9.129679 2.275090
8097 0 2 -1.050000 69.337777 5.469795 5.609163
8098 0 2 -1.050000 66.182267 7.490028 14.127754
8099 0 2 -1.050000 72.110825 7.236783 5.609163
8100 0 2 -1.050000 71.939007 3.493916 14.127754
8101 0 2 -1.050000 69.194044 8.754820 5.609163
8102 0 2 -1.050000 72.521372 10.477454 14.127754
8103 0 2 -1.050000 71.090654 8.837804 3.546103
8104 0 2 -1.050000 65.985667 6.817571 0.868565
8105 0 2 -1.050000 68.317605 7.070815 3.546103
8106 0 2 -1.050000 72.619672 3.659884 0.868565
8107 0 2 -1.050000 71.234386 5.552779 3.546103
8108 0 2 -1.050000 72.037307 10.983943 0.868565
8109 0 2 -1.050000 71.090654 8.837804 12.307682
8110 0 2 -1.050000 69.413773 9.046695 1.174636
8111 0 2 -1.050000 74.246163 6.817571 3.789091
8112 0 2 -1.050000 66.106271 3.913128 1.039123
8113 0 2 -1.050000 68.317605 7.070815 12.307682
8114 0 2 -1.050000 68.975141 5.514149 1.174636
8115 0 2 -1.050000 68.489424 10.813683 3.789091
8116 0 2 -1.050000 50.293203 5.216550 1.039123
8117 0 2 -1.050000 71.234386 5.552779 12.307682
8118 0 2 -1.050000 72.253732 6.900555 1.174636
8119 0 2 -1.050000 67.907059 3.830144 3.789091
8120 0 2 -1.050000 69.461684 12.331719 1.039123
8121 0 1 1.575000 49.562975 14.307599 19.180265
8122 0 1 1.575000 72.279339 3.576900 25.021317
8123 0 1 1.575000 72.279339 10.730699 25.021317
8124 0 1 1.575000 51.628099 10.730699 22.100791
8125 0 1 1.575000 51.628099 3.576900 22.100791
8126 0 1 1.575000 74.205274 10.971782 18.983421
8127 0 1 1.575000 68.288281 14.066516 19.377108
8128 0 1 1.575000 51.767289 14.066516 22.297634
8129 0 1 1.575000 52.521472 1.547367 18.983421
8130 0 1 1.575000 52.799851 9.183332 19.377108
8131 0 1 1.575000 73.451091 2.029533 22.297634
8132 0 1 1.575000 52.521472 1.547367 27.745000
8133 0 1 1.575000 71.525156 1.788450 18.983421
8134 0 1 1.575000 52.382283 5.365349 19.377108
8135 0 1 1.575000 73.033522 12.519149 22.297634
8136 0 1 1.575000 71.525156 1.788450 27.745000
8137 0 1 1.575000 70.353405 10.489616 22.297634
8138 0 1 1.575000 51.488910 7.394882 21.903948
8139 0 1 1.575000 72.140150 0.241083 24.824474
8140 0 1 1.575000 49.702165 3.335817 19.377108
8141 0 1 1.575000 54.864975 12.760232 22.297634
8142 0 1 1.575000 54.586596 5.124266 21.903948
8143 0 1 1.575000 71.385967 12.760232 19.377108
8144 0 1 1.575000 73.033522 5.365349 22.297634
8145 0 1 1.575000 67.394908 1.788450 21.903948
8146 0 1 1.575000 50.873916 1.788450 24.824474
8147 0 1 1.575000 52.382283 12.519149 19.377108
8148 0 2 -1.050000 73.468025 12.623594 20.211795
8149 0 2 -1.050000 71.014657 5.260904 25.503788
8150 0 2 -1.050000 53.791523 0.336229 22.889333
8151 0 3 -0.950000 74.322160 10.394470 25.639301
8152 0 2 -1.050000 51.459585 0.082984 20.211795
8153 0 2 -1.050000 71.453290 8.793450 25.503788
8154 0 2 -1.050000 71.939007 3.493916 22.889333
8155 0 2 -1.050000 52.962996 1.937249 25.639301
8156 0 2 -1.050000 73.324292 1.601020 20.211795
8157 0 2 -1.050000 55.783955 0.253244 25.503788
8158 0 2 -1.050000 72.521372 10.477454 22.889333
8159 0 2 -1.050000 70.966746 1.975879 25.639301
8160 0 2 -1.050000 50.363418 12.414703 22.583262
8161 0 2 -1.050000 70.312515 0.336229 19.968807
8162 0 2 -1.050000 53.670920 3.240671 22.718774
8163 0 3 -0.950000 51.459585 0.082984 28.973374
8164 0 2 -1.050000 50.802050 1.639651 22.583262
8165 0 2 -1.050000 51.287767 10.647715 19.968807
8166 0 2 -1.050000 69.483987 1.937249 22.718774
8167 0 2 -1.050000 73.324292 1.601020 28.973374
8168 0 2 -1.050000 72.304947 0.253244 22.583262
8169 0 2 -1.050000 51.870132 3.323655 19.968807
8170 0 2 -1.050000 50.315507 9.129679 22.718774
8171 0 2 -1.050000 50.439414 1.684004 26.910314
8172 0 2 -1.050000 52.892781 9.046695 21.618320
8173 0 2 -1.050000 49.585279 3.913128 21.482808
8174 0 2 -1.050000 52.454149 5.514149 21.618320
8175 0 2 -1.050000 51.968432 10.813683 24.232775
8176 0 3 -0.950000 70.944443 12.370350 21.482808
8177 0 2 -1.050000 68.123484 14.054354 21.618320
8178 0 2 -1.050000 51.386067 3.830144 24.232775
8179 0 2 -1.050000 52.940692 12.331719 21.482808
8180 0 2 -1.050000 50.439414 1.684004 18.148735
8181 0 2 -1.050000 73.544021 1.892895 24.538846
8182 0 2 -1.050000 70.236519 11.066928 24.403334
8183 0 2 -1.050000 72.447853 14.224615 18.148735
8184 0 2 -1.050000 72.619672 3.659884 27.153302
8185 0 2 -1.050000 50.583147 12.706578 18.148735
8186 0 2 -1.050000 73.591932 5.177920 24.403334
8187 0 1 1.575000 61.953719 7.153799 19.180265
8188 0 1 1.575000 59.888595 10.730699 25.021317
8189 0 1 1.575000 66.083967 7.153799 25.021317
8190 0 1 1.575000 59.888595 3.576900 25.021317
8191 0 1 1.575000 61.953719 7.153799 27.941844
8192 0 1 1.575000 64.018843 3.576900 22.100791
8193 0 1 1.575000 57.823471 7.153799 22.100791
8194 0 1 1.575000 64.018843 10.730699 22.100791
8195 0 1 1.575000 61.814530 3.817983 18.983421
8196 0 1 1.575000 55.897537 6.912716 19.377108
8197 0 1 1.575000 64.158033 6.912716 22.297634
8198 0 1 1.575000 61.814530 3.817983 27.745000
8199 0 1 1.575000 64.912216 8.701166 18.983421
8200 0 1 1.575000 65.190595 2.029533 19.377108
8201 0 1 1.575000 61.060347 9.183332 22.297634
8202 0 1 1.575000 59.134412 8.942249 18.983421
8203 0 1 1.575000 64.773027 12.519149 19.377108
8204 0 1 1.575000 60.642779 5.365349 22.297634
8205 0 1 1.575000 57.962661 3.335817 22.297634
8206 0 1 1.575000 63.879654 0.241083 21.903948
8207 0 1 1.575000 59.749406 7.394882 24.824474
8208 0 1 1.575000 62.092909 10.489616 19.377108
8209 0 1 1.575000 67.255719 5.606433 22.297634
8210 0 1 1.575000 66.977340 12.278066 21.903948
8211 0 1 1.575000 62.847092 5.124266 24.824474
8212 0 1 1.575000 58.995223 5.606433 19.377108
8213 0 1 1.575000 60.642779 12.519149 22.297634
8214 0 1 1.575000 55.004164 8.942249 21.903948
8215 0 1 1.575000 63.264660 8.942249 24.824474
8216 0 1 1.575000 64.773027 5.365349 19.377108
8217 0 2 -1.050000 61.077281 5.469795 20.211795
8218 0 2 -1.050000 66.182267 7.490028 22.889333
8219 0 2 -1.050000 61.931416 3.240671 25.639301
8220 0 2 -1.050000 63.850329 7.236783 20.211795
8221 0 2 -1.050000 59.062546 1.639651 25.503788
8222 0 2 -1.050000 59.548263 10.647715 22.889333
8223 0 3 -0.950000 65.353739 9.091048 25.639301
8224 0 2 -1.050000 60.933548 8.754820 20.211795
8225 0 2 -1.050000 68.174699 7.407044 25.503788
8226 0 2 -1.050000 60.130628 3.323655 22.889333
8227 0 3 -0.950000 58.576003 9.129679 25.639301
8228 0 3 -0.950000 61.077281 5.469795 28.973374
8229 0 2 -1.050000 62.754161 5.260904 22.583262
8230 0 2 -1.050000 57.921771 7.490028 19.968807
8231 0 2 -1.050000 66.061664 10.394470 22.718774
8232 0 3 -0.950000 63.850329 7.236783 28.973374
8233 0 2 -1.050000 63.192794 8.793450 22.583262
8234 0 2 -1.050000 63.678511 3.493916 19.968807
8235 0 2 -1.050000 57.093244 9.091048 22.718774
8236 0 2 -1.050000 59.914203 7.407044 22.583262
8237 0 2 -1.050000 64.260876 10.477454 19.968807
8238 0 2 -1.050000 62.706250 1.975879 22.718774
8239 0 2 -1.050000 65.283525 1.892895 21.618320
8240 0 2 -1.050000 57.725171 6.817571 24.232775
8241 0 2 -1.050000 61.976023 11.066928 21.482808
8242 0 2 -1.050000 60.057109 7.070815 26.910314
8243 0 2 -1.050000 64.844893 12.667948 21.618320
8244 0 2 -1.050000 64.359176 3.659884 24.232775
8245 0 2 -1.050000 58.553699 5.216550 21.482808
8246 0 2 -1.050000 62.973891 5.552779 26.910314
8247 0 2 -1.050000 55.732740 6.900555 21.618320
8248 0 2 -1.050000 63.776811 10.983943 24.232775
8249 0 2 -1.050000 65.331436 5.177920 21.482808
8250 0 2 -1.050000 62.830158 8.837804 18.148735
8251 0 2 -1.050000 61.153277 9.046695 24.538846
8252 0 2 -1.050000 65.985667 6.817571 27.153302
8253 0 2 -1.050000 57.845775 3.913128 24.403334
8254 0 2 -1.050000 60.057109 7.070815 18.148735
8255 0 2 -1.050000 60.714645 5.514149 24.538846
8256 0 2 -1.050000 66.814195 5.216550 24.403334
8257 0 2 -1.050000 62.973891 5.552779 18.148735
8258 0 2 -1.050000 63.993236 6.900555 24.538846
8259 0 2 -1.050000 59.646563 3.830144 27.153302
8260 0 1 1.575000 53.693223 7.153799 25.021317
8261 0 1 1.575000 53.693223 7.153799 16.259738
8262 0 1 1.575000 55.758347 3.576900 27.941844
8263 0 1 1.575000 74.344463 7.153799 27.941844
8264 0 1 1.575000 53.554034 3.817983 24.824474
8265 0 1 1.575000 72.418529 6.912716 25.218161
8266 0 1 1.575000 55.897537 6.912716 28.138687
8267 0 1 1.575000 53.554034 3.817983 16.062895
8268 0 1 1.575000 56.651720 8.701166 24.824474
8269 0 1 1.575000 56.930099 2.029533 25.218161
8270 0 1 1.575000 56.651720 8.701166 16.062895
8271 0 1 1.575000 50.873916 8.942249 24.824474
8272 0 1 1.575000 52.382283 5.365349 28.138687
8273 0 1 1.575000 50.873916 8.942249 16.062895
8274 0 1 1.575000 49.702165 3.335817 28.138687
8275 0 1 1.575000 55.619158 0.241083 27.745000
8276 0 1 1.575000 53.832413 10.489616 25.218161
8277 0 1 1.575000 58.995223 5.606433 28.138687
8278 0 1 1.575000 50.734727 5.606433 25.218161
8279 0 1 1.575000 56.512531 5.365349 25.218161
8280 0 2 -1.050000 52.816785 5.469795 26.052847
8281 0 3 -0.950000 57.921771 7.490028 28.730386
8282 0 2 -1.050000 55.589833 7.236783 26.052847
8283 0 3 -0.950000 52.673052 8.754820 26.052847
8284 0 3 -0.950000 51.870132 3.323655 28.730386
8285 0 2 -1.050000 52.816785 5.469795 17.291268
8286 0 2 -1.050000 54.493665 5.260904 28.424315
8287 0 2 -1.050000 49.661275 7.490028 25.809859
8288 0 2 -1.050000 55.589833 7.236783 17.291268
8289 0 2 -1.050000 55.418015 3.493916 25.809859
8290 0 2 -1.050000 52.673052 8.754820 17.291268
8291 0 3 -0.950000 51.653707 7.407044 28.424315
8292 0 3 -0.950000 56.000380 10.477454 25.809859
8293 0 3 -0.950000 54.445755 1.975879 28.559827
8294 0 2 -1.050000 54.569662 8.837804 15.228208
8295 0 2 -1.050000 57.023029 1.892895 27.459373
8296 0 2 -1.050000 51.796614 7.070815 15.228208
8297 0 2 -1.050000 50.293203 5.216550 27.323860
8298 0 2 -1.050000 54.713395 5.552779 15.228208
8299 0 3 -0.950000 72.253732 6.900555 27.459373
8300 0 2 -1.050000 57.070940 5.177920 27.323860
8301 0 2 -1.050000 54.569662 8.837804 23.989787
8302 0 2 -1.050000 57.725171 6.817571 15.471196
8303 0 2 -1.050000 51.796614 7.070815 23.989787
8304 0 2 -1.050000 51.968432 10.813683 15.471196
8305 0 2 -1.050000 54.713395 5.552779 23.989787
8306 0 2 -1.050000 51.386067 3.830144 15.471196
8307 0 1 1.575000 66.083967 14.307599 16.259738
8308 0 1 1.575000 68.149091 3.576900 27.941844
8309 0 1 1.575000 65.944778 10.971782 24.824474
8310 0 1 1.575000 65.944778 10.971782 16.062895
8311 0 1 1.575000 69.042464 1.547367 24.824474
8312 0 1 1.575000 69.320843 9.183332 25.218161
8313 0 1 1.575000 65.190595 2.029533 28.138687
8314 0 1 1.575000 69.042464 1.547367 16.062895
8315 0 1 1.575000 63.264660 1.788450 24.824474
8316 0 1 1.575000 68.903275 5.365349 25.218161
8317 0 1 1.575000 63.264660 1.788450 16.062895
8318 0 1 1.575000 68.009902 7.394882 27.745000
8319 0 1 1.575000 66.223157 3.335817 25.218161
8320 0 1 1.575000 71.107588 5.124266 27.745000
8321 0 1 1.575000 64.773027 5.365349 28.138687
8322 0 1 1.575000 59.134412 1.788450 27.745000
8323 0 3 -0.950000 70.312515 0.336229 28.730386
8324 0 2 -1.050000 67.980577 0.082984 26.052847
8325 0 3 -0.950000 63.678511 3.493916 28.730386
8326 0 2 -1.050000 65.063796 1.601020 26.052847
8327 0 2 -1.050000 65.207529 12.623594 17.291268
8328 0 2 -1.050000 62.052019 0.336229 25.809859
8329 0 3 -0.950000 70.191912 3.240671 28.559827
8330 0 2 -1.050000 67.980577 0.082984 17.291268
8331 0 2 -1.050000 67.323042 1.639651 28.424315
8332 0 3 -0.950000 67.808759 10.647715 25.809859
8333 0 3 -0.950000 61.223491 1.937249 28.559827
8334 0 2 -1.050000 65.063796 1.601020 17.291268
8335 0 2 -1.050000 64.044451 0.253244 28.424315
8336 0 2 -1.050000 68.391124 3.323655 25.809859
8337 0 2 -1.050000 66.960406 1.684004 15.228208
8338 0 2 -1.050000 66.106271 3.913128 27.323860
8339 0 2 -1.050000 64.187357 14.224615 15.228208
8340 0 2 -1.050000 68.975141 5.514149 27.459373
8341 0 2 -1.050000 67.104139 12.706578 15.228208
8342 0 2 -1.050000 66.960406 1.684004 23.989787
8343 0 2 -1.050000 70.115915 13.971370 15.471196
8344 0 2 -1.050000 64.359176 3.659884 15.471196
8345 0 2 -1.050000 63.776811 10.983943 15.471196
8346 0 1 1.575000 55.758347 3.576900 19.180265
8347 0 1 1.575000 61.953719 14.307599 19.180265
8348 0 1 1.575000 55.758347 10.730699 19.180265
8349 0 1 1.575000 59.888595 10.730699 16.259738
8350 0 1 1.575000 53.693223 14.307599 16.259738
8351 0 1 1.575000 59.888595 3.576900 16.259738
8352 0 1 1.575000 60.027785 14.066516 16.456582
8353 0 1 1.575000 57.684282 10.971782 21.903948
8354 0 1 1.575000 56.930099 2.029533 16.456582
8355 0 1 1.575000 60.781968 1.547367 21.903948
8356 0 1 1.575000 56.512531 12.519149 16.456582
8357 0 1 1.575000 55.004164 1.788450 21.903948
8358 0 1 1.575000 53.832413 10.489616 16.456582
8359 0 1 1.575000 59.749406 7.394882 16.062895
8360 0 1 1.575000 55.619158 0.241083 18.983421
8361 0 1 1.575000 63.125471 12.760232 16.456582
8362 0 1 1.575000 62.847092 5.124266 16.062895
8363 0 1 1.575000 58.716844 12.278066 18.983421
8364 0 1 1.575000 56.512531 5.365349 16.456582
8365 0 1 1.575000 50.873916 1.788450 16.062895
8366 0 1 1.575000 59.134412 1.788450 18.983421
8367 0 2 -1.050000 54.493665 5.260904 19.662736
8368 0 2 -1.050000 62.052019 0.336229 17.048280
8369 0 2 -1.050000 57.801168 10.394470 19.798248
8370 0 2 -1.050000 54.932298 8.793450 19.662736
8371 0 2 -1.050000 55.418015 3.493916 17.048280
8372 0 2 -1.050000 61.223491 1.937249 19.798248
8373 0 2 -1.050000 64.044451 0.253244 19.662736
8374 0 2 -1.050000 56.000380 10.477454 17.048280
8375 0 2 -1.050000 54.445755 1.975879 19.798248
8376 0 3 -0.950000 56.947033 12.623594 23.132321
8377 0 2 -1.050000 58.623913 12.414703 16.742209
8378 0 2 -1.050000 61.931416 3.240671 16.877722
8379 0 2 -1.050000 59.720081 0.082984 23.132321
8380 0 2 -1.050000 59.062546 1.639651 16.742209
8381 0 2 -1.050000 52.962996 1.937249 16.877722
8382 0 2 -1.050000 56.803300 1.601020 23.132321
8383 0 2 -1.050000 55.783955 0.253244 16.742209
8384 0 2 -1.050000 58.576003 9.129679 16.877722
8385 0 2 -1.050000 58.699910 1.684004 21.069261
8386 0 2 -1.050000 61.153277 9.046695 15.777267
8387 0 2 -1.050000 53.594924 13.971370 18.391723
8388 0 2 -1.050000 57.845775 3.913128 15.641755
8389 0 2 -1.050000 60.714645 5.514149 15.777267
8390 0 2 -1.050000 60.228928 10.813683 18.391723
8391 0 2 -1.050000 54.423451 12.370350 15.641755
8392 0 2 -1.050000 58.843643 12.706578 21.069261
8393 0 2 -1.050000 51.602492 14.054354 15.777267
8394 0 2 -1.050000 59.646563 3.830144 18.391723
8395 0 2 -1.050000 61.201188 12.331719 15.641755
8396 0 2 -1.050000 57.023029 1.892895 18.697794
8397 0 3 -0.950000 61.855419 13.971370 21.312249
8398 0 2 -1.050000 53.715527 11.066928 18.562281
8399 0 2 -1.050000 56.584397 12.667948 18.697794
8400 0 2 -1.050000 56.098680 3.659884 21.312249
8401 0 2 -1.050000 62.683947 12.370350 18.562281
8402 0 2 -1.050000 59.862988 14.054354 18.697794
8403 0 2 -1.050000 55.516315 10.983943 21.312249
8404 0 2 -1.050000 57.070940 5.177920 18.562281
8405 0 1 1.575000 68.149091 10.730699 19.180265
8406 0 1 1.575000 74.344463 7.153799 19.180265
8407 0 1 1.575000 68.149091 3.576900 19.180265
8408 0 1 1.575000 70.214215 7.153799 22.100791
8409 0 1 1.575000 72.279339 3.576900 16.259738
8410 0 1 1.575000 66.083967 7.153799 16.259738
8411 0 1 1.575000 72.279339 10.730699 16.259738
8412 0 1 1.575000 72.418529 6.912716 16.456582
8413 0 1 1.575000 70.075026 3.817983 21.903948
8414 0 1 1.575000 69.320843 9.183332 16.456582
8415 0 1 1.575000 73.172712 8.701166 21.903948
8416 0 1 1.575000 68.903275 5.365349 16.456582
8417 0 1 1.575000 67.394908 8.942249 21.903948
8418 0 1 1.575000 66.223157 3.335817 16.456582
8419 0 1 1.575000 72.140150 0.241083 16.062895
8420 0 1 1.575000 68.009902 7.394882 18.983421
8421 0 1 1.575000 50.734727 5.606433 16.456582
8422 0 1 1.575000 50.456348 12.278066 16.062895
8423 0 1 1.575000 71.107588 5.124266 18.983421
8424 0 1 1.575000 68.903275 12.519149 16.456582
8425 0 1 1.575000 63.264660 8.942249 16.062895
8426 0 1 1.575000 71.525156 8.942249 18.983421
8427 0 2 -1.050000 66.884409 12.414703 19.662736
8428 0 2 -1.050000 49.661275 7.490028 17.048280
8429 0 2 -1.050000 70.191912 3.240671 19.798248
8430 0 2 -1.050000 67.323042 1.639651 19.662736
8431 0 2 -1.050000 67.808759 10.647715 17.048280
8432 0 2 -1.050000 73.614235 9.091048 19.798248
8433 0 2 -1.050000 51.653707 7.407044 19.662736
8434 0 2 -1.050000 68.391124 3.323655 17.048280
8435 0 2 -1.050000 66.836498 9.129679 19.798248
8436 0 2 -1.050000 69.337777 5.469795 23.132321
8437 0 2 -1.050000 71.014657 5.260904 16.742209
8438 0 2 -1.050000 74.322160 10.394470 16.877722
8439 0 2 -1.050000 72.110825 7.236783 23.132321
8440 0 2 -1.050000 71.453290 8.793450 16.742209
8441 0 2 -1.050000 65.353739 9.091048 16.877722
8442 0 2 -1.050000 69.194044 8.754820 23.132321
8443 0 2 -1.050000 68.174699 7.407044 16.742209
8444 0 2 -1.050000 70.966746 1.975879 16.877722
8445 0 2 -1.050000 71.090654 8.837804 21.069261
8446 0 2 -1.050000 73.544021 1.892895 15.777267
8447 0 2 -1.050000 65.985667 6.817571 18.391723
8448 0 2 -1.050000 70.236519 11.066928 15.641755
8449 0 2 -1.050000 68.317605 7.070815 21.069261
8450 0 2 -1.050000 73.105389 12.667948 15.777267
8451 0 2 -1.050000 72.619672 3.659884 18.391723
8452 0 2 -1.050000 66.814195 5.216550 15.641755
8453 0 2 -1.050000 71.234386 5.552779 21.069261
8454 0 2 -1.050000 63.993236 6.900555 15.777267
8455 0 2 -1.050000 72.037307 10.983943 18.391723
8456 0 2 -1.050000 73.591932 5.177920 15.641755
8457 0 2 -1.050000 69.413773 9.046695 18.697794
8458 0 2 -1.050000 74.246163 6.817571 21.312249
8459 0 2 -1.050000 66.106271 3.913128 18.562281
8460 0 2 -1.050000 68.975141 5.514149 18.697794
8461 0 2 -1.050000 68.489424 10.813683 21.312249
8462 0 2 -1.050000 50.293203 5.216550 18.562281
8463 0 2 -1.050000 72.253732 6.900555 18.697794
8464 0 2 -1.050000 67.907059 3.830144 21.312249
8465 0 2 -1.050000 69.461684 12.331719 18.562281
8466 0 1 1.575000 74.344463 14.307599 1.657107
8467 0 1 1.575000 97.060827 3.576900 7.498159
8468 0 1 1.575000 78.474711 14.307599 7.498159
8469 0 1 1.575000 97.060827 10.730699 7.498159
8470 0 1 1.575000 99.125951 14.307599 10.418686
8471 0 1 1.575000 76.409587 10.730699 4.577633
8472 0 1 1.575000 94.995703 14.307599 4.577633
8473 0 1 1.575000 76.409587 3.576900 4.577633
8474 0 1 1.575000 98.986762 10.971782 1.460263
8475 0 1 1.575000 93.069768 14.066516 1.853950
8476 0 1 1.575000 76.548777 14.066516 4.774476
8477 0 1 1.575000 98.986762 10.971782 10.221842
8478 0 1 1.575000 77.302960 1.547367 1.460263
8479 0 1 1.575000 77.581339 9.183332 1.853950
8480 0 1 1.575000 98.232578 2.029533 4.774476
8481 0 1 1.575000 77.302960 1.547367 10.221842
8482 0 1 1.575000 96.306644 1.788450 1.460263
8483 0 1 1.575000 77.163770 5.365349 1.853950
8484 0 1 1.575000 97.815010 12.519149 4.774476
8485 0 1 1.575000 96.306644 1.788450 10.221842
8486 0 1 1.575000 95.134892 10.489616 4.774476
8487 0 1 1.575000 76.270398 7.394882 4.380790
8488 0 1 1.575000 96.921638 0.241083 7.301316
8489 0 1 1.575000 74.483653 3.335817 1.853950
8490 0 1 1.575000 79.646462 12.760232 4.774476
8491 0 1 1.575000 79.368084 5.124266 4.380790
8492 0 1 1.575000 75.237836 12.278066 7.301316
8493 0 1 1.575000 96.167454 12.760232 1.853950
8494 0 1 1.575000 97.815010 5.365349 4.774476
8495 0 1 1.575000 92.176396 1.788450 4.380790
8496 0 1 1.575000 75.655404 1.788450 7.301316
8497 0 1 1.575000 77.163770 12.519149 1.853950
8498 0 2 -1.050000 98.249512 12.623594 2.688637
8499 0 2 -1.050000 95.796145 5.260904 7.980630
8500 0 2 -1.050000 78.573011 0.336229 5.366175
8501 0 2 -1.050000 99.103648 10.394470 8.116143
8502 0 2 -1.050000 76.241073 0.082984 2.688637
8503 0 2 -1.050000 96.234777 8.793450 7.980630
8504 0 2 -1.050000 96.720495 3.493916 5.366175
8505 0 2 -1.050000 77.744483 1.937249 8.116143
8506 0 2 -1.050000 98.105780 1.601020 2.688637
8507 0 2 -1.050000 80.565443 0.253244 7.980630
8508 0 2 -1.050000 97.302859 10.477454 5.366175
8509 0 2 -1.050000 95.748234 1.975879 8.116143
8510 0 2 -1.050000 98.249512 12.623594 11.450216
8511 0 2 -1.050000 75.144905 12.414703 5.060104
8512 0 2 -1.050000 95.094003 0.336229 2.445649
8513 0 2 -1.050000 78.452408 3.240671 5.195616
8514 0 2 -1.050000 76.241073 0.082984 11.450216
8515 0 2 -1.050000 75.583538 1.639651 5.060104
8516 0 2 -1.050000 76.069255 10.647715 2.445649
8517 0 2 -1.050000 94.265475 1.937249 5.195616
8518 0 2 -1.050000 98.105780 1.601020 11.450216
8519 0 2 -1.050000 97.086434 0.253244 5.060104
8520 0 2 -1.050000 76.651620 3.323655 2.445649
8521 0 2 -1.050000 75.096994 9.129679 5.195616
8522 0 2 -1.050000 75.220902 1.684004 9.387156
8523 0 2 -1.050000 77.674269 9.046695 4.095162
8524 0 2 -1.050000 94.897403 13.971370 6.709617
8525 0 2 -1.050000 74.366767 3.913128 3.959650
8526 0 2 -1.050000 97.229341 14.224615 9.387156
8527 0 2 -1.050000 77.235637 5.514149 4.095162
8528 0 2 -1.050000 76.749920 10.813683 6.709617
8529 0 2 -1.050000 95.725931 12.370350 3.959650
8530 0 2 -1.050000 75.364634 12.706578 9.387156
8531 0 2 -1.050000 92.904971 14.054354 4.095162
8532 0 2 -1.050000 76.167555 3.830144 6.709617
8533 0 2 -1.050000 77.722180 12.331719 3.959650
8534 0 2 -1.050000 75.220902 1.684004 0.625577
8535 0 2 -1.050000 98.325509 1.892895 7.015688
8536 0 2 -1.050000 78.376411 13.971370 9.630144
8537 0 2 -1.050000 95.018006 11.066928 6.880176
8538 0 2 -1.050000 97.229341 14.224615 0.625577
8539 0 2 -1.050000 97.886877 12.667948 7.015688
8540 0 2 -1.050000 97.401159 3.659884 9.630144
8541 0 2 -1.050000 79.204939 12.370350 6.880176
8542 0 2 -1.050000 75.364634 12.706578 0.625577
8543 0 2 -1.050000 76.383980 14.054354 7.015688
8544 0 2 -1.050000 96.818794 10.983943 9.630144
8545 0 2 -1.050000 98.373420 5.177920 6.880176
8546 0 1 1.575000 86.735207 7.153799 1.657107
8547 0 1 1.575000 84.670083 10.730699 7.498159
8548 0 1 1.575000 90.865455 7.153799 7.498159
8549 0 1 1.575000 84.670083 3.576900 7.498159
8550 0 1 1.575000 86.735207 7.153799 10.418686
8551 0 1 1.575000 88.800331 3.576900 4.577633
8552 0 1 1.575000 82.604959 7.153799 4.577633
8553 0 1 1.575000 88.800331 10.730699 4.577633
8554 0 1 1.575000 86.596018 3.817983 1.460263
8555 0 1 1.575000 80.679024 6.912716 1.853950
8556 0 1 1.575000 88.939520 6.912716 4.774476
8557 0 1 1.575000 86.596018 3.817983 10.221842
8558 0 1 1.575000 89.693704 8.701166 1.460263
8559 0 1 1.575000 89.972082 2.029533 1.853950
8560 0 1 1.575000 85.841834 9.183332 4.774476
8561 0 1 1.575000 89.693704 8.701166 10.221842
8562 0 1 1.575000 83.915900 8.942249 1.460263
8563 0 1 1.575000 89.554514 12.519149 1.853950
8564 0 1 1.575000 85.424266 5.365349 4.774476
8565 0 1 1.575000 83.915900 8.942249 10.221842
8566 0 1 1.575000 82.744148 3.335817 4.774476
8567 0 1 1.575000 88.661142 0.241083 4.380790
8568 0 1 1.575000 84.530894 7.394882 7.301316
8569 0 1 1.575000 86.874396 10.489616 1.853950
8570 0 1 1.575000 92.037206 5.606433 4.774476
8571 0 1 1.575000 91.758828 12.278066 4.380790
8572 0 1 1.575000 87.628580 5.124266 7.301316
8573 0 1 1.575000 83.776710 5.606433 1.853950
8574 0 1 1.575000 85.424266 12.519149 4.774476
8575 0 1 1.575000 79.785652 8.942249 4.380790
8576 0 1 1.575000 88.046148 8.942249 7.301316
8577 0 1 1.575000 89.554514 5.365349 1.853950
8578 0 2 -1.050000 85.858768 5.469795 2.688637
8579 0 2 -1.050000 83.405401 12.414703 7.980630
8580 0 2 -1.050000 90.963755 7.490028 5.366175
8581 0 2 -1.050000 86.712904 3.240671 8.116143
8582 0 2 -1.050000 88.631817 7.236783 2.688637
8583 0 2 -1.050000 83.844033 1.639651 7.980630
8584 0 2 -1.050000 84.329751 10.647715 5.366175
8585 0 2 -1.050000 90.135227 9.091048 8.116143
8586 0 2 -1.050000 85.715036 8.754820 2.688637
8587 0 2 -1.050000 92.956187 7.407044 7.980630
8588 0 2 -1.050000 84.912116 3.323655 5.366175
8589 0 2 -1.050000 83.357490 9.129679 8.116143
8590 0 2 -1.050000 85.858768 5.469795 11.450216
8591 0 2 -1.050000 87.535649 5.260904 5.060104
8592 0 2 -1.050000 82.703259 7.490028 2.445649
8593 0 2 -1.050000 90.843152 10.394470 5.195616
8594 0 2 -1.050000 88.631817 7.236783 11.450216
8595 0 2 -1.050000 87.974281 8.793450 5.060104
8596 0 2 -1.050000 88.459999 3.493916 2.445649
8597 0 2 -1.050000 81.874731 9.091048 5.195616
8598 0 2 -1.050000 85.715036 8.754820 11.450216
8599 0 2 -1.050000 84.695691 7.407044 5.060104
8600 0 2 -1.050000 89.042364 10.477454 2.445649
8601 0 2 -1.050000 87.487738 1.975879 5.195616
8602 0 2 -1.050000 87.611646 8.837804 9.387156
8603 0 2 -1.050000 90.065013 1.892895 4.095162
8604 0 2 -1.050000 82.506659 6.817571 6.709617
8605 0 2 -1.050000 86.757510 11.066928 3.959650
8606 0 2 -1.050000 84.838597 7.070815 9.387156
8607 0 2 -1.050000 89.626381 12.667948 4.095162
8608 0 2 -1.050000 89.140663 3.659884 6.709617
8609 0 2 -1.050000 83.335187 5.216550 3.959650
8610 0 2 -1.050000 87.755378 5.552779 9.387156
8611 0 2 -1.050000 80.514228 6.900555 4.095162
8612 0 2 -1.050000 88.558298 10.983943 6.709617
8613 0 2 -1.050000 90.112924 5.177920 3.959650
8614 0 2 -1.050000 87.611646 8.837804 0.625577
8615 0 2 -1.050000 85.934765 9.046695 7.015688
8616 0 2 -1.050000 90.767155 6.817571 9.630144
8617 0 2 -1.050000 82.627262 3.913128 6.880176
8618 0 2 -1.050000 84.838597 7.070815 0.625577
8619 0 2 -1.050000 85.496133 5.514149 7.015688
8620 0 2 -1.050000 85.010416 10.813683 9.630144
8621 0 2 -1.050000 91.595683 5.216550 6.880176
8622 0 2 -1.050000 87.755378 5.552779 0.625577
8623 0 2 -1.050000 88.774723 6.900555 7.015688
8624 0 2 -1.050000 84.428051 3.830144 9.630144
8625 0 2 -1.050000 85.982676 12.331719 6.880176
8626 0 1 1.575000 78.474711 7.153799 7.498159
8627 0 1 1.575000 76.409587 10.730699 13.339212
8628 0 1 1.575000 82.604959 7.153799 13.339212
8629 0 1 1.575000 76.409587 3.576900 13.339212
8630 0 1 1.575000 80.539835 3.576900 10.418686
8631 0 1 1.575000 99.125951 7.153799 10.418686
8632 0 1 1.575000 80.539835 10.730699 10.418686
8633 0 1 1.575000 78.335522 3.817983 7.301316
8634 0 1 1.575000 97.200016 6.912716 7.695003
8635 0 1 1.575000 80.679024 6.912716 10.615529
8636 0 1 1.575000 81.433208 8.701166 7.301316
8637 0 1 1.575000 81.711586 2.029533 7.695003
8638 0 1 1.575000 77.581339 9.183332 10.615529
8639 0 1 1.575000 75.655404 8.942249 7.301316
8640 0 1 1.575000 81.294018 12.519149 7.695003
8641 0 1 1.575000 77.163770 5.365349 10.615529
8642 0 1 1.575000 74.483653 3.335817 10.615529
8643 0 1 1.575000 80.400646 0.241083 10.221842
8644 0 1 1.575000 76.270398 7.394882 13.142369
8645 0 1 1.575000 78.613900 10.489616 7.695003
8646 0 1 1.575000 83.776710 5.606433 10.615529
8647 0 1 1.575000 83.498332 12.278066 10.221842
8648 0 1 1.575000 79.368084 5.124266 13.142369
8649 0 1 1.575000 75.516215 5.606433 7.695003
8650 0 1 1.575000 77.163770 12.519149 10.615529
8651 0 1 1.575000 96.306644 8.942249 10.221842
8652 0 1 1.575000 79.785652 8.942249 13.142369
8653 0 1 1.575000 81.294018 5.365349 7.695003
8654 0 2 -1.050000 77.598273 5.469795 8.529689
8655 0 2 -1.050000 75.144905 12.414703 13.821683
8656 0 2 -1.050000 82.703259 7.490028 11.207228
8657 0 2 -1.050000 78.452408 3.240671 13.957195
8658 0 2 -1.050000 80.371321 7.236783 8.529689
8659 0 2 -1.050000 75.583538 1.639651 13.821683
8660 0 2 -1.050000 76.069255 10.647715 11.207228
8661 0 2 -1.050000 81.874731 9.091048 13.957195
8662 0 2 -1.050000 77.454540 8.754820 8.529689
8663 0 2 -1.050000 84.695691 7.407044 13.821683
8664 0 2 -1.050000 76.651620 3.323655 11.207228
8665 0 2 -1.050000 75.096994 9.129679 13.957195
8666 0 2 -1.050000 79.275153 5.260904 10.901157
8667 0 2 -1.050000 74.442763 7.490028 8.286701
8668 0 2 -1.050000 82.582656 10.394470 11.036669
8669 0 2 -1.050000 79.713786 8.793450 10.901157
8670 0 2 -1.050000 80.199503 3.493916 8.286701
8671 0 2 -1.050000 98.395723 9.091048 11.036669
8672 0 2 -1.050000 76.435195 7.407044 10.901157
8673 0 2 -1.050000 80.781868 10.477454 8.286701
8674 0 2 -1.050000 79.227242 1.975879 11.036669
8675 0 2 -1.050000 81.804517 1.892895 9.936215
8676 0 2 -1.050000 99.027651 6.817571 12.550670
8677 0 2 -1.050000 78.497014 11.066928 9.800702
8678 0 2 -1.050000 81.365885 12.667948 9.936215
8679 0 2 -1.050000 80.880168 3.659884 12.550670
8680 0 2 -1.050000 75.074691 5.216550 9.800702
8681 0 2 -1.050000 97.035219 6.900555 9.936215
8682 0 2 -1.050000 80.297803 10.983943 12.550670
8683 0 2 -1.050000 81.852428 5.177920 9.800702
8684 0 2 -1.050000 79.351150 8.837804 6.466629
8685 0 2 -1.050000 77.674269 9.046695 12.856741
8686 0 2 -1.050000 74.366767 3.913128 12.721229
8687 0 2 -1.050000 76.578101 7.070815 6.466629
8688 0 2 -1.050000 77.235637 5.514149 12.856741
8689 0 2 -1.050000 83.335187 5.216550 12.721229
8690 0 2 -1.050000 79.494882 5.552779 6.466629
8691 0 2 -1.050000 80.514228 6.900555 12.856741
8692 0 2 -1.050000 77.722180 12.331719 12.721229
8693 0 1 1.575000 90.865455 14.307599 7.498159
8694 0 1 1.575000 88.800331 3.576900 13.339212
8695 0 1 1.575000 94.995703 14.307599 13.339212
8696 0 1 1.575000 88.800331 10.730699 13.339212
8697 0 1 1.575000 92.930579 10.730699 10.418686
8698 0 1 1.575000 86.735207 14.307599 10.418686
8699 0 1 1.575000 92.930579 3.576900 10.418686
8700 0 1 1.575000 90.726266 10.971782 7.301316
8701 0 1 1.575000 84.809272 14.066516 7.695003
8702 0 1 1.575000 93.069768 14.066516 10.615529
8703 0 1 1.575000 93.823952 1.547367 7.301316
8704 0 1 1.575000 94.102330 9.183332 7.695003
8705 0 1 1.575000 89.972082 2.029533 10.615529
8706 0 1 1.575000 88.046148 1.788450 7.301316
8707 0 1 1.575000 93.684762 5.365349 7.695003
8708 0 1 1.575000 89.554514 12.519149 10.615529
8709 0 1 1.575000 86.874396 10.489616 10.615529
8710 0 1 1.575000 92.791390 7.394882 10.221842
8711 0 1 1.575000 88.661142 0.241083 13.142369
8712 0 1 1.575000 91.004644 3.335817 7.695003
8713 0 1 1.575000 96.167454 12.760232 10.615529
8714 0 1 1.575000 95.889076 5.124266 10.221842
8715 0 1 1.575000 91.758828 12.278066 13.142369
8716 0 1 1.575000 87.906958 12.760232 7.695003
8717 0 1 1.575000 89.554514 5.365349 10.615529
8718 0 1 1.575000 83.915900 1.788450 10.221842
8719 0 1 1.575000 92.176396 1.788450 13.142369
8720 0 1 1.575000 93.684762 12.519149 7.695003
8721 0 2 -1.050000 89.989016 12.623594 8.529689
8722 0 2 -1.050000 87.535649 5.260904 13.821683
8723 0 2 -1.050000 95.094003 0.336229 11.207228
8724 0 2 -1.050000 90.843152 10.394470 13.957195
8725 0 2 -1.050000 92.762065 0.082984 8.529689
8726 0 2 -1.050000 87.974281 8.793450 13.821683
8727 0 2 -1.050000 88.459999 3.493916 11.207228
8728 0 2 -1.050000 94.265475 1.937249 13.957195
8729 0 2 -1.050000 89.845284 1.601020 8.529689
8730 0 2 -1.050000 97.086434 0.253244 13.821683
8731 0 2 -1.050000 89.042364 10.477454 11.207228
8732 0 2 -1.050000 87.487738 1.975879 13.957195
8733 0 2 -1.050000 91.665897 12.414703 10.901157
8734 0 2 -1.050000 86.833507 0.336229 8.286701
8735 0 2 -1.050000 94.973400 3.240671 11.036669
8736 0 2 -1.050000 92.104529 1.639651 10.901157
8737 0 2 -1.050000 92.590247 10.647715 8.286701
8738 0 2 -1.050000 86.004979 1.937249 11.036669
8739 0 2 -1.050000 88.825939 0.253244 10.901157
8740 0 2 -1.050000 93.172612 3.323655 8.286701
8741 0 2 -1.050000 91.617986 9.129679 11.036669
8742 0 2 -1.050000 94.195261 9.046695 9.936215
8743 0 2 -1.050000 86.636907 13.971370 12.550670
8744 0 2 -1.050000 90.887758 3.913128 9.800702
8745 0 2 -1.050000 93.756629 5.514149 9.936215
8746 0 2 -1.050000 93.270911 10.813683 12.550670
8747 0 2 -1.050000 87.465435 12.370350 9.800702
8748 0 2 -1.050000 84.644476 14.054354 9.936215
8749 0 2 -1.050000 92.688546 3.830144 12.550670
8750 0 2 -1.050000 94.243172 12.331719 9.800702
8751 0 2 -1.050000 91.741894 1.684004 6.466629
8752 0 2 -1.050000 90.065013 1.892895 12.856741
8753 0 2 -1.050000 86.757510 11.066928 12.721229
8754 0 2 -1.050000 88.968845 14.224615 6.466629
8755 0 2 -1.050000 89.626381 12.667948 12.856741
8756 0 2 -1.050000 95.725931 12.370350 12.721229
8757 0 2 -1.050000 91.885626 12.706578 6.466629
8758 0 2 -1.050000 92.904971 14.054354 12.856741
8759 0 2 -1.050000 90.112924 5.177920 12.721229
8760 0 1 1.575000 82.604959 14.307599 13.339212
8761 0 1 1.575000 80.539835 3.576900 1.657107
8762 0 1 1.575000 86.735207 14.307599 1.657107
8763 0 1 1.575000 80.539835 10.730699 1.657107
8764 0 1 1.575000 82.604959 14.307599 4.577633
8765 0 1 1.575000 82.465770 10.971782 13.142369
8766 0 1 1.575000 76.548777 14.066516 13.536055
8767 0 1 1.575000 82.465770 10.971782 4.380790
8768 0 1 1.575000 85.563456 1.547367 13.142369
8769 0 1 1.575000 85.841834 9.183332 13.536055
8770 0 1 1.575000 85.563456 1.547367 4.380790
8771 0 1 1.575000 79.785652 1.788450 13.142369
8772 0 1 1.575000 85.424266 5.365349 13.536055
8773 0 1 1.575000 79.785652 1.788450 4.380790
8774 0 1 1.575000 80.400646 0.241083 1.460263
8775 0 1 1.575000 82.744148 3.335817 13.536055
8776 0 1 1.575000 83.498332 12.278066 1.460263
8777 0 1 1.575000 79.646462 12.760232 13.536055
8778 0 1 1.575000 83.915900 1.788450 1.460263
8779 0 1 1.575000 85.424266 12.519149 13.536055
8780 0 2 -1.050000 81.728520 12.623594 14.370742
8781 0 2 -1.050000 79.275153 5.260904 2.139578
8782 0 2 -1.050000 82.582656 10.394470 2.275090
8783 0 2 -1.050000 84.501569 0.082984 14.370742
8784 0 2 -1.050000 79.713786 8.793450 2.139578
8785 0 2 -1.050000 86.004979 1.937249 2.275090
8786 0 2 -1.050000 81.584788 1.601020 14.370742
8787 0 2 -1.050000 88.825939 0.253244 2.139578
8788 0 2 -1.050000 79.227242 1.975879 2.275090
8789 0 2 -1.050000 81.728520 12.623594 5.609163
8790 0 2 -1.050000 78.573011 0.336229 14.127754
8791 0 2 -1.050000 84.501569 0.082984 5.609163
8792 0 2 -1.050000 84.329751 10.647715 14.127754
8793 0 2 -1.050000 81.584788 1.601020 5.609163
8794 0 2 -1.050000 84.912116 3.323655 14.127754
8795 0 2 -1.050000 83.481398 1.684004 3.546103
8796 0 2 -1.050000 78.376411 13.971370 0.868565
8797 0 2 -1.050000 80.708349 14.224615 3.546103
8798 0 2 -1.050000 85.010416 10.813683 0.868565
8799 0 2 -1.050000 83.625130 12.706578 3.546103
8800 0 2 -1.050000 84.428051 3.830144 0.868565
8801 0 2 -1.050000 83.481398 1.684004 12.307682
8802 0 2 -1.050000 81.804517 1.892895 1.174636
8803 0 2 -1.050000 86.636907 13.971370 3.789091
8804 0 2 -1.050000 78.497014 11.066928 1.039123
8805 0 2 -1.050000 80.708349 14.224615 12.307682
8806 0 2 -1.050000 81.365885 12.667948 1.174636
8807 0 2 -1.050000 80.880168 3.659884 3.789091
8808 0 2 -1.050000 87.465435 12.370350 1.039123
8809 0 2 -1.050000 83.625130 12.706578 12.307682
8810 0 2 -1.050000 84.644476 14.054354 1.174636
8811 0 2 -1.050000 80.297803 10.983943 3.789091
8812 0 2 -1.050000 81.852428 5.177920 1.039123
8813 0 1 1.575000 94.995703 7.153799 13.339212
8814 0 1 1.575000 92.930579 10.730699 1.657107
8815 0 1 1.575000 99.125951 7.153799 1.657107
8816 0 1 1.575000 92.930579 3.576900 1.657107
8817 0 1 1.575000 94.995703 7.153799 4.577633
8818 0 1 1.575000 94.856514 3.817983 13.142369
8819 0 1 1.575000 88.939520 6.912716 13.536055
8820 0 1 1.575000 94.856514 3.817983 4.380790
8821 0 1 1.575000 97.954200 8.701166 13.142369
8822 0 1 1.575000 98.232578 2.029533 13.536055
8823 0 1 1.575000 97.954200 8.701166 4.380790
8824 0 1 1.575000 92.176396 8.942249 13.142369
8825 0 1 1.575000 97.815010 12.519149 13.536055
8826 0 1 1.575000 92.176396 8.942249 4.380790
8827 0 1 1.575000 92.791390 7.394882 1.460263
8828 0 1 1.575000 95.134892 10.489616 13.536055
8829 0 1 1.575000 95.889076 5.124266 1.460263
8830 0 1 1.575000 92.037206 5.606433 13.536055
8831 0 1 1.575000 96.306644 8.942249 1.460263
8832 0 1 1.575000 97.815010 5.365349 13.536055
8833 0 2 -1.050000 94.119264 5.469795 14.370742
8834 0 2 -1.050000 91.665897 12.414703 2.139578
8835 0 2 -1.050000 94.973400 3.240671 2.275090
8836 0 2 -1.050000 96.892313 7.236783 14.370742
8837 0 2 -1.050000 92.104529 1.639651 2.139578
8838 0 2 -1.050000 98.395723 9.091048 2.275090
8839 0 2 -1.050000 93.975532 8.754820 14.370742
8840 0 2 -1.050000 76.435195 7.407044 2.139578
8841 0 2 -1.050000 91.617986 9.129679 2.275090
8842 0 2 -1.050000 94.119264 5.469795 5.609163
8843 0 2 -1.050000 90.963755 7.490028 14.127754
8844 0 2 -1.050000 96.892313 7.236783 5.609163
8845 0 2 -1.050000 96.720495 3.493916 14.127754
8846 0 2 -1.050000 93.975532 8.754820 5.609163
8847 0 2 -1.050000 97.302859 10.477454 14.127754
8848 0 2 -1.050000 95.872142 8.837804 3.546103
8849 0 2 -1.050000 90.767155 6.817571 0.868565
8850 0 2 -1.050000 93.099093 7.070815 3.546103
8851 0 2 -1.050000 97.401159 3.659884 0.868565
8852 0 2 -1.050000 96.015874 5.552779 3.546103
8853 0 2 -1.050000 96.818794 10.983943 0.868565
8854 0 2 -1.050000 95.872142 8.837804 12.307682
8855 0 2 -1.050000 94.195261 9.046695 1.174636
8856 0 2 -1.050000 99.027651 6.817571 3.789091
8857 0 2 -1.050000 90.887758 3.913128 1.039123
8858 0 2 -1.050000 93.099093 7.070815 12.307682
8859 0 2 -1.050000 93.756629 5.514149 1.174636
8860 0 2 -1.050000 93.270911 10.813683 3.789091
8861 0 2 -1.050000 75.074691 5.216550 1.039123
8862 0 2 -1.050000 96.015874 5.552779 12.307682
8863 0 2 -1.050000 97.035219 6.900555 1.174636
8864 0 2 -1.050000 92.688546 3.830144 3.789091
8865 0 2 -1.050000 94.243172 12.331719 1.039123
8866 0 1 1.575000 74.344463 14.307599 19.180265
8867 0 1 1.575000 97.060827 3.576900 25.021317
8868 0 1 1.575000 97.060827 10.730699 25.021317
8869 0 1 1.575000 76.409587 10.730699 22.100791
8870 0 1 1.575000 76.409587 3.576900 22.100791
8871 0 1 1.575000 98.986762 10.971782 18.983421
8872 0 1 1.575000 93.069768 14.066516 19.377108
8873 0 1 1.575000 76.548777 14.066516 22.297634
8874 0 1 1.575000 77.302960 1.547367 18.983421
8875 0 1 1.575000 77.581339 9.183332 19.377108
8876 0 1 1.575000 98.232578 2.029533 22.297634
8877 0 1 1.575000 77.302960 1.547367 27.745000
8878 0 1 1.575000 96.306644 1.788450 18.983421
8879 0 1 1.575000 77.163770 5.365349 19.377108
8880 0 1 1.575000 97.815010 12.519149 22.297634
8881 0 1 1.575000 96.306644 1.788450 27.745000
8882 0 1 1.575000 95.134892 10.489616 22.297634
8883 0 1 1.575000 76.270398 7.394882 21.903948
8884 0 1 1.575000 96.921638 0.241083 24.824474
8885 0 1 1.575000 74.483653 3.335817 19.377108
8886 0 1 1.575000 79.646462 12.760232 22.297634
8887 0 1 1.575000 79.368084 5.124266 21.903948
8888 0 1 1.575000 96.167454 12.760232 19.377108
8889 0 1 1.575000 97.815010 5.365349 22.297634
8890 0 1 1.575000 92.176396 1.788450 21.903948
8891 0 1 1.575000 75.655404 1.788450 24.824474
8892 0 1 1.575000 77.163770 12.519149 19.377108
8893 0 2 -1.050000 98.249512 12.623594 20.211795
8894 0 2 -1.050000 95.796145 5.260904 25.503788
8895 0 2 -1.050000 78.573011 0.336229 22.889333
8896 0 3 -0.950000 99.103648 10.394470 25.639301
8897 0 2 -1.050000 76.241073 0.082984 20.211795
8898 0 2 -1.050000 96.234777 8.793450 25.503788
8899 0 2 -1.050000 96.720495 3.493916 22.889333
8900 0 2 -1.050000 77.744483 1.937249 25.639301
8901 0 2 -1.050000 98.105780 1.601020 20.211795
8902 0 2 -1.050000 80.565443 0.253244 25.503788
8903 0 2 -1.050000 97.302859 10.477454 22.889333
8904 0 2 -1.050000 95.748234 1.975879 25.639301
8905 0 2 -1.050000 75.144905 12.414703 22.583262
8906 0 2 -1.050000 95.094003 0.336229 19.968807
8907 0 2 -1.050000 78.452408 3.240671 22.718774
8908 0 3 -0.950000 76.241073 0.082984 28.973374
8909 0 2 -1.050000 75.583538 1.639651 22.583262
8910 0 2 -1.050000 76.069255 10.647715 19.968807
8911 0 2 -1.050000 94.265475 1.937249 22.718774
8912 0 3 -0.950000 98.105780 1.601020 28.973374
8913 0 2 -1.050000 97.086434 0.253244 22.583262
8914 0 2 -1.050000 76.651620 3.323655 19.968807
8915 0 2 -1.050000 75.096994 9.129679 22.718774
8916 0 2 -1.050000 75.220902 1.684004 26.910314
8917 0 2 -1.050000 77.674269 9.046695 21.618320
8918 0 2 -1.050000 74.366767 3.913128 21.482808
8919 0 2 -1.050000 77.235637 5.514149 21.618320
8920 0 2 -1.050000 76.749920 10.813683 24.232775
8921 0 3 -0.950000 95.725931 12.370350 21.482808
8922 0 2 -1.050000 92.904971 14.054354 21.618320
8923 0 2 -1.050000 76.167555 3.830144 24.232775
8924 0 2 -1.050000 77.722180 12.331719 21.482808
8925 0 2 -1.050000 75.220902 1.684004 18.148735
8926 0 2 -1.050000 98.325509 1.892895 24.538846
8927 0 2 -1.050000 95.018006 11.066928 24.403334
8928 0 2 -1.050000 97.229341 14.224615 18.148735
8929 0 2 -1.050000 97.401159 3.659884 27.153302
8930 0 2 -1.050000 75.364634 12.706578 18.148735
8931 0 2 -1.050000 98.373420 5.177920 24.403334
8932 0 1 1.575000 86.735207 7.153799 19.180265
8933 0 1 1.575000 84.670083 10.730699 25.021317
8934 0 1 1.575000 90.865455 7.153799 25.021317
8935 0 1 1.575000 84.670083 3.576900 25.021317
8936 0 1 1.575000 86.735207 7.153799 27.941844
8937 0 1 1.575000 88.800331 3.576900 22.100791
8938 0 1 1.575000 82.604959 7.153799 22.100791
8939 0 1 1.575000 88.800331 10.730699 22.100791
8940 0 1 1.575000 86.596018 3.817983 18.983421
8941 0 1 1.575000 80.679024 6.912716 19.377108
8942 0 1 1.575000 88.939520 6.912716 22.297634
8943 0 1 1.575000 86.596018 3.817983 27.745000
8944 0 1 1.575000 89.693704 8.701166 18.983421
8945 0 1 1.575000 89.972082 2.029533 19.377108
8946 0 1 1.575000 85.841834 9.183332 22.297634
8947 0 1 1.575000 83.915900 8.942249 18.983421
8948 0 1 1.575000 89.554514 12.519149 19.377108
8949 0 1 1.575000 85.424266 5.365349 22.297634
8950 0 1 1.575000 82.744148 3.335817 22.297634
8951 0 1 1.575000 88.661142 0.241083 21.903948
8952 0 1 1.575000 84.530894 7.394882 24.824474
8953 0 1 1.575000 86.874396 10.489616 19.377108
8954 0 1 1.575000 92.037206 5.606433 22.297634
8955 0 1 1.575000 91.758828 12.278066 21.903948
8956 0 1 1.575000 87.628580 5.124266 24.824474
8957 0 1 1.575000 83.776710 5.606433 19.377108
8958 0 1 1.575000 85.424266 12.519149 22.297634
8959 0 1 1.575000 79.785652 8.942249 21.903948
8960 0 1 1.575000 88.046148 8.942249 24.824474
8961 0 1 1.575000 89.554514 5.365349 19.377108
8962 0 2 -1.050000 85.858768 5.469795 20.211795
8963 0 2 -1.050000 90.963755 7.490028 22.889333
8964 0 2 -1.050000 86.712904 3.240671 25.639301
8965 0 2 -1.050000 88.631817 7.236783 20.211795
8966 0 2 -1.050000 83.844033 1.639651 25.503788
8967 0 2 -1.050000 84.329751 10.647715 22.889333
8968 0 2 -1.050000 90.135227 9.091048 25.639301
8969 0 2 -1.050000 85.715036 8.754820 20.211795
8970 0 2 -1.050000 92.956187 7.407044 25.503788
8971 0 2 -1.050000 84.912116 3.323655 22.889333
8972 0 3 -0.950000 83.357490 9.129679 25.639301
8973 0 3 -0.950000 85.858768 5.469795 28.973374
8974 0 2 -1.050000 87.535649 5.260904 22.583262
8975 0 2 -1.050000 82.703259 7.490028 19.968807
8976 0 2 -1.050000 90.843152 10.394470 22.718774
8977 0 3 -0.950000 88.631817 7.236783 28.973374
8978 0 2 -1.050000 87.974281 8.793450 22.583262
8979 0 2 -1.050000 88.459999 3.493916 19.968807
8980 0 2 -1.050000 81.874731 9.091048 22.718774
8981 0 2 -1.050000 84.695691 7.407044 22.583262
8982 0 2 -1.050000 89.042364 10.477454 19.968807
8983 0 2 -1.050000 87.487738 1.975879 22.718774
8984 0 2 -1.050000 90.065013 1.892895 21.618320
8985 0 2 -1.050000 82.506659 6.817571 24.232775
8986 0 2 -1.050000 86.757510 11.066928 21.482808
8987 0 2 -1.050000 84.838597 7.070815 26.910314
8988 0 2 -1.050000 89.626381 12.667948 21.618320
8989 0 2 -1.050000 89.140663 3.659884 24.232775
8990 0 2 -1.050000 83.335187 5.216550 21.482808
8991 0 2 -1.050000 87.755378 5.552779 26.910314
8992 0 2 -1.050000 80.514228 6.900555 21.618320
8993 0 2 -1.050000 88.558298 10.983943 24.232775
8994 0 2 -1.050000 90.112924 5.177920 21.482808
8995 0 2 -1.050000 87.611646 8.837804 18.148735
8996 0 2 -1.050000 85.934765 9.046695 24.538846
8997 0 2 -1.050000 90.767155 6.817571 27.153302
8998 0 2 -1.050000 82.627262 3.913128 24.403334
8999 0 2 -1.050000 84.838597 7.070815 18.148735
9000 0 2 -1.050000 85.496133 5.514149 24.538846
9001 0 2 -1.050000 91.595683 5.216550 24.403334
9002 0 2 -1.050000 87.755378 5.552779 18.148735
9003 0 2 -1.050000 88.774723 6.900555 24.538846
9004 0 2 -1.050000 84.428051 3.830144 27.153302
9005 0 1 1.575000 78.474711 7.153799 25.021317
9006 0 1 1.575000 78.474711 7.153799 16.259738
9007 0 1 1.575000 80.539835 3.576900 27.941844
9008 0 1 1.575000 99.125951 7.153799 27.941844
9009 0 1 1.575000 78.335522 3.817983 24.824474
9010 0 1 1.575000 97.200016 6.912716 25.218161
9011 0 1 1.575000 80.679024 6.912716 28.138687
9012 0 1 1.575000 78.335522 3.817983 16.062895
9013 0 1 1.575000 81.433208 8.701166 24.824474
9014 0 1 1.575000 81.711586 2.029533 25.218161
9015 0 1 1.575000 81.433208 8.701166 16.062895
9016 0 1 1.575000 75.655404 8.942249 24.824474
9017 0 1 1.575000 77.163770 5.365349 28.138687
9018 0 1 1.575000 75.655404 8.942249 16.062895
9019 0 1 1.575000 74.483653 3.335817 28.138687
9020 0 1 1.575000 80.400646 0.241083 27.745000
9021 0 1 1.575000 78.613900 10.489616 25.218161
9022 0 1 1.575000 83.776710 5.606433 28.138687
9023 0 1 1.575000 75.516215 5.606433 25.218161
9024 0 1 1.575000 81.294018 5.365349 25.218161
9025 0 2 -1.050000 77.598273 5.469795 26.052847
9026 0 3 -0.950000 82.703259 7.490028 28.730386
9027 0 2 -1.050000 80.371321 7.236783 26.052847
9028 0 3 -0.950000 77.454540 8.754820 26.052847
9029 0 3 -0.950000 76.651620 3.323655 28.730386
9030 0 2 -1.050000 77.598273 5.469795 17.291268
9031 0 2 -1.050000 79.275153 5.260904 28.424315
9032 0 2 -1.050000 74.442763 7.490028 25.809859
9033 0 2 -1.050000 80.371321 7.236783 17.291268
9034 0 2 -1.050000 80.199503 3.493916 25.809859
9035 0 2 -1.050000 77.454540 8.754820 17.291268
9036 0 3 -0.950000 76.435195 7.407044 28.424315
9037 0 3 -0.950000 80.781868 10.477454 25.809859
9038 0 3 -0.950000 79.227242 1.975879 28.559827
9039 0 2 -1.050000 79.351150 8.837804 15.228208
9040 0 2 -1.050000 81.804517 1.892895 27.459373
9041 0 2 -1.050000 76.578101 7.070815 15.228208
9042 0 2 -1.050000 75.074691 5.216550 27.323860
9043 0 2 -1.050000 79.494882 5.552779 15.228208
9044 0 3 -0.950000 97.035219 6.900555 27.459373
9045 0 2 -1.050000 81.852428 5.177920 27.323860
9046 0 2 -1.050000 79.351150 8.837804 23.989787
9047 0 2 -1.050000 82.506659 6.817571 15.471196
9048 0 2 -1.050000 76.578101 7.070815 23.989787
9049 0 2 -1.050000 76.749920 10.813683 15.471196
9050 0 2 -1.050000 79.494882 5.552779 23.989787
9051 0 2 -1.050000 76.167555 3.830144 15.471196
9052 0 1 1.575000 90.865455 14.307599 16.259738
9053 0 1 1.575000 92.930579 3.576900 27.941844
9054 0 1 1.575000 90.726266 10.971782 24.824474
9055 0 1 1.575000 90.726266 10.971782 16.062895
9056 0 1 1.575000 93.823952 1.547367 24.824474
9057 0 1 1.575000 94.102330 9.183332 25.218161
9058 0 1 1.575000 89.972082 2.029533 28.138687
9059 0 1 1.575000 93.823952 1.547367 16.062895
9060 0 1 1.575000 88.046148 1.788450 24.824474
9061 0 1 1.575000 93.684762 5.365349 25.218161
9062 0 1 1.575000 88.046148 1.788450 16.062895
9063 0 1 1.575000 92.791390 7.394882 27.745000
9064 0 1 1.575000 91.004644 3.335817 25.218161
9065 0 1 1.575000 95.889076 5.124266 27.745000
9066 0 1 1.575000 89.554514 5.365349 28.138687
9067 0 1 1.575000 83.915900 1.788450 27.745000
9068 0 3 -0.950000 95.094003 0.336229 28.730386
9069 0 2 -1.050000 92.762065 0.082984 26.052847
9070 0 3 -0.950000 88.459999 3.493916 28.730386
9071 0 2 -1.050000 89.845284 1.601020 26.052847
9072 0 2 -1.050000 89.989016 12.623594 17.291268
9073 0 2 -1.050000 86.833507 0.336229 25.809859
9074 0 3 -0.950000 94.973400 3.240671 28.559827
9075 0 2 -1.050000 92.762065 0.082984 17.291268
9076 0 2 -1.050000 92.104529 1.639651 28.424315
9077 0 3 -0.950000 92.590247 10.647715 25.809859
9078 0 3 -0.950000 86.004979 1.937249 28.559827
9079 0 2 -1.050000 89.845284 1.601020 17.291268
9080 0 2 -1.050000 88.825939 0.253244 28.424315
9081 0 2 -1.050000 93.172612 3.323655 25.809859
9082 0 2 -1.050000 91.741894 1.684004 15.228208
9083 0 2 -1.050000 90.887758 3.913128 27.323860
9084 0 2 -1.050000 88.968845 14.224615 15.228208
9085 0 2 -1.050000 93.756629 5.514149 27.459373
9086 0 2 -1.050000 91.885626 12.706578 15.228208
9087 0 2 -1.050000 91.741894 1.684004 23.989787
9088 0 2 -1.050000 94.897403 13.971370 15.471196
9089 0 2 -1.050000 89.140663 3.659884 15.471196
9090 0 2 -1.050000 88.558298 10.983943 15.471196
9091 0 1 1.575000 80.539835 3.576900 19.180265
9092 0 1 1.575000 86.735207 14.307599 19.180265
9093 0 1 1.575000 80.539835 10.730699 19.180265
9094 0 1 1.575000 84.670083 10.730699 16.259738
9095 0 1 1.575000 78.474711 14.307599 16.259738
9096 0 1 1.575000 84.670083 3.576900 16.259738
9097 0 1 1.575000 84.809272 14.066516 16.456582
9098 0 1 1.575000 82.465770 10.971782 21.903948
9099 0 1 1.575000 81.711586 2.029533 16.456582
9100 0 1 1.575000 85.563456 1.547367 21.903948
9101 0 1 1.575000 81.294018 12.519149 16.456582
9102 0 1 1.575000 79.785652 1.788450 21.903948
9103 0 1 1.575000 78.613900 10.489616 16.456582
9104 0 1 1.575000 84.530894 7.394882 16.062895
9105 0 1 1.575000 80.400646 0.241083 18.983421
9106 0 1 1.575000 87.906958 12.760232 16.456582
9107 0 1 1.575000 87.628580 5.124266 16.062895
9108 0 1 1.575000 83.498332 12.278066 18.983421
9109 0 1 1.575000 81.294018 5.365349 16.456582
9110 0 1 1.575000 75.655404 1.788450 16.062895
9111 0 1 1.575000 83.915900 1.788450 18.983421
9112 0 2 -1.050000 79.275153 5.260904 19.662736
9113 0 2 -1.050000 86.833507 0.336229 17.048280
9114 0 2 -1.050000 82.582656 10.394470 19.798248
9115 0 2 -1.050000 79.713786 8.793450 19.662736
9116 0 2 -1.050000 80.199503 3.493916 17.048280
9117 0 2 -1.050000 86.004979 1.937249 19.798248
9118 0 2 -1.050000 88.825939 0.253244 19.662736
9119 0 2 -1.050000 80.781868 10.477454 17.048280
9120 0 2 -1.050000 79.227242 1.975879 19.798248
9121 0 3 -0.950000 81.728520 12.623594 23.132321
9122 0 2 -1.050000 83.405401 12.414703 16.742209
9123 0 2 -1.050000 86.712904 3.240671 16.877722
9124 0 2 -1.050000 84.501569 0.082984 23.132321
9125 0 2 -1.050000 83.844033 1.639651 16.742209
9126 0 2 -1.050000 77.744483 1.937249 16.877722
9127 0 2 -1.050000 81.584788 1.601020 23.132321
9128 0 2 -1.050000 80.565443 0.253244 16.742209
9129 0 2 -1.050000 83.357490 9.129679 16.877722
9130 0 2 -1.050000 83.481398 1.684004 21.069261
9131 0 2 -1.050000 85.934765 9.046695 15.777267
9132 0 2 -1.050000 78.376411 13.971370 18.391723
9133 0 2 -1.050000 82.627262 3.913128 15.641755
9134 0 2 -1.050000 85.496133 5.514149 15.777267
9135 0 2 -1.050000 85.010416 10.813683 18.391723
9136 0 2 -1.050000 79.204939 12.370350 15.641755
9137 0 2 -1.050000 83.625130 12.706578 21.069261
9138 0 2 -1.050000 76.383980 14.054354 15.777267
9139 0 2 -1.050000 84.428051 3.830144 18.391723
9140 0 2 -1.050000 85.982676 12.331719 15.641755
9141 0 2 -1.050000 81.804517 1.892895 18.697794
9142 0 3 -0.950000 86.636907 13.971370 21.312249
9143 0 2 -1.050000 78.497014 11.066928 18.562281
9144 0 2 -1.050000 81.365885 12.667948 18.697794
9145 0 2 -1.050000 80.880168 3.659884 21.312249
9146 0 2 -1.050000 87.465435 12.370350 18.562281
9147 0 2 -1.050000 84.644476 14.054354 18.697794
9148 0 2 -1.050000 80.297803 10.983943 21.312249
9149 0 2 -1.050000 81.852428 5.177920 18.562281
9150 0 1 1.575000 92.930579 10.730699 19.180265
9151 0 1 1.575000 99.125951 7.153799 19.180265
9152 0 1 1.575000 92.930579 3.576900 19.180265
9153 0 1 1.575000 94.995703 7.153799 22.100791
9154 0 1 1.575000 97.060827 3.576900 16.259738
9155 0 1 1.575000 90.865455 7.153799 16.259738
9156 0 1 1.575000 97.060827 10.730699 16.259738
9157 0 1 1.575000 97.200016 6.912716 16.456582
9158 0 1 1.575000 94.856514 3.817983 21.903948
9159 0 1 1.575000 94.102330 9.183332 16.456582
9160 0 1 1.575000 97.954200 8.701166 21.903948
9161 0 1 1.575000 93.684762 5.365349 16.456582
9162 0 1 1.575000 92.176396 8.942249 21.903948
9163 0 1 1.575000 91.004644 3.335817 16.456582
9164 0 1 1.575000 96.921638 0.241083 16.062895
9165 0 1 1.575000 92.791390 7.394882 18.983421
9166 0 1 1.575000 75.516215 5.606433 16.456582
9167 0 1 1.575000 75.237836 12.278066 16.062895
9168 0 1 1.575000 95.889076 5.124266 18.983421
9169 0 1 1.575000 93.684762 12.519149 16.456582
9170 0 1 1.575000 88.046148 8.942249 16.062895
9171 0 1 1.575000 96.306644 8.942249 18.983421
9172 0 2 -1.050000 91.665897 12.414703 19.662736
9173 0 2 -1.050000 74.442763 7.490028 17.048280
9174 0 2 -1.050000 94.973400 3.240671 19.798248
9175 0 2 -1.050000 92.104529 1.639651 19.662736
9176 0 2 -1.050000 92.590247 10.647715 17.048280
9177 0 2 -1.050000 98.395723 9.091048 19.798248
9178 0 2 -1.050000 76.435195 7.407044 19.662736
9179 0 2 -1.050000 93.172612 3.323655 17.048280
9180 0 2 -1.050000 91.617986 9.129679 19.798248
9181 0 2 -1.050000 94.119264 5.469795 23.132321
9182 0 2 -1.050000 95.796145 5.260904 16.742209
9183 0 2 -1.050000 99.103648 10.394470 16.877722
9184 0 2 -1.050000 96.892313 7.236783 23.132321
9185 0 2 -1.050000 96.234777 8.793450 16.742209
9186 0 2 -1.050000 90.135227 9.091048 16.877722
9187 0 2 -1.050000 93.975532 8.754820 23.132321
9188 0 2 -1.050000 92.956187 7.407044 16.742209
9189 0 2 -1.050000 95.748234 1.975879 16.877722
9190 0 2 -1.050000 95.872142 8.837804 21.069261
9191 0 2 -1.050000 98.325509 1.892895 15.777267
9192 0 2 -1.050000 90.767155 6.817571 18.391723
9193 0 2 -1.050000 95.018006 11.066928 15.641755
9194 0 2 -1.050000 93.099093 7.070815 21.069261
9195 0 2 -1.050000 97.886877 12.667948 15.777267
9196 0 2 -1.050000 97.401159 3.659884 18.391723
9197 0 2 -1.050000 91.595683 5.216550 15.641755
9198 0 2 -1.050000 96.015874 5.552779 21.069261
9199 0 2 -1.050000 88.774723 6.900555 15.777267
9200 0 2 -1.050000 96.818794 10.983943 18.391723
9201 0 2 -1.050000 98.373420 5.177920 15.641755
9202 0 2 -1.050000 94.195261 9.046695 18.697794
9203 0 2 -1.050000 99.027651 6.817571 21.312249
9204 0 2 -1.050000 90.887758 3.913128 18.562281
9205 0 2 -1.050000 93.756629 5.514149 18.697794
9206 0 2 -1.050000 93.270911 10.813683 21.312249
9207 0 2 -1.050000 75.074691 5.216550 18.562281
9208 0 2 -1.050000 97.035219 6.900555 18.697794
9209 0 2 -1.050000 92.688546 3.830144 21.312249
9210 0 2 -1.050000 94.243172 12.331719 18.562281
9211 0 1 1.575000 99.125951 14.307599 1.657107
9212 0 1 1.575000 121.842315 3.576900 7.498159
9213 0 1 1.575000 103.256199 14.307599 7.498159
9214 0 1 1.575000 121.842315 10.730699 7.498159
9215 0 1 1.575000 0.000000 14.307599 10.418686
9216 0 1 1.575000 101.191075 10.730699 4.577633
9217 0 1 1.575000 119.777191 14.307599 4.577633
9218 0 1 1.575000 101.191075 3.576900 4.577633
9219 0 1 1.575000 123.768249 10.971782 1.460263
9220 0 1 1.575000 117.851256 14.066516 1.853950
9221 0 1 1.575000 101.330264 14.066516 4.774476
9222 0 1 1.575000 123.768249 10.971782 10.221842
9223 0 1 1.575000 102.084448 1.547367 1.460263
9224 0 1 1.575000 102.362826 9.183332 1.853950
9225 0 1 1.575000 123.014066 2.029533 4.774476
9226 0 1 1.575000 102.084448 1.547367 10.221842
9227 0 1 1.575000 121.088131 1.788450 1.460263
9228 0 1 1.575000 101.945258 5.365349 1.853950
9229 0 1 1.575000 122.596498 12.519149 4.774476
9230 0 1 1.575000 121.088131 1.788450 10.221842
9231 0 1 1.575000 119.916380 10.489616 4.774476
9232 0 1 1.575000 101.051886 7.394882 4.380790
9233 0 1 1.575000 121.703125 0.241083 7.301316
9234 0 1 1.575000 99.265140 3.335817 1.853950
9235 0 1 1.575000 104.427950 12.760232 4.774476
9236 0 1 1.575000 104.149571 5.124266 4.380790
9237 0 1 1.575000 100.019324 12.278066 7.301316
9238 0 1 1.575000 120.948942 12.760232 1.853950
9239 0 1 1.575000 122.596498 5.365349 4.774476
9240 0 1 1.575000 116.957883 1.788450 4.380790
9241 0 1 1.575000 100.436892 1.788450 7.301316
9242 0 1 1.575000 101.945258 12.519149 1.853950
9243 0 2 -1.050000 123.031000 12.623594 2.688637
9244 0 2 -1.050000 120.577633 5.260904 7.980630
9245 0 2 -1.050000 103.354499 0.336229 5.366175
9246 0 2 -1.050000 123.885135 10.394470 8.116143
9247 0 2 -1.050000 101.022561 0.082984 2.688637
9248 0 2 -1.050000 121.016265 8.793450 7.980630
9249 0 2 -1.050000 121.501982 3.493916 5.366175
9250 0 2 -1.050000 102.525971 1.937249 8.116143
9251 0 2 -1.050000 122.887267 1.601020 2.688637
9252 0 2 -1.050000 105.346930 0.253244 7.980630
9253 0 2 -1.050000 122.084347 10.477454 5.366175
9254 0 2 -1.050000 120.529722 1.975879 8.116143
9255 0 2 -1.050000 123.031000 12.623594 11.450216
9256 0 2 -1.050000 99.926393 12.414703 5.060104
9257 0 2 -1.050000 119.875491 0.336229 2.445649
9258 0 2 -1.050000 103.233896 3.240671 5.195616
9259 0 2 -1.050000 101.022561 0.082984 11.450216
9260 0 2 -1.050000 100.365025 1.639651 5.060104
9261 0 2 -1.050000 100.850742 10.647715 2.445649
9262 0 2 -1.050000 119.046963 1.937249 5.195616
9263 0 2 -1.050000 122.887267 1.601020 11.450216
9264 0 2 -1.050000 121.867922 0.253244 5.060104
9265 0 2 -1.050000 101.433107 3.323655 2.445649
9266 0 2 -1.050000 99.878482 9.129679 5.195616
9267 0 2 -1.050000 100.002390 1.684004 9.387156
9268 0 2 -1.050000 102.455757 9.046695 4.095162
9269 0 2 -1.050000 119.678891 13.971370 6.709617
9270 0 2 -1.050000 99.148254 3.913128 3.959650
9271 0 2 -1.050000 122.010829 14.224615 9.387156
9272 0 2 -1.050000 102.017124 5.514149 4.095162
9273 0 2 -1.050000 101.531407 10.813683 6.709617
9274 0 2 -1.050000 120.507419 12.370350 3.959650
9275 0 2 -1.050000 100.146122 12.706578 9.387156
9276 0 2 -1.050000 117.686459 14.054354 4.095162
9277 0 2 -1.050000 100.949042 3.830144 6.709617
9278 0 2 -1.050000 102.503668 12.331719 3.959650
9279 0 2 -1.050000 100.002390 1.684004 0.625577
9280 0 2 -1.050000 123.106997 1.892895 7.015688
9281 0 2 -1.050000 103.157899 13.971370 9.630144
9282 0 2 -1.050000 119.799494 11.066928 6.880176
9283 0 2 -1.050000 122.010829 14.224615 0.625577
9284 0 2 -1.050000 122.668364 12.667948 7.015688
9285 0 2 -1.050000 122.182647 3.659884 9.630144
9286 0 2 -1.050000 103.986427 12.370350 6.880176
9287 0 2 -1.050000 100.146122 12.706578 0.625577
9288 0 2 -1.050000 101.165467 14.054354 7.015688
9289 0 2 -1.050000 121.600282 10.983943 9.630144
9290 0 2 -1.050000 123.154907 5.177920 6.880176
9291 0 1 1.575000 111.516695 7.153799 1.657107
9292 0 1 1.575000 109.451571 10.730699 7.498159
9293 0 1 1.575000 115.646943 7.153799 7.498159
9294 0 1 1.575000 109.451571 3.576900 7.498159
9295 0 1 1.575000 111.516695 7.153799 10.418686
9296 0 1 1.575000 113.581819 3.576900 4.577633
9297 0 1 1.575000 107.386447 7.153799 4.577633
9298 0 1 1.575000 113.581819 10.730699 4.577633
9299 0 1 1.575000 111.377505 3.817983 1.460263
9300 0 1 1.575000 105.460512 6.912716 1.853950
9301 0 1 1.575000 113.721008 6.912716 4.774476
9302 0 1 1.575000 111.377505 3.817983 10.221842
9303 0 1 1.575000 114.475191 8.701166 1.460263
9304 0 1 1.575000 114.753570 2.029533 1.853950
9305 0 1 1.575000 110.623322 9.183332 4.774476
9306 0 1 1.575000 114.475191 8.701166 10.221842
9307 0 1 1.575000 108.697388 8.942249 1.460263
9308 0 1 1.575000 114.336002 12.519149 1.853950
9309 0 1 1.575000 110.205754 5.365349 4.774476
9310 0 1 1.575000 108.697388 8.942249 10.221842
9311 0 1 1.575000 107.525636 3.335817 4.774476
9312 0 1 1.575000 113.442629 0.241083 4.380790
9313 0 1 1.575000 109.312381 7.394882 7.301316
9314 0 1 1.575000 111.655884 10.489616 1.853950
9315 0 1 1.575000 116.818694 5.606433 4.774476
9316 0 1 1.575000 116.540315 12.278066 4.380790
9317 0 1 1.575000 112.410067 5.124266 7.301316
9318 0 1 1.575000 108.558198 5.606433 1.853950
9319 0 1 1.575000 110.205754 12.519149 4.774476
9320 0 1 1.575000 104.567140 8.942249 4.380790
9321 0 1 1.575000 112.827635 8.942249 7.301316
9322 0 1 1.575000 114.336002 5.365349 1.853950
9323 0 2 -1.050000 110.640256 5.469795 2.688637
9324 0 2 -1.050000 108.186889 12.414703 7.980630
9325 0 2 -1.050000 115.745243 7.490028 5.366175
9326 0 2 -1.050000 111.494391 3.240671 8.116143
9327 0 2 -1.050000 113.413305 7.236783 2.688637
9328 0 2 -1.050000 108.625521 1.639651 7.980630
9329 0 2 -1.050000 109.111238 10.647715 5.366175
9330 0 2 -1.050000 114.916715 9.091048 8.116143
9331 0 2 -1.050000 110.496524 8.754820 2.688637
9332 0 2 -1.050000 117.737674 7.407044 7.980630
9333 0 2 -1.050000 109.693603 3.323655 5.366175
9334 0 2 -1.050000 108.138978 9.129679 8.116143
9335 0 2 -1.050000 110.640256 5.469795 11.450216
9336 0 2 -1.050000 112.317137 5.260904 5.060104
9337 0 2 -1.050000 107.484747 7.490028 2.445649
9338 0 2 -1.050000 115.624639 10.394470 5.195616
9339 0 2 -1.050000 113.413305 7.236783 11.450216
9340 0 2 -1.050000 112.755769 8.793450 5.060104
9341 0 2 -1.050000 113.241486 3.493916 2.445649
9342 0 2 -1.050000 106.656219 9.091048 5.195616
9343 0 2 -1.050000 110.496524 8.754820 11.450216
9344 0 2 -1.050000 109.477178 7.407044 5.060104
9345 0 2 -1.050000 113.823851 10.477454 2.445649
9346 0 2 -1.050000 112.269226 1.975879 5.195616
9347 0 2 -1.050000 112.393133 8.837804 9.387156
9348 0 2 -1.050000 114.846501 1.892895 4.095162
9349 0 2 -1.050000 107.288147 6.817571 6.709617
9350 0 2 -1.050000 111.538998 11.066928 3.959650
9351 0 2 -1.050000 109.620085 7.070815 9.387156
9352 0 2 -1.050000 114.407868 12.667948 4.095162
9353 0 2 -1.050000 113.922151 3.659884 6.709617
9354 0 2 -1.050000 108.116675 5.216550 3.959650
9355 0 2 -1.050000 112.536866 5.552779 9.387156
9356 0 2 -1.050000 105.295715 6.900555 4.095162
9357 0 2 -1.050000 113.339786 10.983943 6.709617
9358 0 2 -1.050000 114.894412 5.177920 3.959650
9359 0 2 -1.050000 112.393133 8.837804 0.625577
9360 0 2 -1.050000 110.716253 9.046695 7.015688
9361 0 2 -1.050000 115.548643 6.817571 9.630144
9362 0 2 -1.050000 107.408750 3.913128 6.880176
9363 0 2 -1.050000 109.620085 7.070815 0.625577
9364 0 2 -1.050000 110.277620 5.514149 7.015688
9365 0 2 -1.050000 109.791903 10.813683 9.630144
9366 0 2 -1.050000 116.377171 5.216550 6.880176
9367 0 2 -1.050000 112.536866 5.552779 0.625577
9368 0 2 -1.050000 113.556211 6.900555 7.015688
9369 0 2 -1.050000 109.209538 3.830144 9.630144
9370 0 2 -1.050000 110.764164 12.331719 6.880176
9371 0 1 1.575000 103.256199 7.153799 7.498159
9372 0 1 1.575000 101.191075 10.730699 13.339212
9373 0 1 1.575000 107.386447 7.153799 13.339212
9374 0 1 1.575000 101.191075 3.576900 13.339212
9375 0 1 1.575000 105.321323 3.576900 10.418686
9376 0 1 1.575000 0.000000 7.153799 10.418686
9377 0 1 1.575000 105.321323 10.730699 10.418686
9378 0 1 1.575000 103.117010 3.817983 7.301316
9379 0 1 1.575000 121.981504 6.912716 7.695003
9380 0 1 1.575000 105.460512 6.912716 10.615529
9381 0 1 1.575000 106.214695 8.701166 7.301316
9382 0 1 1.575000 106.493074 2.029533 7.695003
9383 0 1 1.575000 102.362826 9.183332 10.615529
9384 0 1 1.575000 100.436892 8.942249 7.301316
9385 0 1 1.575000 106.075506 12.519149 7.695003
9386 0 1 1.575000 101.945258 5.365349 10.615529
9387 0 1 1.575000 99.265140 3.335817 10.615529
9388 0 1 1.575000 105.182133 0.241083 10.221842
9389 0 1 1.575000 101.051886 7.394882 13.142369
9390 0 1 1.575000 103.395388 10.489616 7.695003
9391 0 1 1.575000 108.558198 5.606433 10.615529
9392 0 1 1.575000 108.279819 12.278066 10.221842
9393 0 1 1.575000 104.149571 5.124266 13.142369
9394 0 1 1.575000 100.297702 5.606433 7.695003
9395 0 1 1.575000 101.945258 12.519149 10.615529
9396 0 1 1.575000 121.088131 8.942249 10.221842
9397 0 1 1.575000 104.567140 8.942249 13.142369
9398 0 1 1.575000 106.075506 5.365349 7.695003
9399 0 2 -1.050000 102.379760 5.469795 8.529689
9400 0 2 -1.050000 99.926393 12.414703 13.821683
9401 0 2 -1.050000 107.484747 7.490028 11.207228
9402 0 2 -1.050000 103.233896 3.240671 13.957195
9403 0 2 -1.050000 105.152809 7.236783 8.529689
9404 0 2 -1.050000 100.365025 1.639651 13.821683
9405 0 2 -1.050000 100.850742 10.647715 11.207228
9406 0 2 -1.050000 106.656219 9.091048 13.957195
9407 0 2 -1.050000 102.236028 8.754820 8.529689
9408 0 2 -1.050000 109.477178 7.407044 13.821683
9409 0 2 -1.050000 101.433107 3.323655 11.207228
9410 0 2 -1.050000 99.878482 9.129679 13.957195
9411 0 2 -1.050000 104.056641 5.260904 10.901157
9412 0 2 -1.050000 99.224251 7.490028 8.286701
9413 0 2 -1.050000 107.364143 10.394470 11.036669
9414 0 2 -1.050000 104.495273 8.793450 10.901157
9415 0 2 -1.050000 104.980990 3.493916 8.286701
9416 0 2 -1.050000 123.177211 9.091048 11.036669
9417 0 2 -1.050000 101.216682 7.407044 10.901157
9418 0 2 -1.050000 105.563355 10.477454 8.286701
9419 0 2 -1.050000 104.008730 1.975879 11.036669
9420 0 2 -1.050000 106.586005 1.892895 9.936215
9421 0 2 -1.050000 123.809139 6.817571 12.550670
9422 0 2 -1.050000 103.278502 11.066928 9.800702
9423 0 2 -1.050000 106.147372 12.667948 9.936215
9424 0 2 -1.050000 105.661655 3.659884 12.550670
9425 0 2 -1.050000 99.856179 5.216550 9.800702
9426 0 2 -1.050000 121.816707 6.900555 9.936215
9427 0 2 -1.050000 105.079290 10.983943 12.550670
9428 0 2 -1.050000 106.633916 5.177920 9.800702
9429 0 2 -1.050000 104.132637 8.837804 6.466629
9430 0 2 -1.050000 102.455757 9.046695 12.856741
9431 0 2 -1.050000 99.148254 3.913128 12.721229
9432 0 2 -1.050000 101.359589 7.070815 6.466629
9433 0 2 -1.050000 102.017124 5.514149 12.856741
9434 0 2 -1.050000 108.116675 5.216550 12.721229
9435 0 2 -1.050000 104.276370 5.552779 6.466629
9436 0 2 -1.050000 105.295715 6.900555 12.856741
9437 0 2 -1.050000 102.503668 12.331719 12.721229
9438 0 1 1.575000 115.646943 14.307599 7.498159
9439 0 1 1.575000 113.581819 3.576900 13.339212
9440 0 1 1.575000 119.777191 14.307599 13.339212
9441 0 1 1.575000 113.581819 10.730699 13.339212
9442 0 1 1.575000 117.712067 10.730699 10.418686
9443 0 1 1.575000 111.516695 14.307599 10.418686
9444 0 1 1.575000 117.712067 3.576900 10.418686
9445 0 1 1.575000 115.507753 10.971782 7.301316
9446 0 1 1.575000 109.590760 14.066516 7.695003
9447 0 1 1.575000 117.851256 14.066516 10.615529
9448 0 1 1.575000 118.605439 1.547367 7.301316
9449 0 1 1.575000 118.883818 9.183332 7.695003
9450 0 1 1.575000 114.753570 2.029533 10.615529
9451 0 1 1.575000 112.827635 1.788450 7.301316
9452 0 1 1.575000 118.466250 5.365349 7.695003
9453 0 1 1.575000 114.336002 12.519149 10.615529
9454 0 1 1.575000 111.655884 10.489616 10.615529
9455 0 1 1.575000 117.572877 7.394882 10.221842
9456 0 1 1.575000 113.442629 0.241083 13.142369
9457 0 1 1.575000 115.786132 3.335817 7.695003
9458 0 1 1.575000 120.948942 12.760232 10.615529
9459 0 1 1.575000 120.670563 5.124266 10.221842
9460 0 1 1.575000 116.540315 12.278066 13.142369
9461 0 1 1.575000 112.688446 12.760232 7.695003
9462 0 1 1.575000 114.336002 5.365349 10.615529
9463 0 1 1.575000 108.697388 1.788450 10.221842
9464 0 1 1.575000 116.957883 1.788450 13.142369
9465 0 1 1.575000 118.466250 12.519149 7.695003
9466 0 2 -1.050000 114.770504 12.623594 8.529689
9467 0 2 -1.050000 112.317137 5.260904 13.821683
9468 0 2 -1.050000 119.875491 0.336229 11.207228
9469 0 2 -1.050000 115.624639 10.394470 13.957195
9470 0 2 -1.050000 117.543553 0.082984 8.529689
9471 0 2 -1.050000 112.755769 8.793450 13.821683
9472 0 2 -1.050000 113.241486 3.493916 11.207228
9473 0 2 -1.050000 119.046963 1.937249 13.957195
9474 0 2 -1.050000 114.626771 1.601020 8.529689
9475 0 2 -1.050000 121.867922 0.253244 13.821683
9476 0 2 -1.050000 113.823851 10.477454 11.207228
9477 0 2 -1.050000 112.269226 1.975879 13.957195
9478 0 2 -1.050000 116.447385 12.414703 10.901157
9479 0 2 -1.050000 111.614995 0.336229 8.286701
9480 0 2 -1.050000 119.754887 3.240671 11.036669
9481 0 2 -1.050000 116.886017 1.639651 10.901157
9482 0 2 -1.050000 117.371734 10.647715 8.286701
9483 0 2 -1.050000 110.786467 1.937249 11.036669
9484 0 2 -1.050000 113.607426 0.253244 10.901157
9485 0 2 -1.050000 117.954099 3.323655 8.286701
9486 0 2 -1.050000 116.399474 9.129679 11.036669
9487 0 2 -1.050000 118.976749 9.046695 9.936215
9488 0 2 -1.050000 111.418395 13.971370 12.550670
9489 0 2 -1.050000 115.669246 3.913128 9.800702
9490 0 2 -1.050000 118.538116 5.514149 9.936215
9491 0 2 -1.050000 118.052399 10.813683 12.550670
9492 0 2 -1.050000 112.246923 12.370350 9.800702
9493 0 2 -1.050000 109.425963 14.054354 9.936215
9494 0 2 -1.050000 117.470034 3.830144 12.550670
9495 0 2 -1.050000 119.024660 12.331719 9.800702
9496 0 2 -1.050000 116.523381 1.684004 6.466629
9497 0 2 -1.050000 114.846501 1.892895 12.856741
9498 0 2 -1.050000 111.538998 11.066928 12.721229
9499 0 2 -1.050000 113.750333 14.224615 6.466629
9500 0 2 -1.050000 114.407868 12.667948 12.856741
9501 0 2 -1.050000 120.507419 12.370350 12.721229
9502 0 2 -1.050000 116.667114 12.706578 6.466629
9503 0 2 -1.050000 117.686459 14.054354 12.856741
9504 0 2 -1.050000 114.894412 5.177920 12.721229
9505 0 1 1.575000 107.386447 14.307599 13.339212
9506 0 1 1.575000 105.321323 3.576900 1.657107
9507 0 1 1.575000 111.516695 14.307599 1.657107
9508 0 1 1.575000 105.321323 10.730699 1.657107
9509 0 1 1.575000 107.386447 14.307599 4.577633
9510 0 1 1.575000 107.247257 10.971782 13.142369
9511 0 1 1.575000 101.330264 14.066516 13.536055
9512 0 1 1.575000 107.247257 10.971782 4.380790
9513 0 1 1.575000 110.344943 1.547367 13.142369
9514 0 1 1.575000 110.623322 9.183332 13.536055
9515 0 1 1.575000 110.344943 1.547367 4.380790
9516 0 1 1.575000 104.567140 1.788450 13.142369
9517 0 1 1.575000 110.205754 5.365349 13.536055
9518 0 1 1.575000 104.567140 1.788450 4.380790
9519 0 1 1.575000 105.182133 0.241083 1.460263
9520 0 1 1.575000 107.525636 3.335817 13.536055
9521 0 1 1.575000 108.279819 12.278066 1.460263
9522 0 1 1.575000 104.427950 12.760232 13.536055
9523 0 1 1.575000 108.697388 1.788450 1.460263
9524 0 1 1.575000 110.205754 12.519149 13.536055
9525 0 2 -1.050000 106.510008 12.623594 14.370742
9526 0 2 -1.050000 104.056641 5.260904 2.139578
9527 0 2 -1.050000 107.364143 10.394470 2.275090
9528 0 2 -1.050000 109.283057 0.082984 14.370742
9529 0 2 -1.050000 104.495273 8.793450 2.139578
9530 0 2 -1.050000 110.786467 1.937249 2.275090
9531 0 2 -1.050000 106.366276 1.601020 14.370742
9532 0 2 -1.050000 113.607426 0.253244 2.139578
9533 0 2 -1.050000 104.008730 1.975879 2.275090
9534 0 2 -1.050000 106.510008 12.623594 5.609163
9535 0 2 -1.050000 103.354499 0.336229 14.127754
9536 0 2 -1.050000 109.283057 0.082984 5.609163
9537 0 2 -1.050000 109.111238 10.647715 14.127754
9538 0 2 -1.050000 106.366276 1.601020 5.609163
9539 0 2 -1.050000 109.693603 3.323655 14.127754
9540 0 2 -1.050000 108.262885 1.684004 3.546103
9541 0 2 -1.050000 103.157899 13.971370 0.868565
9542 0 2 -1.050000 105.489837 14.224615 3.546103
9543 0 2 -1.050000 109.791903 10.813683 0.868565
9544 0 2 -1.050000 108.406618 12.706578 3.546103
9545 0 2 -1.050000 109.209538 3.830144 0.868565
9546 0 2 -1.050000 108.262885 1.684004 12.307682
9547 0 2 -1.050000 106.586005 1.892895 1.174636
9548 0 2 -1.050000 111.418395 13.971370 3.789091
9549 0 2 -1.050000 103.278502 11.066928 1.039123
9550 0 2 -1.050000 105.489837 14.224615 12.307682
9551 0 2 -1.050000 106.147372 12.667948 1.174636
9552 0 2 -1.050000 105.661655 3.659884 3.789091
9553 0 2 -1.050000 112.246923 12.370350 1.039123
9554 0 2 -1.050000 108.406618 12.706578 12.307682
9555 0 2 -1.050000 109.425963 14.054354 1.174636
9556 0 2 -1.050000 105.079290 10.983943 3.789091
9557 0 2 -1.050000 106.633916 5.177920 1.039123
9558 0 1 1.575000 119.777191 7.153799 13.339212
9559 0 1 1.575000 117.712067 10.730699 1.657107
9560 0 1 1.575000 123.907439 7.153799 1.657107
9561 0 1 1.575000 117.712067 3.576900 1.657107
9562 0 1 1.575000 119.777191 7.153799 4.577633
9563 0 1 1.575000 119.638001 3.817983 13.142369
9564 0 1 1.575000 113.721008 6.912716 13.536055
9565 0 1 1.575000 119.638001 3.817983 4.380790
9566 0 1 1.575000 122.735687 8.701166 13.142369
9567 0 1 1.575000 123.014066 2.029533 13.536055
9568 0 1 1.575000 122.735687 8.701166 4.380790
9569 0 1 1.575000 116.957883 8.942249 13.142369
9570 0 1 1.575000 122.596498 12.519149 13.536055
9571 0 1 1.575000 116.957883 8.942249 4.380790
9572 0 1 1.575000 117.572877 7.394882 1.460263
9573 0 1 1.575000 119.916380 10.489616 13.536055
9574 0 1 1.575000 120.670563 5.124266 1.460263
9575 0 1 1.575000 116.818694 5.606433 13.536055
9576 0 1 1.575000 121.088131 8.942249 1.460263
9577 0 1 1.575000 122.596498 5.365349 13.536055
9578 0 2 -1.050000 118.900752 5.469795 14.370742
9579 0 2 -1.050000 116.447385 12.414703 2.139578
9580 0 2 -1.050000 119.754887 3.240671 2.275090
9581 0 2 -1.050000 121.673801 7.236783 14.370742
9582 0 2 -1.050000 116.886017 1.639651 2.139578
9583 0 2 -1.050000 123.177211 9.091048 2.275090
9584 0 2 -1.050000 118.757019 8.754820 14.370742
9585 0 2 -1.050000 101.216682 7.407044 2.139578
9586 0 2 -1.050000 116.399474 9.129679 2.275090
9587 0 2 -1.050000 118.900752 5.469795 5.609163
9588 0 2 -1.050000 115.745243 7.490028 14.127754
9589 0 2 -1.050000 121.673801 7.236783 5.609163
9590 0 2 -1.050000 121.501982 3.493916 14.127754
9591 0 2 -1.050000 118.757019 8.754820 5.609163
9592 0 2 -1.050000 122.084347 10.477454 14.127754
9593 0 2 -1.050000 120.653629 8.837804 3.546103
9594 0 2 -1.050000 115.548643 6.817571 0.868565
9595 0 2 -1.050000 117.880581 7.070815 3.546103
9596 0 2 -1.050000 122.182647 3.659884 0.868565
9597 0 2 -1.050000 120.797362 5.552779 3.546103
9598 0 2 -1.050000 121.600282 10.983943 0.868565
9599 0 2 -1.050000 120.653629 8.837804 12.307682
9600 0 2 -1.050000 118.976749 9.046695 1.174636
9601 0 2 -1.050000 123.809139 6.817571 3.789091
9602 0 2 -1.050000 115.669246 3.913128 1.039123
9603 0 2 -1.050000 117.880581 7.070815 12.307682
9604 0 2 -1.050000 118.538116 5.514149 1.174636
9605 0 2 -1.050000 118.052399 10.813683 3.789091
9606 0 2 -1.050000 99.856179 5.216550 1.039123
9607 0 2 -1.050000 120.797362 5.552779 12.307682
9608 0 2 -1.050000 121.816707 6.900555 1.174636
9609 0 2 -1.050000 117.470034 3.830144 3.789091
9610 0 2 -1.050000 119.024660 12.331719 1.039123
9611 0 1 1.575000 99.125951 14.307599 19.180265
9612 0 1 1.575000 121.842315 3.576900 25.021317
9613 0 1 1.575000 121.842315 10.730699 25.021317
9614 0 1 1.575000 101.191075 10.730699 22.100791
9615 0 1 1.575000 101.191075 3.576900 22.100791
9616 0 1 1.575000 123.768249 10.971782 18.983421
9617 0 1 1.575000 117.851256 14.066516 19.377108
9618 0 1 1.575000 101.330264 14.066516 22.297634
9619 0 1 1.575000 102.084448 1.547367 18.983421
9620 0 1 1.575000 102.362826 9.183332 19.377108
9621 0 1 1.575000 123.014066 2.029533 22.297634
9622 0 1 1.575000 102.084448 1.547367 27.745000
9623 0 1 1.575000 121.088131 1.788450 18.983421
9624 0 1 1.575000 101.945258 5.365349 19.377108
9625 0 1 1.575000 122.596498 12.519149 22.297634
9626 0 1 1.575000 121.088131 1.788450 27.745000
9627 0 1 1.575000 119.916380 10.489616 22.297634
9628 0 1 1.575000 101.051886 7.394882 21.903948
9629 0 1 1.575000 121.703125 0.241083 24.824474
9630 0 1 1.575000 99.265140 3.335817 19.377108
9631 0 1 1.575000 104.427950 12.760232 22.297634
9632 0 1 1.575000 104.149571 5.124266 21.903948
9633 0 1 1.575000 120.948942 12.760232 19.377108
9634 0 1 1.575000 122.596498 5.365349 22.297634
9635 0 1 1.575000 116.957883 1.788450 21.903948
9636 0 1 1.575000 100.436892 1.788450 24.824474
9637 0 1 1.575000 101.945258 12.519149 19.377108
9638 0 2 -1.050000 123.031000 12.623594 20.211795
9639 0 2 -1.050000 120.577633 5.260904 25.503788
9640 0 2 -1.050000 103.354499 0.336229 22.889333
9641 0 3 -0.950000 123.885135 10.394470 25.639301
9642 0 2 -1.050000 101.022561 0.082984 20.211795
9643 0 2 -1.050000 121.016265 8.793450 25.503788
9644 0 2 -1.050000 121.501982 3.493916 22.889333
9645 0 2 -1.050000 102.525971 1.937249 25.639301
9646 0 2 -1.050000 122.887267 1.601020 20.211795
9647 0 2 -1.050000 105.346930 0.253244 25.503788
9648 0 2 -1.050000 122.084347 10.477454 22.889333
9649 0 2 -1.050000 120.529722 1.975879 25.639301
9650 0 2 -1.050000 99.926393 12.414703 22.583262
9651 0 2 -1.050000 119.875491 0.336229 19.968807
9652 0 2 -1.050000 103.233896 3.240671 22.718774
9653 0 3 -0.950000 101.022561 0.082984 28.973374
9654 0 2 -1.050000 100.365025 1.639651 22.583262
9655 0 2 -1.050000 100.850742 10.647715 19.968807
9656 0 2 -1.050000 119.046963 1.937249 22.718774
9657 0 3 -0.950000 122.887267 1.601020 28.973374
9658 0 2 -1.050000 121.867922 0.253244 22.583262
9659 0 2 -1.050000 101.433107 3.323655 19.968807
9660 0 2 -1.050000 99.878482 9.129679 22.718774
9661 0 2 -1.050000 100.002390 1.684004 26.910314
9662 0 2 -1.050000 102.455757 9.046695 21.618320
9663 0 2 -1.050000 99.148254 3.913128 21.482808
9664 0 2 -1.050000 102.017124 5.514149 21.618320
9665 0 2 -1.050000 101.531407 10.813683 24.232775
9666 0 3 -0.950000 120.507419 12.370350 21.482808
9667 0 2 -1.050000 117.686459 14.054354 21.618320
9668 0 2 -1.050000 100.949042 3.830144 24.232775
9669 0 2 -1.050000 102.503668 12.331719 21.482808
9670 0 2 -1.050000 100.002390 1.684004 18.148735
9671 0 2 -1.050000 123.106997 1.892895 24.538846
9672 0 2 -1.050000 119.799494 11.066928 24.403334
9673 0 2 -1.050000 122.010829 14.224615 18.148735
9674 0 2 -1.050000 122.182647 3.659884 27.153302
9675 0 2 -1.050000 100.146122 12.706578 18.148735
9676 0 2 -1.050000 123.154907 5.177920 24.403334
9677 0 1 1.575000 111.516695 7.153799 19.180265
9678 0 1 1.575000 109.451571 10.730699 25.021317
9679 0 1 1.575000 115.646943 7.153799 25.021317
9680 0 1 1.575000 109.451571 3.576900 25.021317
9681 0 1 1.575000 111.516695 7.153799 27.941844
9682 0 1 1.575000 113.581819 3.576900 22.100791
9683 0 1 1.575000 107.386447 7.153799 22.100791
9684 0 1 1.575000 113.581819 10.730699 22.100791
9685 0 1 1.575000 111.377505 3.817983 18.983421
9686 0 1 1.575000 105.460512 6.912716 19.377108
9687 0 1 1.575000 113.721008 6.912716 22.297634
9688 0 1 1.575000 111.377505 3.817983 27.745000
9689 0 1 1.575000 114.475191 8.701166 18.983421
9690 0 1 1.575000 114.753570 2.029533 19.377108
9691 0 1 1.575000 110.623322 9.183332 22.297634
9692 0 1 1.575000 108.697388 8.942249 18.983421
9693 0 1 1.575000 114.336002 12.519149 19.377108
9694 0 1 1.575000 110.205754 5.365349 22.297634
9695 0 1 1.575000 107.525636 3.335817 22.297634
9696 0 1 1.575000 113.442629 0.241083 21.903948
9697 0 1 1.575000 109.312381 7.394882 24.824474
9698 0 1 1.575000 111.655884 10.489616 19.377108
9699 0 1 1.575000 116.818694 5.606433 22.297634
9700 0 1 1.575000 116.540315 12.278066 21.903948
9701 0 1 1.575000 112.410067 5.124266 24.824474
9702 0 1 1.575000 108.558198 5.606433 19.377108
9703 0 1 1.575000 110.205754 12.519149 22.297634
9704 0 1 1.575000 104.567140 8.942249 21.903948
9705 0 1 1.575000 112.827635 8.942249 24.824474
9706 0 1 1.575000 114.336002 5.365349 19.377108
9707 0 2 -1.050000 110.640256 5.469795 20.211795
9708 0 2 -1.050000 115.745243 7.490028 22.889333
9709 0 2 -1.050000 111.494391 3.240671 25.639301
9710 0 2 -1.050000 113.413305 7.236783 20.211795
9711 0 2 -1.050000 108.625521 1.639651 25.503788
9712 0 2 -1.050000 109.111238 10.647715 22.889333
9713 0 3 -0.950000 114.916715 9.091048 25.639301
9714 0 2 -1.050000 110.496524 8.754820 20.211795
9715 0 2 -1.050000 117.737674 7.407044 25.503788
9716 0 2 -1.050000 109.693603 3.323655 22.889333
9717 0 3 -0.950000 108.138978 9.129679 25.639301
9718 0 3 -0.950000 110.640256 5.469795 28.973374
9719 0 2 -1.050000 112.317137 5.260904 22.583262
9720 0 2 -1.050000 107.484747 7.490028 19.968807
9721 0 2 -1.050000 115.624639 10.394470 22.718774
9722 0 3 -0.950000 113.413305 7.236783 28.973374
9723 0 2 -1.050000 112.755769 8.793450 22.583262
9724 0 2 -1.050000 113.241486 3.493916 19.968807
9725 0 2 -1.050000 106.656219 9.091048 22.718774
9726 0 2 -1.050000 109.477178 7.407044 22.583262
9727 0 2 -1.050000 113.823851 10.477454 19.968807
9728 0 2 -1.050000 112.269226 1.975879 22.718774
9729 0 2 -1.050000 114.846501 1.892895 21.618320
9730 0 2 -1.050000 107.288147 6.817571 24.232775
9731 0 2 -1.050000 111.538998 11.066928 21.482808
9732 0 2 -1.050000 109.620085 7.070815 26.910314
9733 0 2 -1.050000 114.407868 12.667948 21.618320
9734 0 2 -1.050000 113.922151 3.659884 24.232775
9735 0 2 -1.050000 108.116675 5.216550 21.482808
9736 0 2 -1.050000 112.536866 5.552779 26.910314
9737 0 2 -1.050000 105.295715 6.900555 21.618320
9738 0 2 -1.050000 113.339786 10.983943 24.232775
9739 0 2 -1.050000 114.894412 5.177920 21.482808
9740 0 2 -1.050000 112.393133 8.837804 18.148735
9741 0 2 -1.050000 110.716253 9.046695 24.538846
9742 0 2 -1.050000 115.548643 6.817571 27.153302
9743 0 2 -1.050000 107.408750 3.913128 24.403334
9744 0 2 -1.050000 109.620085 7.070815 18.148735
9745 0 2 -1.050000 110.277620 5.514149 24.538846
9746 0 2 -1.050000 116.377171 5.216550 24.403334
9747 0 2 -1.050000 112.536866 5.552779 18.148735
9748 0 2 -1.050000 113.556211 6.900555 24.538846
9749 0 2 -1.050000 109.209538 3.830144 27.153302
9750 0 1 1.575000 103.256199 7.153799 25.021317
9751 0 1 1.575000 103.256199 7.153799 16.259738
9752 0 1 1.575000 105.321323 3.576900 27.941844
9753 0 1 1.575000 0.000000 7.153799 27.941844
9754 0 1 1.575000 103.117010 3.817983 24.824474
9755 0 1 1.575000 121.981504 6.912716 25.218161
9756 0 1 1.575000 105.460512 6.912716 28.138687
9757 0 1 1.575000 103.117010 3.817983 16.062895
9758 0 1 1.575000 106.214695 8.701166 24.824474
9759 0 1 1.575000 106.493074 2.029533 25.218161
9760 0 1 1.575000 106.214695 8.701166 16.062895
9761 0 1 1.575000 100.436892 8.942249 24.824474
9762 0 1 1.575000 101.945258 5.365349 28.138687
9763 0 1 1.575000 100.436892 8.942249 16.062895
9764 0 1 1.575000 99.265140 3.335817 28.138687
9765 0 1 1.575000 105.182133 0.241083 27.745000
9766 0 1 1.575000 103.395388 10.489616 25.218161
9767 0 1 1.575000 108.558198 5.606433 28.138687
9768 0 1 1.575000 100.297702 5.606433 25.218161
9769 0 1 1.575000 106.075506 5.365349 25.218161
9770 0 2 -1.050000 102.379760 5.469795 26.052847
9771 0 3 -0.950000 107.484747 7.490028 28.730386
9772 0 2 -1.050000 105.152809 7.236783 26.052847
9773 0 2 -1.050000 102.236028 8.754820 26.052847
9774 0 3 -0.950000 101.433107 3.323655 28.730386
9775 0 2 -1.050000 102.379760 5.469795 17.291268
9776 0 2 -1.050000 104.056641 5.260904 28.424315
9777 0 2 -1.050000 99.224251 7.490028 25.809859
9778 0 2 -1.050000 105.152809 7.236783 17.291268
9779 0 2 -1.050000 104.980990 3.493916 25.809859
9780 0 2 -1.050000 102.236028 8.754820 17.291268
9781 0 3 -0.950000 101.216682 7.407044 28.424315
9782 0 3 -0.950000 105.563355 10.477454 25.809859
9783 0 3 -0.950000 104.008730 1.975879 28.559827
9784 0 2 -1.050000 104.132637 8.837804 15.228208
9785 0 2 -1.050000 106.586005 1.892895 27.459373
9786 0 2 -1.050000 101.359589 7.070815 15.228208
9787 0 2 -1.050000 99.856179 5.216550 27.323860
9788 0 2 -1.050000 104.276370 5.552779 15.228208
9789 0 3 -0.950000 121.816707 6.900555 27.459373
9790 0 2 -1.050000 106.633916 5.177920 27.323860
9791 0 2 -1.050000 104.132637 8.837804 23.989787
9792 0 2 -1.050000 107.288147 6.817571 15.471196
9793 0 2 -1.050000 101.359589 7.070815 23.989787
9794 0 2 -1.050000 101.531407 10.813683 15.471196
9795 0 2 -1.050000 104.276370 5.552779 23.989787
9796 0 2 -1.050000 100.949042 3.830144 15.471196
9797 0 1 1.575000 115.646943 14.307599 16.259738
9798 0 1 1.575000 117.712067 3.576900 27.941844
9799 0 1 1.575000 115.507753 10.971782 24.824474
9800 0 1 1.575000 115.507753 10.971782 16.062895
9801 0 1 1.575000 118.605439 1.547367 24.824474
9802 0 1 1.575000 118.883818 9.183332 25.218161
9803 0 1 1.575000 114.753570 2.029533 28.138687
9804 0 1 1.575000 118.605439 1.547367 16.062895
9805 0 1 1.575000 112.827635 1.788450 24.824474
9806 0 1 1.575000 118.466250 5.365349 25.218161
9807 0 1 1.575000 112.827635 1.788450 16.062895
9808 0 1 1.575000 117.572877 7.394882 27.745000
9809 0 1 1.575000 115.786132 3.335817 25.218161
9810 0 1 1.575000 120.670563 5.124266 27.745000
9811 0 1 1.575000 114.336002 5.365349 28.138687
9812 0 1 1.575000 108.697388 1.788450 27.745000
9813 0 3 -0.950000 119.875491 0.336229 28.730386
9814 0 2 -1.050000 117.543553 0.082984 26.052847
9815 0 3 -0.950000 113.241486 3.493916 28.730386
9816 0 2 -1.050000 114.626771 1.601020 26.052847
9817 0 2 -1.050000 114.770504 12.623594 17.291268
9818 0 2 -1.050000 111.614995 0.336229 25.809859
9819 0 3 -0.950000 119.754887 3.240671 28.559827
9820 0 2 -1.050000 117.543553 0.082984 17.291268
9821 0 2 -1.050000 116.886017 1.639651 28.424315
9822 0 3 -0.950000 117.371734 10.647715 25.809859
9823 0 3 -0.950000 110.786467 1.937249 28.559827
9824 0 2 -1.050000 114.626771 1.601020 17.291268
9825 0 2 -1.050000 113.607426 0.253244 28.424315
9826 0 2 -1.050000 117.954099 3.323655 25.809859
9827 0 2 -1.050000 116.523381 1.684004 15.228208
9828 0 2 -1.050000 115.669246 3.913128 27.323860
9829 0 2 -1.050000 113.750333 14.224615 15.228208
9830 0 2 -1.050000 118.538116 5.514149 27.459373
9831 0 2 -1.050000 116.667114 12.706578 15.228208
9832 0 2 -1.050000 116.523381 1.684004 23.989787
9833 0 2 -1.050000 119.678891 13.971370 15.471196
9834 0 2 -1.050000 113.922151 3.659884 15.471196
9835 0 2 -1.050000 113.339786 10.983943 15.471196
9836 0 1 1.575000 105.321323 3.576900 19.180265
9837 0 1 1.575000 111.516695 14.307599 19.180265
9838 0 1 1.575000 105.321323 10.730699 19.180265
9839 0 1 1.575000 109.451571 10.730699 16.259738
9840 0 1 1.575000 103.256199 14.307599 16.259738
9841 0 1 1.575000 109.451571 3.576900 16.259738
9842 0 1 1.575000 109.590760 14.066516 16.456582
9843 0 1 1.575000 107.247257 10.971782 21.903948
9844 0 1 1.575000 106.493074 2.029533 16.456582
9845 0 1 1.575000 110.344943 1.547367 21.903948
9846 0 1 1.575000 106.075506 12.519149 16.456582
9847 0 1 1.575000 104.567140 1.788450 21.903948
9848 0 1 1.575000 103.395388 10.489616 16.456582
9849 0 1 1.575000 109.312381 7.394882 16.062895
9850 0 1 1.575000 105.182133 0.241083 18.983421
9851 0 1 1.575000 112.688446 12.760232 16.456582
9852 0 1 1.575000 112.410067 5.124266 16.062895
9853 0 1 1.575000 108.279819 12.278066 18.983421
9854 0 1 1.575000 106.075506 5.365349 16.456582
9855 0 1 1.575000 100.436892 1.788450 16.062895
9856 0 1 1.575000 108.697388 1.788450 18.983421
9857 0 2 -1.050000 104.056641 5.260904 19.662736
9858 0 2 -1.050000 111.614995 0.336229 17.048280
9859 0 2 -1.050000 107.364143 10.394470 19.798248
9860 0 2 -1.050000 104.495273 8.793450 19.662736
9861 0 2 -1.050000 104.980990 3.493916 17.048280
9862 0 2 -1.050000 110.786467 1.937249 19.798248
9863 0 2 -1.050000 113.607426 0.253244 19.662736
9864 0 2 -1.050000 105.563355 10.477454 17.048280
9865 0 2 -1.050000 104.008730 1.975879 19.798248
9866 0 3 -0.950000 106.510008 12.623594 23.132321
9867 0 2 -1.050000 108.186889 12.414703 16.742209
9868 0 2 -1.050000 111.494391 3.240671 16.877722
9869 0 2 -1.050000 109.283057 0.082984 23.132321
9870 0 2 -1.050000 108.625521 1.639651 16.742209
9871 0 2 -1.050000 102.525971 1.937249 16.877722
9872 0 2 -1.050000 106.366276 1.601020 23.132321
9873 0 2 -1.050000 105.346930 0.253244 16.742209
9874 0 2 -1.050000 108.138978 9.129679 16.877722
9875 0 2 -1.050000 108.262885 1.684004 21.069261
9876 0 2 -1.050000 110.716253 9.046695 15.777267
9877 0 2 -1.050000 103.157899 13.971370 18.391723
9878 0 2 -1.050000 107.408750 3.913128 15.641755
9879 0 2 -1.050000 110.277620 5.514149 15.777267
9880 0 2 -1.050000 109.791903 10.813683 18.391723
9881 0 2 -1.050000 103.986427 12.370350 15.641755
9882 0 2 -1.050000 108.406618 12.706578 21.069261
9883 0 2 -1.050000 101.165467 14.054354 15.777267
9884 0 2 -1.050000 109.209538 3.830144 18.391723
9885 0 2 -1.050000 110.764164 12.331719 15.641755
9886 0 2 -1.050000 106.586005 1.892895 18.697794
9887 0 3 -0.950000 111.418395 13.971370 21.312249
9888 0 2 -1.050000 103.278502 11.066928 18.562281
9889 0 2 -1.050000 106.147372 12.667948 18.697794
9890 0 2 -1.050000 105.661655 3.659884 21.312249
9891 0 2 -1.050000 112.246923 12.370350 18.562281
9892 0 2 -1.050000 109.425963 14.054354 18.697794
9893 0 2 -1.050000 105.079290 10.983943 21.312249
9894 0 2 -1.050000 106.633916 5.177920 18.562281
9895 0 1 1.575000 117.712067 10.730699 19.180265
9896 0 1 1.575000 123.907439 7.153799 19.180265
9897 0 1 1.575000 117.712067 3.576900 19.180265
9898 0 1 1.575000 119.777191 7.153799 22.100791
9899 0 1 1.575000 121.842315 3.576900 16.259738
9900 0 1 1.575000 115.646943 7.153799 16.259738
9901 0 1 1.575000 121.842315 10.730699 16.259738
9902 0 1 1.575000 121.981504 6.912716 16.456582
9903 0 1 1.575000 119.638001 3.817983 21.903948
9904 0 1 1.575000 118.883818 9.183332 16.456582
9905 0 1 1.575000 122.735687 8.701166 21.903948
9906 0 1 1.575000 118.466250 5.365349 16.456582
9907 0 1 1.575000 116.957883 8.942249 21.903948
9908 0 1 1.575000 115.786132 3.335817 16.456582
9909 0 1 1.575000 121.703125 0.241083 16.062895
9910 0 1 1.575000 117.572877 7.394882 18.983421
9911 0 1 1.575000 100.297702 5.606433 16.456582
9912 0 1 1.575000 100.019324 12.278066 16.062895
9913 0 1 1.575000 120.670563 5.124266 18.983421
9914 0 1 1.575000 118.466250 12.519149 16.456582
9915 0 1 1.575000 112.827635 8.942249 16.062895
9916 0 1 1.575000 121.088131 8.942249 18.983421
9917 0 2 -1.050000 116.447385 12.414703 19.662736
9918 0 2 -1.050000 99.224251 7.490028 17.048280
9919 0 2 -1.050000 119.754887 3.240671 19.798248
9920 0 2 -1.050000 116.886017 1.639651 19.662736
9921 0 2 -1.050000 117.371734 10.647715 17.048280
9922 0 2 -1.050000 123.177211 9.091048 19.798248
9923 0 2 -1.050000 101.216682 7.407044 19.662736
9924 0 2 -1.050000 117.954099 3.323655 17.048280
9925 0 2 -1.050000 116.399474 9.129679 19.798248
9926 0 2 -1.050000 118.900752 5.469795 23.132321
9927 0 2 -1.050000 120.577633 5.260904 16.742209
9928 0 2 -1.050000 123.885135 10.394470 16.877722
9929 0 2 -1.050000 121.673801 7.236783 23.132321
9930 0 2 -1.050000 121.016265 8.793450 16.742209
9931 0 2 -1.050000 114.916715 9.091048 16.877722
9932 0 2 -1.050000 118.757019 8.754820 23.132321
9933 0 2 -1.050000 117.737674 7.407044 16.742209
9934 0 2 -1.050000 120.529722 1.975879 16.877722
9935 0 2 -1.050000 120.653629 8.837804 21.069261
9936 0 2 -1.050000 123.106997 1.892895 15.777267
9937 0 2 -1.050000 115.548643 6.817571 18.391723
9938 0 2 -1.050000 119.799494 11.066928 15.641755
9939 0 2 -1.050000 117.880581 7.070815 21.069261
9940 0 2 -1.050000 122.668364 12.667948 15.777267
9941 0 2 -1.050000 122.182647 3.659884 18.391723
9942 0 2 -1.050000 116.377171 5.216550 15.641755
9943 0 2 -1.050000 120.797362 5.552779 21.069261
9944 0 2 -1.050000 113.556211 6.900555 15.777267
9945 0 2 -1.050000 121.600282 10.983943 18.391723
9946 0 2 -1.050000 123.154907 5.177920 15.641755
9947 0 2 -1.050000 118.976749 9.046695 18.697794
9948 0 2 -1.050000 123.809139 6.817571 21.312249
9949 0 2 -1.050000 115.669246 3.913128 18.562281
9950 0 2 -1.050000 118.538116 5.514149 18.697794
9951 0 2 -1.050000 118.052399 10.813683 21.312249
9952 0 2 -1.050000 99.856179 5.216550 18.562281
9953 0 2 -1.050000 121.816707 6.900555 18.697794
9954 0 2 -1.050000 117.470034 3.830144 21.312249
9955 0 2 -1.050000 119.024660 12.331719 18.562281
9956 0 3 -0.950000 66.422058 12.932756 25.404804
9957 0 4 0.425000 66.560041 13.499680 26.179696
9958 0 4 0.425000 68.001891 11.196407 26.586092
9959 0 3 -0.950000 3.756278 30.577136 25.778402
9960 0 4 0.425000 3.692690 30.074439 26.605537
9961 0 4 0.425000 6.147540 31.364444 26.358323
9962 0 3 -0.950000 98.596809 8.176297 29.698120
9963 0 4 0.425000 98.469272 8.422745 30.627581
9964 0 4 0.425000 101.698377 8.204956 28.693029
9965 0 3 -0.950000 37.264027 33.671004 27.941844
9966 0 4 0.425000 37.294009 32.985766 28.627737
9967 0 4 0.425000 37.550470 31.116057 26.122152
9968 0 3 -0.950000 78.100741 30.577136 25.778402
9969 0 4 0.425000 78.037153 30.074439 26.605537
9970 0 4 0.425000 80.492003 31.364444 26.358323
9971 0 3 -0.950000 16.859082 12.932756 25.404804
9972 0 4 0.425000 16.997066 13.499680 26.179696
9973 0 4 0.425000 18.438915 11.196407 26.586092
9974 0 3 -0.950000 105.647515 28.212952 20.927527
9975 0 4 0.425000 105.757048 28.061537 21.879355
9976 0 4 0.425000 105.709811 26.407517 19.351079
9977 0 3 -0.950000 42.520300 13.002762 23.848054
9978 0 4 0.425000 42.596663 13.173328 24.799881
9979 0 4 0.425000 43.692875 14.680001 22.271275
9980 0 3 -0.950000 56.084539 28.212952 20.927527
9981 0 4 0.425000 56.194072 28.061537 21.879355
9982 0 4 0.425000 56.146835 26.407517 19.351079
9983 0 3 -0.950000 122.279763 12.371453 26.256859
9984 0 4 0.425000 122.393132 12.796667 27.121290
9985 0 4 0.425000 0.320018 10.955394 26.352800
9986 0 3 -0.950000 83.521782 17.542732 20.453720
9987 0 4 0.425000 83.423058 17.905115 21.348053
9988 0 4 0.425000 81.531370 16.863448 19.351079
9989 0 3 -0.950000 21.770044 25.030223 19.882431
9990 0 4 0.425000 21.754517 24.432724 20.646404
9991 0 4 0.425000 19.787669 25.695584 18.757057
9992 0 3 -0.950000 56.084539 42.520550 29.689106
9993 0 4 0.425000 56.194072 42.369136 30.640934
9994 0 4 0.425000 54.241457 2.183970 29.484955
9995 0 3 -0.950000 111.421151 42.595993 30.014058
9996 0 4 0.425000 111.399011 42.520267 30.980844
9997 0 4 0.425000 111.068827 2.010130 29.484955
9998 0 3 -0.950000 93.648711 34.525155 28.957436
9999 0 4 0.425000 93.871666 34.138986 29.818867
10000 0 4 0.425000 90.431172 34.576615 27.461552
10001 0 3 -0.950000 21.066740 40.449465 29.865150
10002 0 4 0.425000 20.883755 40.225416 30.791011
10003 0 4 0.425000 20.642237 0.711932 29.618211
10004 0 3 -0.950000 108.303270 17.542732 20.453720
10005 0 4 0.425000 108.204546 17.905115 21.348053
10006 0 4 0.425000 106.312857 16.863448 19.351079
10007 0 3 -0.950000 80.870626 3.657557 30.014058
10008 0 4 0.425000 80.947277 3.676247 30.980844
10009 0 4 0.425000 79.022945 2.183970 29.484955
10010 0 3 -0.950000 68.490887 22.008081 17.690410
10011 0 4 0.425000 68.275743 21.623691 18.554618
10012 0 4 0.425000 67.537041 24.674535 17.936105
10013 0 3 -0.950000 29.179234 12.507163 25.786527
10014 0 4 0.425000 29.216412 13.091749 26.559688
10015 0 4 0.425000 31.717544 11.103101 26.358323
10016 0 3 -0.950000 118.053863 22.008081 17.690410
10017 0 4 0.425000 117.838718 21.623691 18.554618
10018 0 4 0.425000 117.100017 24.674535 17.936105
10019 0 3 -0.950000 68.479882 39.426554 30.014058
10020 0 4 0.425000 68.556533 39.445244 30.980844
10021 0 4 0.425000 66.632201 37.952966 29.484955
10022 0 3 -0.950000 93.272375 22.008081 17.690410
10023 0 4 0.425000 93.057231 21.623691 18.554618
10024 0 4 0.425000 92.318529 24.674535 17.936105
10025 0 3 -0.950000 38.275611 21.814045 17.581245
10026 0 4 0.425000 38.223965 21.456783 18.481577
10027 0 4 0.425000 41.065735 22.781953 17.440806
10028 0 3 -0.950000 8.781607 1.707082 29.689106
10029 0 4 0.425000 8.595712 1.687931 30.640934
10030 0 4 0.425000 11.942876 2.010130 29.484955
10031 0 3 -0.950000 54.305100 14.618430 23.099906
10032 0 4 0.425000 54.149550 15.134692 23.906242
10033 0 4 0.425000 57.385354 13.140278 23.826448
10034 0 3 -0.950000 45.953839 37.476078 29.689106
10035 0 4 0.425000 45.767943 37.456928 30.640934
10036 0 4 0.425000 49.115108 37.779127 29.484955
10037 0 3 -0.950000 120.192691 40.449465 29.865150
10038 0 4 0.425000 120.009706 40.225416 30.791011
10039 0 4 0.425000 119.768188 0.711932 29.618211
10040 0 3 -0.950000 13.608565 34.464160 26.768580
10041 0 4 0.425000 13.684927 34.634726 27.720408
10042 0 4 0.425000 16.086709 34.576615 27.461552
10043 0 3 -0.950000 33.563095 1.707082 29.689106
10044 0 4 0.425000 33.377199 1.687931 30.640934
10045 0 4 0.425000 36.724364 2.010130 29.484955
10046 0 3 -0.950000 103.125293 40.942395 29.865150
10047 0 4 0.425000 103.410817 40.895950 30.791011
10048 0 4 0.425000 100.579025 38.982133 29.618211
10049 0 3 -0.950000 31.303052 28.212952 20.927527
10050 0 4 0.425000 31.412585 28.061537 21.879355
10051 0 4 0.425000 31.365348 26.407517 19.351079
10052 0 3 -0.950000 90.734549 5.173399 29.865150
10053 0 4 0.425000 91.020073 5.126954 30.791011
10054 0 4 0.425000 88.188281 3.213137 29.618211
10055 0 3 -0.950000 115.161348 30.205241 26.204022
10056 0 4 0.425000 114.993008 29.734863 27.035470
10057 0 4 0.425000 118.497428 31.240291 26.206981
10058 0 3 -0.950000 14.141438 20.916789 17.275330
10059 0 4 0.425000 14.364393 21.302959 18.136762
10060 0 4 0.425000 16.284247 22.781953 17.440806
10061 0 3 -0.950000 46.551531 25.030223 19.882431
10062 0 4 0.425000 46.536005 24.432724 20.646404
10063 0 4 0.425000 44.569157 25.695584 18.757057
10064 0 3 -0.950000 43.132356 3.823044 30.014058
10065 0 4 0.425000 43.077845 3.880081 30.980844
10066 0 4 0.425000 45.332361 2.959699 29.484955
10067 0 3 -0.950000 71.432036 5.848963 29.689106
10068 0 4 0.425000 71.508399 6.019528 30.640934
10069 0 4 0.425000 71.801565 7.537967 28.033960
10070 0 3 -0.950000 9.737872 25.279776 20.520820
10071 0 4 0.425000 9.882805 24.955692 21.423518
10072 0 4 0.425000 6.583860 26.407517 19.351079
10073 0 3 -0.950000 84.082335 25.279776 20.520820
10074 0 4 0.425000 84.227268 24.955692 21.423518
10075 0 4 0.425000 80.928323 26.407517 19.351079
10076 0 3 -0.950000 33.958806 17.542732 20.453720
10077 0 4 0.425000 33.860083 17.905115 21.348053
10078 0 4 0.425000 31.968394 16.863448 19.351079
10079 0 3 -0.950000 95.768584 18.084477 19.391642
10080 0 4 0.425000 95.607781 18.678734 20.141243
10081 0 4 0.425000 96.228127 20.348711 17.123741
10082 0 3 -0.950000 63.644279 26.989301 22.836143
10083 0 4 0.425000 63.580302 26.481834 23.660330
10084 0 4 0.425000 62.501953 30.799167 23.643902
10085 0 3 -0.950000 4.742124 14.618430 23.099906
10086 0 4 0.425000 4.586575 15.134692 23.906242
10087 0 4 0.425000 7.822379 13.140278 23.826448
10088 0 3 -0.950000 76.848514 15.627244 23.670327
10089 0 4 0.425000 76.924644 16.023651 24.552350
10090 0 4 0.425000 79.514573 17.019194 20.361332
10091 0 3 -0.950000 63.704413 20.916789 17.275330
10092 0 4 0.425000 63.927368 21.302959 18.136762
10093 0 4 0.425000 65.847222 22.781953 17.440806
10094 0 3 -0.950000 21.424121 18.084477 19.391642
10095 0 4 0.425000 21.263318 18.678734 20.141243
10096 0 4 0.425000 21.883664 20.348711 17.123741
10097 0 3 -0.950000 82.519864 36.426099 28.831801
10098 0 4 0.425000 82.149724 36.126137 29.676739
10099 0 4 0.425000 82.504593 38.728696 29.484955
10100 0 3 -0.950000 25.196988 33.295665 26.944624
10101 0 4 0.425000 25.014003 33.071617 27.870485
10102 0 4 0.425000 28.160298 34.027287 27.013027
10103 0 3 -0.950000 97.402623 29.161880 23.531462
10104 0 4 0.425000 97.187479 28.777490 24.395671
10105 0 4 0.425000 100.815190 29.438733 22.851976
10106 0 3 -0.950000 62.045515 33.671004 27.941844
10107 0 4 0.425000 62.075497 32.985766 28.627737
10108 0 4 0.425000 62.331958 31.116057 26.122152
10109 0 3 -0.950000 111.424899 9.251792 27.941844
10110 0 4 0.425000 111.394918 9.937030 28.627737
10111 0 4 0.425000 113.761142 7.885309 29.605294
10112 0 3 -0.950000 49.033833 8.176297 29.698120
10113 0 4 0.425000 48.906296 8.422745 30.627581
10114 0 4 0.425000 52.135401 8.204956 28.693029
10115 0 3 -0.950000 44.076341 21.205833 17.891224
10116 0 4 0.425000 44.064900 21.591741 18.781080
10117 0 4 0.425000 46.665151 20.348711 17.123741
10118 0 3 -0.950000 21.869060 5.848963 29.689106
10119 0 4 0.425000 21.945423 6.019528 30.640934
10120 0 4 0.425000 22.238590 7.537967 28.033960
10121 0 3 -0.950000 115.362349 18.761330 18.183045
10122 0 4 0.425000 115.259809 19.031824 19.108906
10123 0 4 0.425000 115.615393 20.092179 15.836530
10124 0 3 -0.950000 5.960125 39.592041 30.014058
10125 0 4 0.425000 5.905613 39.649078 30.980844
10126 0 4 0.425000 5.819487 36.592532 28.693029
10127 0 3 -0.950000 30.741612 39.592041 30.014058
10128 0 4 0.425000 30.687101 39.649078 30.980844
10129 0 4 0.425000 30.600975 36.592532 28.693029
10130 0 3 -0.950000 78.343805 40.942395 29.865150
10131 0 4 0.425000 78.629329 40.895950 30.791011
10132 0 4 0.425000 75.797537 38.982133 29.618211
10133 0 3 -0.950000 105.652114 3.657557 30.014058
10134 0 4 0.425000 105.728765 3.676247 30.980844
10135 0 4 0.425000 103.804433 2.183970 29.484955
10136 0 3 -0.950000 61.858175 42.595993 30.014058
10137 0 4 0.425000 61.836036 42.520267 30.980844
10138 0 4 0.425000 61.505852 2.010130 29.484955
10139 0 3 -0.950000 58.238971 4.680468 29.865150
10140 0 4 0.425000 58.055987 4.456419 30.791011
10141 0 4 0.425000 58.255079 8.309845 29.127507
10142 0 3 -0.950000 112.620075 21.814045 17.581245
10143 0 4 0.425000 112.568429 21.456783 18.481577
10144 0 4 0.425000 115.410198 22.781953 17.440806
10145 0 3 -0.950000 107.301352 36.426099 28.831801
10146 0 4 0.425000 106.931212 36.126137 29.676739
10147 0 4 0.425000 107.286081 38.728696 29.484955
10148 0 3 -0.950000 86.639663 42.595993 30.014058
10149 0 4 0.425000 86.617523 42.520267 30.980844
10150 0 4 0.425000 86.287340 2.010130 29.484955
10151 0 3 -0.950000 15.315270 25.510201 21.009785
10152 0 4 0.425000 15.341047 25.187669 21.924230
10153 0 4 0.425000 17.689903 25.869917 19.943040
10154 0 3 -0.950000 37.080436 9.251792 27.941844
10155 0 4 0.425000 37.050454 9.937030 28.627737
10156 0 4 0.425000 39.416679 7.885309 29.605294
10157 0 3 -0.950000 72.435417 30.483030 26.231578
10158 0 4 0.425000 72.476020 30.038424 27.092727
10159 0 4 0.425000 68.934453 31.240291 26.206981
10160 0 3 -0.950000 121.998393 30.483030 26.231578
10161 0 4 0.425000 122.038996 30.038424 27.092727
10162 0 4 0.425000 119.540446 29.935752 23.281858
10163 0 3 -0.950000 89.426231 18.084721 20.405688
10164 0 4 0.425000 89.280165 18.552362 21.242872
10165 0 4 0.425000 92.658482 16.692545 19.943040
10166 0 3 -0.950000 117.476820 3.823044 30.014058
10167 0 4 0.425000 117.422308 3.880081 30.980844
10168 0 4 0.425000 119.676824 2.959699 29.484955
10169 0 3 -0.950000 5.465353 8.372903 29.372515
10170 0 4 0.425000 5.240034 8.751419 30.236724
10171 0 4 0.425000 8.692103 8.309845 29.127507
10172 0 3 -0.950000 101.802689 17.629642 20.070222
10173 0 4 0.425000 101.727985 18.100173 20.915160
10174 0 4 0.425000 104.296061 17.019194 20.361332
10175 0 3 -0.950000 123.622845 4.453732 29.865150
10176 0 4 0.425000 123.520305 4.724225 30.791011
10177 0 4 0.425000 2.686177 3.228730 29.618211
10178 0 3 -0.950000 95.411203 40.449465 29.865150
10179 0 4 0.425000 95.228218 40.225416 30.791011
10180 0 4 0.425000 94.986700 0.711932 29.618211
10181 0 3 -0.950000 77.918264 25.012111 20.117267
10182 0 4 0.425000 78.130164 24.502469 20.914929
10183 0 4 0.425000 77.682840 22.424479 17.985395
10184 0 3 -0.950000 3.573801 25.012111 20.117267
10185 0 4 0.425000 3.785701 24.502469 20.914929
10186 0 4 0.425000 3.338377 22.424479 17.985395
10187 0 3 -0.950000 40.816885 30.205241 26.204022
10188 0 4 0.425000 40.648545 29.734863 27.035470
10189 0 4 0.425000 44.152965 31.240291 26.206981
10190 0 3 -0.950000 16.390085 5.173399 29.865150
10191 0 4 0.425000 16.675610 5.126954 30.791011
10192 0 4 0.425000 13.843818 3.213137 29.618211
10193 0 3 -0.950000 65.953061 5.173399 29.865150
10194 0 4 0.425000 66.238585 5.126954 30.791011
10195 0 4 0.425000 63.406794 3.213137 29.618211
10196 0 3 -0.950000 89.659733 25.510201 21.009785
10197 0 4 0.425000 89.685510 25.187669 21.924230
10198 0 4 0.425000 92.034366 25.869917 19.943040
10199 0 3 -0.950000 19.304248 34.525155 28.957436
10200 0 4 0.425000 19.527203 34.138986 29.818867
10201 0 4 0.425000 17.069226 37.952966 29.484955
10202 0 3 -0.950000 27.458226 17.629642 20.070222
10203 0 4 0.425000 27.383522 18.100173 20.915160
10204 0 4 0.425000 29.951598 17.019194 20.361332
10205 0 3 -0.950000 11.258221 13.664291 24.048867
10206 0 4 0.425000 11.301253 13.940481 24.977720
10207 0 4 0.425000 12.851030 14.532294 21.872826
10208 0 3 -0.950000 48.206589 14.052034 23.732277
10209 0 4 0.425000 48.195148 14.437942 24.622133
10210 0 4 0.425000 45.401178 12.938380 21.677583
10211 0 3 -0.950000 115.985033 12.932756 25.404804
10212 0 4 0.425000 116.123017 13.499680 26.179696
10213 0 4 0.425000 117.564866 11.196407 26.586092
10214 0 3 -0.950000 60.821197 13.664291 24.048867
10215 0 4 0.425000 60.864228 13.940481 24.977720
10216 0 4 0.425000 62.414005 14.532294 21.872826
10217 0 3 -0.950000 70.987097 18.084477 19.391642
10218 0 4 0.425000 70.826294 18.678734 20.141243
10219 0 4 0.425000 71.446639 20.348711 17.123741
10220 0 3 -0.950000 120.550072 18.084477 19.391642
10221 0 4 0.425000 120.389269 18.678734 20.141243
10222 0 4 0.425000 121.009615 20.348711 17.123741
10223 0 3 -0.950000 23.153812 12.371453 26.256859
10224 0 4 0.425000 23.267181 12.796667 27.121290
10225 0 4 0.425000 25.101506 10.955394 26.352800
10226 0 3 -0.950000 84.877305 12.528350 26.086920
10227 0 4 0.425000 84.932431 13.006566 26.929043
10228 0 4 0.425000 83.153193 9.337769 26.564428
10229 0 3 -0.950000 11.449002 38.686756 29.889920
10230 0 4 0.425000 11.188299 38.585928 30.818773
10231 0 4 0.425000 15.076921 38.997727 29.618211
10232 0 3 -0.950000 103.523697 12.507163 25.786527
10233 0 4 0.425000 103.560875 13.091749 26.559688
10234 0 4 0.425000 106.062007 11.103101 26.358323
10235 0 3 -0.950000 72.716788 12.371453 26.256859
10236 0 4 0.425000 72.830156 12.796667 27.121290
10237 0 4 0.425000 74.664481 10.955394 26.352800
10238 0 3 -0.950000 83.987949 31.116601 26.691049
10239 0 4 0.425000 83.821660 30.854421 27.610021
10240 0 4 0.425000 87.113445 31.116057 26.122152
10241 0 3 -0.950000 108.769436 31.116601 26.691049
10242 0 4 0.425000 108.603148 30.854421 27.610021
10243 0 4 0.425000 111.894933 31.116057 26.122152
10244 0 3 -0.950000 91.203546 12.932756 25.404804
10245 0 4 0.425000 91.341529 13.499680 26.179696
10246 0 4 0.425000 92.783379 11.196407 26.586092
10247 0 3 -0.950000 36.196400 28.211622 22.655906
10248 0 4 0.425000 36.251310 27.664833 23.455222
10249 0 4 0.425000 37.720465 30.799167 23.643902
10250 0 3 -0.950000 99.599287 34.066084 29.075882
10251 0 4 0.425000 99.723865 33.617889 29.927059
10252 0 4 0.425000 101.676372 35.258029 28.805846
10253 0 3 -0.950000 49.978475 33.295665 26.944624
10254 0 4 0.425000 49.795491 33.071617 27.870485
10255 0 4 0.425000 52.941785 34.027287 27.013027
10256 0 3 -0.950000 32.911077 33.788596 26.944624
10257 0 4 0.425000 33.196602 33.742151 27.870485
10258 0 4 0.425000 30.929027 31.364444 26.358323
10259 0 3 -0.950000 57.692565 33.788596 26.944624
10260 0 4 0.425000 57.978089 33.742151 27.870485
10261 0 4 0.425000 55.710515 31.364444 26.358323
10262 0 3 -0.950000 91.968835 28.967844 23.422298
10263 0 4 0.425000 91.917189 28.610582 24.322629
10264 0 4 0.425000 94.758958 29.935752 23.281858
10265 0 3 -0.950000 17.624372 28.967844 23.422298
10266 0 4 0.425000 17.572726 28.610582 24.322629
10267 0 4 0.425000 20.414495 29.935752 23.281858
10268 0 3 -0.950000 118.430199 34.525155 28.957436
10269 0 4 0.425000 118.653154 34.138986 29.818867
10270 0 4 0.425000 115.212660 34.576615 27.461552
10271 0 3 -0.950000 19.294854 21.205833 17.891224
10272 0 4 0.425000 19.283413 21.591741 18.781080
10273 0 4 0.425000 22.340479 22.284933 17.010924
10274 0 3 -0.950000 39.863255 18.084721 20.405688
10275 0 4 0.425000 39.717189 18.552362 21.242872
10276 0 4 0.425000 43.095506 16.692545 19.943040
10277 0 3 -0.950000 109.658793 12.528350 26.086920
10278 0 4 0.425000 109.713919 13.006566 26.929043
10279 0 4 0.425000 107.934681 9.337769 26.564428
10280 0 3 -0.950000 23.058160 29.161880 23.531462
10281 0 4 0.425000 22.843015 28.777490 24.395671
10282 0 4 0.425000 26.470727 29.438733 22.851976
10283 0 3 -0.950000 47.839648 29.161880 23.531462
10284 0 4 0.425000 47.624503 28.777490 24.395671
10285 0 4 0.425000 51.252215 29.438733 22.851976
10286 0 3 -0.950000 71.333019 25.030223 19.882431
10287 0 4 0.425000 71.317493 24.432724 20.646404
10288 0 4 0.425000 69.350644 25.695584 18.757057
10289 0 3 -0.950000 120.895994 25.030223 19.882431
10290 0 4 0.425000 120.880468 24.432724 20.646404
10291 0 4 0.425000 118.913620 25.695584 18.757057
10292 0 3 -0.950000 35.314330 12.528350 26.086920
10293 0 4 0.425000 35.369456 13.006566 26.929043
10294 0 4 0.425000 33.590217 9.337769 26.564428
10295 0 3 -0.950000 11.414912 28.211622 22.655906
10296 0 4 0.425000 11.469823 27.664833 23.455222
10297 0 4 0.425000 12.938978 30.799167 23.643902
10298 0 3 -0.950000 74.817799 34.066084 29.075882
10299 0 4 0.425000 74.942377 33.617889 29.927059
10300 0 4 0.425000 76.894884 35.258029 28.805846
10301 0 3 -0.950000 0.473336 34.066084 29.075882
10302 0 4 0.425000 0.597914 33.617889 29.927059
10303 0 4 0.425000 2.550421 35.258029 28.805846
10304 0 3 -0.950000 102.882229 30.577136 25.778402
10305 0 4 0.425000 102.818640 30.074439 26.605537
10306 0 4 0.425000 105.273490 31.364444 26.358323
10307 0 3 -0.950000 30.246841 8.372903 29.372515
10308 0 4 0.425000 30.021521 8.751419 30.236724
10309 0 4 0.425000 33.473591 8.309845 29.127507
10310 0 3 -0.950000 96.114507 25.030223 19.882431
10311 0 4 0.425000 96.098981 24.432724 20.646404
10312 0 4 0.425000 94.132132 25.695584 18.757057
10313 0 3 -0.950000 97.498276 12.371453 26.256859
10314 0 4 0.425000 97.611644 12.796667 27.121290
10315 0 4 0.425000 99.445969 10.955394 26.352800
10316 0 3 -0.950000 78.742210 12.507163 25.786527
10317 0 4 0.425000 78.779387 13.091749 26.559688
10318 0 4 0.425000 81.280519 11.103101 26.358323
10319 0 3 -0.950000 46.205609 18.084477 19.391642
10320 0 4 0.425000 46.044806 18.678734 20.141243
10321 0 4 0.425000 48.809022 16.406129 21.000788
10322 0 3 -0.950000 58.740294 17.542732 20.453720
10323 0 4 0.425000 58.641571 17.905115 21.348053
10324 0 4 0.425000 56.749882 16.863448 19.351079
10325 0 3 -0.950000 2.676738 17.629642 20.070222
10326 0 4 0.425000 2.602034 18.100173 20.915160
10327 0 4 0.425000 5.170110 17.019194 20.361332
10328 0 3 -0.950000 15.081767 18.084721 20.405688
10329 0 4 0.425000 14.935702 18.552362 21.242872
10330 0 4 0.425000 18.314019 16.692545 19.943040
10331 0 3 -0.950000 9.177319 17.542732 20.453720
10332 0 4 0.425000 9.078595 17.905115 21.348053
10333 0 4 0.425000 7.186906 16.863448 19.351079
10334 0 3 -0.950000 52.239714 17.629642 20.070222
10335 0 4 0.425000 52.165010 18.100173 20.915160
10336 0 4 0.425000 54.733086 17.019194 20.361332
10337 0 3 -0.950000 64.644743 18.084721 20.405688
10338 0 4 0.425000 64.498677 18.552362 21.242872
10339 0 4 0.425000 67.876994 16.692545 19.943040
10340 0 3 -0.950000 88.485901 20.916789 17.275330
10341 0 4 0.425000 88.708856 21.302959 18.136762
10342 0 4 0.425000 90.628710 22.781953 17.440806
10343 0 3 -0.950000 114.441221 25.510201 21.009785
10344 0 4 0.425000 114.466998 25.187669 21.924230
10345 0 4 0.425000 116.815854 25.869917 19.943040
10346 0 3 -0.950000 65.598373 30.205241 26.204022
10347 0 4 0.425000 65.430032 29.734863 27.035470
10348 0 4 0.425000 69.977470 29.935752 23.281858
10349 0 3 -0.950000 40.096758 25.510201 21.009785
10350 0 4 0.425000 40.122535 25.187669 21.924230
10351 0 4 0.425000 42.471391 25.869917 19.943040
10352 0 3 -0.950000 34.519360 25.279776 20.520820
10353 0 4 0.425000 34.664293 24.955692 21.423518
10354 0 4 0.425000 34.109128 22.860356 17.591221
10355 0 3 -0.950000 59.300848 25.279776 20.520820
10356 0 4 0.425000 59.445781 24.955692 21.423518
10357 0 4 0.425000 58.890616 22.860356 17.591221
10358 0 3 -0.950000 108.863823 25.279776 20.520820
10359 0 4 0.425000 109.008756 24.955692 21.423518
10360 0 4 0.425000 108.453592 22.860356 17.591221
10361 0 3 -0.950000 44.085736 34.525155 28.957436
10362 0 4 0.425000 44.308690 34.138986 29.818867
10363 0 4 0.425000 40.868197 34.576615 27.461552
10364 0 3 -0.950000 92.695332 3.823044 30.014058
10365 0 4 0.425000 92.640820 3.880081 30.980844
10366 0 4 0.425000 94.895337 2.959699 29.484955
10367 0 3 -0.950000 73.815321 8.176297 29.698120
10368 0 4 0.425000 73.687784 8.422745 30.627581
10369 0 4 0.425000 76.916889 8.204956 28.693029
10370 0 3 -0.950000 59.041292 41.617959 29.689106
10371 0 4 0.425000 59.117655 41.788525 30.640934
10372 0 4 0.425000 57.723105 38.728696 29.484955
10373 0 3 -0.950000 118.026696 8.688734 29.335596
10374 0 4 0.425000 118.138506 9.007509 30.244871
10375 0 4 0.425000 121.364541 7.537967 28.033960
10376 0 3 -0.950000 6.521564 42.520550 29.689106
10377 0 4 0.425000 6.631097 42.369136 30.640934
10378 0 4 0.425000 4.678482 2.183970 29.484955
10379 0 3 -0.950000 31.303052 42.520550 29.689106
10380 0 4 0.425000 31.412585 42.369136 30.640934
10381 0 4 0.425000 29.459969 2.183970 29.484955
10382 0 3 -0.950000 68.463721 8.688734 29.335596
10383 0 4 0.425000 68.575531 9.007509 30.244871
10384 0 4 0.425000 65.636100 9.163930 26.564428
10385 0 3 -0.950000 83.020459 4.680468 29.865150
10386 0 4 0.425000 82.837474 4.456419 30.791011
10387 0 4 0.425000 83.036566 8.309845 29.127507
10388 0 3 -0.950000 93.245209 8.688734 29.335596
10389 0 4 0.425000 93.357019 9.007509 30.244871
10390 0 4 0.425000 96.583053 7.537967 28.033960
10391 0 3 -0.950000 21.172351 37.476078 29.689106
10392 0 4 0.425000 20.986455 37.456928 30.640934
10393 0 4 0.425000 24.333620 37.779127 29.484955
10394 0 3 -0.950000 45.848227 40.449465 29.865150
10395 0 4 0.425000 45.665243 40.225416 30.791011
10396 0 4 0.425000 45.423724 0.711932 29.618211
10397 0 3 -0.950000 53.562317 40.942395 29.865150
10398 0 4 0.425000 53.847841 40.895950 30.791011
10399 0 4 0.425000 51.016050 38.982133 29.618211
10400 0 3 -0.950000 24.252346 8.176297 29.698120
10401 0 4 0.425000 24.124809 8.422745 30.627581
10402 0 4 0.425000 27.353914 8.204956 28.693029
10403 0 3 -0.950000 80.304588 39.592041 30.014058
10404 0 4 0.425000 80.250076 39.649078 30.980844
10405 0 4 0.425000 80.163950 36.592532 28.693029
10406 0 3 -0.950000 105.086076 39.592041 30.014058
10407 0 4 0.425000 105.031564 39.649078 30.980844
10408 0 4 0.425000 104.945438 36.592532 28.693029
10409 0 3 -0.950000 28.355289 25.012111 20.117267
10410 0 4 0.425000 28.567189 24.502469 20.914929
10411 0 4 0.425000 28.119865 22.424479 17.985395
10412 0 3 -0.950000 53.136776 25.012111 20.117267
10413 0 4 0.425000 53.348677 24.502469 20.914929
10414 0 4 0.425000 52.901352 22.424479 17.985395
10415 0 3 -0.950000 6.521564 28.212952 20.927527
10416 0 4 0.425000 6.631097 28.061537 21.879355
10417 0 4 0.425000 7.468625 29.578278 23.826448
10418 0 3 -0.950000 59.206461 31.116601 26.691049
10419 0 4 0.425000 59.040172 30.854421 27.610021
10420 0 4 0.425000 57.031600 29.578278 23.826448
10421 0 3 -0.950000 49.278382 4.453732 29.865150
10422 0 4 0.425000 49.175842 4.724225 30.791011
10423 0 4 0.425000 52.249152 3.228730 29.618211
10424 0 3 -0.950000 74.059870 4.453732 29.865150
10425 0 4 0.425000 73.957330 4.724225 30.791011
10426 0 4 0.425000 77.030640 3.228730 29.618211
10427 0 3 -0.950000 123.378296 8.176297 29.698120
10428 0 4 0.425000 123.250760 8.422745 30.627581
10429 0 4 0.425000 2.572426 8.204956 28.693029
10430 0 3 -0.950000 98.841357 4.453732 29.865150
10431 0 4 0.425000 98.738818 4.724225 30.791011
10432 0 4 0.425000 101.812128 3.228730 29.618211
10433 0 3 -0.950000 3.999342 40.942395 29.865150
10434 0 4 0.425000 4.284866 40.895950 30.791011
10435 0 4 0.425000 1.453074 38.982133 29.618211
10436 0 3 -0.950000 28.780829 40.942395 29.865150
10437 0 4 0.425000 29.066354 40.895950 30.791011
10438 0 4 0.425000 26.234562 38.982133 29.618211
10439 0 3 -0.950000 24.496894 4.453732 29.865150
10440 0 4 0.425000 24.394354 4.724225 30.791011
10441 0 4 0.425000 27.467665 3.228730 29.618211
10442 0 3 -0.950000 70.629715 40.449465 29.865150
10443 0 4 0.425000 70.446731 40.225416 30.791011
10444 0 4 0.425000 70.205212 0.711932 29.618211
10445 0 3 -0.950000 80.866027 28.212952 20.927527
10446 0 4 0.425000 80.975560 28.061537 21.879355
10447 0 4 0.425000 81.813088 29.578278 23.826448
10448 0 3 -0.950000 102.699752 25.012111 20.117267
10449 0 4 0.425000 102.911652 24.502469 20.914929
10450 0 4 0.425000 102.464328 22.424479 17.985395
10451 0 3 -0.950000 55.028329 8.372903 29.372515
10452 0 4 0.425000 54.803009 8.751419 30.236724
10453 0 4 0.425000 52.560577 8.675419 27.013027
10454 0 3 -0.950000 8.675996 4.680468 29.865150
10455 0 4 0.425000 8.493011 4.456419 30.791011
10456 0 4 0.425000 11.639306 5.412089 29.933553
10457 0 3 -0.950000 9.478317 41.617959 29.689106
10458 0 4 0.425000 9.554679 41.788525 30.640934
10459 0 4 0.425000 8.160130 38.728696 29.484955
10460 0 3 -0.950000 70.735327 37.476078 29.689106
10461 0 4 0.425000 70.549431 37.456928 30.640934
10462 0 4 0.425000 73.896596 37.779127 29.484955
10463 0 3 -0.950000 95.516814 37.476078 29.689106
10464 0 4 0.425000 95.330919 37.456928 30.640934
10465 0 4 0.425000 98.678083 37.779127 29.484955
10466 0 3 -0.950000 120.298302 37.476078 29.689106
10467 0 4 0.425000 120.112406 37.456928 30.640934
10468 0 4 0.425000 123.459571 37.779127 29.484955
10469 0 3 -0.950000 32.956889 36.426099 28.831801
10470 0 4 0.425000 32.586749 36.126137 29.676739
10471 0 4 0.425000 32.941617 38.728696 29.484955
10472 0 3 -0.950000 57.738376 36.426099 28.831801
10473 0 4 0.425000 57.368236 36.126137 29.676739
10474 0 4 0.425000 55.382463 36.592532 28.693029
10475 0 3 -0.950000 86.827002 33.671004 27.941844
10476 0 4 0.425000 86.856984 32.985766 28.627737
10477 0 4 0.425000 88.929565 35.372674 29.762367
10478 0 3 -0.950000 111.608490 33.671004 27.941844
10479 0 4 0.425000 111.638472 32.985766 28.627737
10480 0 4 0.425000 113.711052 35.372674 29.762367
10481 0 3 -0.950000 37.076688 42.595993 30.014058
10482 0 4 0.425000 37.054548 42.520267 30.980844
10483 0 4 0.425000 38.625306 3.213137 29.618211
10484 0 3 -0.950000 58.344583 1.707082 29.689106
10485 0 4 0.425000 58.158687 1.687931 30.640934
10486 0 4 0.425000 61.202281 5.412089 29.933553
10487 0 3 -0.950000 34.259804 41.617959 29.689106
10488 0 4 0.425000 34.336167 41.788525 30.640934
10489 0 4 0.425000 36.039586 37.290616 29.933553
10490 0 3 -0.950000 55.523100 39.592041 30.014058
10491 0 4 0.425000 55.468589 39.649078 30.980844
10492 0 4 0.425000 51.447059 0.220091 29.933553
10493 0 3 -0.950000 83.822780 41.617959 29.689106
10494 0 4 0.425000 83.899142 41.788525 30.640934
10495 0 4 0.425000 85.602561 37.290616 29.933553
10496 0 3 -0.950000 108.604268 41.617959 29.689106
10497 0 4 0.425000 108.680630 41.788525 30.640934
10498 0 4 0.425000 110.384049 37.290616 29.933553
10499 0 3 -0.950000 33.457484 4.680468 29.865150
10500 0 4 0.425000 33.274499 4.456419 30.791011
10501 0 4 0.425000 36.420794 5.412089 29.933553
10502 0 3 -0.950000 79.809817 8.372903 29.372515
10503 0 4 0.425000 79.584497 8.751419 30.236724
10504 0 4 0.425000 77.342065 8.675419 27.013027
10505 0 3 -0.950000 104.591304 8.372903 29.372515
10506 0 4 0.425000 104.365985 8.751419 30.236724
10507 0 4 0.425000 107.818054 8.309845 29.127507
10508 0 3 -0.950000 107.801947 4.680468 29.865150
10509 0 4 0.425000 107.618962 4.456419 30.791011
10510 0 4 0.425000 110.765257 5.412089 29.933553
10511 0 3 -0.950000 6.526163 3.657557 30.014058
10512 0 4 0.425000 6.602814 3.676247 30.980844
10513 0 4 0.425000 1.884084 0.220091 29.933553
10514 0 3 -0.950000 31.307651 3.657557 30.014058
10515 0 4 0.425000 31.384302 3.676247 30.980844
10516 0 4 0.425000 26.665572 0.220091 29.933553
10517 0 3 -0.950000 56.089139 3.657557 30.014058
10518 0 4 0.425000 56.165790 3.676247 30.980844
10519 0 4 0.425000 58.371705 9.337769 26.564428
10520 0 3 -0.950000 80.866027 42.520550 29.689106
10521 0 4 0.425000 80.975560 42.369136 30.640934
10522 0 4 0.425000 76.228547 0.220091 29.933553
10523 0 3 -0.950000 105.647515 42.520550 29.689106
10524 0 4 0.425000 105.757048 42.369136 30.640934
10525 0 4 0.425000 101.010035 0.220091 29.933553
10526 0 3 -0.950000 9.546267 36.437554 29.521290
10527 0 4 0.425000 9.540216 36.168329 30.453160
10528 0 4 0.425000 10.913731 34.941344 27.368907
10529 0 3 -0.950000 43.698395 39.426554 30.014058
10530 0 4 0.425000 43.775046 39.445244 30.980844
10531 0 4 0.425000 41.850713 37.952966 29.484955
10532 0 3 -0.950000 68.867223 34.525155 28.957436
10533 0 4 0.425000 69.090178 34.138986 29.818867
10534 0 4 0.425000 65.649684 34.576615 27.461552
10535 0 3 -0.950000 93.261370 39.426554 30.014058
10536 0 4 0.425000 93.338021 39.445244 30.980844
10537 0 4 0.425000 91.413689 37.952966 29.484955
10538 0 3 -0.950000 118.042858 39.426554 30.014058
10539 0 4 0.425000 118.119509 39.445244 30.980844
10540 0 4 0.425000 116.195176 37.952966 29.484955
10541 0 3 -0.950000 14.565816 36.343334 29.433035
10542 0 4 0.425000 14.375298 36.106706 30.354235
10543 0 4 0.425000 12.768982 31.116057 26.122152
10544 0 3 -0.950000 18.916907 39.426554 30.014058
10545 0 4 0.425000 18.993558 39.445244 30.980844
10546 0 4 0.425000 24.030050 41.181086 29.933553
10547 0 3 -0.950000 8.129590 33.788596 26.944624
10548 0 4 0.425000 8.415114 33.742151 27.870485
10549 0 4 0.425000 6.014332 35.989087 27.013027
10550 0 3 -0.950000 12.295200 42.595993 30.014058
10551 0 4 0.425000 12.273060 42.520267 30.980844
10552 0 4 0.425000 14.635191 7.885309 29.605294
10553 0 3 -0.950000 82.474053 33.788596 26.944624
10554 0 4 0.425000 82.759577 33.742151 27.870485
10555 0 4 0.425000 80.358795 35.989087 27.013027
10556 0 3 -0.950000 107.255540 33.788596 26.944624
10557 0 4 0.425000 107.541065 33.742151 27.870485
10558 0 4 0.425000 105.140283 35.989087 27.013027
10559 0 3 -0.950000 41.171573 5.173399 29.865150
10560 0 4 0.425000 41.457097 5.126954 30.791011
10561 0 4 0.425000 41.762766 7.378495 27.713878
10562 0 3 -0.950000 36.887638 40.222728 29.865150
10563 0 4 0.425000 36.785098 40.493222 30.791011
10564 0 4 0.425000 39.858408 38.997727 29.618211
10565 0 3 -0.950000 61.669126 40.222728 29.865150
10566 0 4 0.425000 61.566586 40.493222 30.791011
10567 0 4 0.425000 64.639896 38.997727 29.618211
10568 0 3 -0.950000 86.450613 40.222728 29.865150
10569 0 4 0.425000 86.348074 40.493222 30.791011
10570 0 4 0.425000 89.421384 38.997727 29.618211
10571 0 3 -0.950000 111.232101 40.222728 29.865150
10572 0 4 0.425000 111.129561 40.493222 30.791011
10573 0 4 0.425000 114.202872 38.997727 29.618211
10574 0 3 -0.950000 12.298949 9.251792 27.941844
10575 0 4 0.425000 12.268967 9.937030 28.627737
10576 0 4 0.425000 8.808730 9.337769 26.564428
10577 0 3 -0.950000 28.537766 30.577136 25.778402
10578 0 4 0.425000 28.474177 30.074439 26.605537
10579 0 4 0.425000 25.912130 31.807929 24.467553
10580 0 3 -0.950000 53.319254 30.577136 25.778402
10581 0 4 0.425000 53.255665 30.074439 26.605537
10582 0 4 0.425000 50.693618 31.807929 24.467553
10583 0 3 -0.950000 83.126070 1.707082 29.689106
10584 0 4 0.425000 82.940175 1.687931 30.640934
10585 0 4 0.425000 85.983769 5.412089 29.933553
10586 0 3 -0.950000 107.907558 1.707082 29.689106
10587 0 4 0.425000 107.721663 1.687931 30.640934
10588 0 4 0.425000 112.969769 3.213137 29.618211
10589 0 3 -0.950000 18.350869 3.823044 30.014058
10590 0 4 0.425000 18.296357 3.880081 30.980844
10591 0 4 0.425000 20.550874 2.959699 29.484955
10592 0 3 -0.950000 61.861924 9.251792 27.941844
10593 0 4 0.425000 61.831942 9.937030 28.627737
10594 0 4 0.425000 64.198167 7.885309 29.605294
10595 0 3 -0.950000 86.643412 9.251792 27.941844
10596 0 4 0.425000 86.613430 9.937030 28.627737
10597 0 4 0.425000 88.979655 7.885309 29.605294
10598 0 3 -0.950000 115.516036 5.173399 29.865150
10599 0 4 0.425000 115.801561 5.126954 30.791011
10600 0 4 0.425000 115.199075 9.163930 26.564428
10601 0 3 -0.950000 46.650548 5.848963 29.689106
10602 0 4 0.425000 46.726911 6.019528 30.640934
10603 0 4 0.425000 47.020077 7.537967 28.033960
10604 0 3 -0.950000 67.913844 3.823044 30.014058
10605 0 4 0.425000 67.859333 3.880081 30.980844
10606 0 4 0.425000 70.113849 2.959699 29.484955
10607 0 3 -0.950000 96.213524 5.848963 29.689106
10608 0 4 0.425000 96.289886 6.019528 30.640934
10609 0 4 0.425000 97.993305 1.521619 29.933553
10610 0 3 -0.950000 120.995011 5.848963 29.689106
10611 0 4 0.425000 121.071374 6.019528 30.640934
10612 0 4 0.425000 122.774793 1.521619 29.933553
10613 0 3 -0.950000 53.960722 12.507163 25.786527
10614 0 4 0.425000 53.997900 13.091749 26.559688
10615 0 4 0.425000 56.499032 11.103101 26.358323
10616 0 3 -0.950000 79.086587 14.618430 23.099906
10617 0 4 0.425000 78.931038 15.134692 23.906242
10618 0 4 0.425000 82.166842 13.140278 23.826448
10619 0 3 -0.950000 103.868075 14.618430 23.099906
10620 0 4 0.425000 103.712525 15.134692 23.906242
10621 0 4 0.425000 106.948330 13.140278 23.826448
10622 0 3 -0.950000 4.397747 12.507163 25.786527
10623 0 4 0.425000 4.434924 13.091749 26.559688
10624 0 4 0.425000 6.936056 11.103101 26.358323
10625 0 3 -0.950000 29.523612 14.618430 23.099906
10626 0 4 0.425000 29.368062 15.134692 23.906242
10627 0 4 0.425000 32.603867 13.140278 23.826448
10628 0 3 -0.950000 9.643485 31.116601 26.691049
10629 0 4 0.425000 9.477197 30.854421 27.610021
10630 0 4 0.425000 3.378810 34.027287 27.013027
10631 0 3 -0.950000 34.424973 31.116601 26.691049
10632 0 4 0.425000 34.258685 30.854421 27.610021
10633 0 4 0.425000 32.250113 29.578278 23.826448
10634 0 3 -0.950000 60.977888 28.211622 22.655906
10635 0 4 0.425000 61.032798 27.664833 23.455222
10636 0 4 0.425000 62.143805 25.901197 18.776299
10637 0 3 -0.950000 85.759376 28.211622 22.655906
10638 0 4 0.425000 85.814286 27.664833 23.455222
10639 0 4 0.425000 87.283441 30.799167 23.643902
10640 0 3 -0.950000 110.540863 28.211622 22.655906
10641 0 4 0.425000 110.595774 27.664833 23.455222
10642 0 4 0.425000 112.064929 30.799167 23.643902
10643 0 3 -0.950000 14.081304 26.989301 22.836143
10644 0 4 0.425000 14.017326 26.481834 23.660330
10645 0 4 0.425000 12.580830 25.901197 18.776299
10646 0 3 -0.950000 38.862792 26.989301 22.836143
10647 0 4 0.425000 38.798814 26.481834 23.660330
10648 0 4 0.425000 37.362317 25.901197 18.776299
10649 0 3 -0.950000 88.425767 26.989301 22.836143
10650 0 4 0.425000 88.361790 26.481834 23.660330
10651 0 4 0.425000 86.925293 25.901197 18.776299
10652 0 3 -0.950000 113.207255 26.989301 22.836143
10653 0 4 0.425000 113.143277 26.481834 23.660330
10654 0 4 0.425000 111.706781 25.901197 18.776299
10655 0 3 -0.950000 64.878246 25.510201 21.009785
10656 0 4 0.425000 64.904023 25.187669 21.924230
10657 0 4 0.425000 67.252878 25.869917 19.943040
10658 0 3 -0.950000 85.602684 13.664291 24.048867
10659 0 4 0.425000 85.645716 13.940481 24.977720
10660 0 4 0.425000 87.195493 14.532294 21.872826
10661 0 3 -0.950000 110.384172 13.664291 24.048867
10662 0 4 0.425000 110.427203 13.940481 24.977720
10663 0 4 0.425000 111.976981 14.532294 21.872826
10664 0 3 -0.950000 77.021202 17.629642 20.070222
10665 0 4 0.425000 76.946497 18.100173 20.915160
10666 0 4 0.425000 78.036594 20.294077 17.985395
10667 0 3 -0.950000 0.415500 33.295665 26.944624
10668 0 4 0.425000 0.232515 33.071617 27.870485
10669 0 4 0.425000 1.130643 31.807929 24.467553
10670 0 3 -0.950000 42.405859 28.967844 23.422298
10671 0 4 0.425000 42.354213 28.610582 24.322629
10672 0 4 0.425000 45.195983 29.935752 23.281858
10673 0 3 -0.950000 67.187347 28.967844 23.422298
10674 0 4 0.425000 67.135701 28.610582 24.322629
10675 0 4 0.425000 70.205212 29.327129 20.856632
10676 0 3 -0.950000 74.759963 33.295665 26.944624
10677 0 4 0.425000 74.576979 33.071617 27.870485
10678 0 4 0.425000 77.723273 34.027287 27.013027
10679 0 3 -0.950000 90.379860 30.205241 26.204022
10680 0 4 0.425000 90.211520 29.734863 27.035470
10681 0 4 0.425000 93.715941 31.240291 26.206981
10682 0 3 -0.950000 116.750323 28.967844 23.422298
10683 0 4 0.425000 116.698677 28.610582 24.322629
10684 0 4 0.425000 119.768188 29.327129 20.856632
10685 0 3 -0.950000 99.541451 33.295665 26.944624
10686 0 4 0.425000 99.358466 33.071617 27.870485
10687 0 4 0.425000 102.504761 34.027287 27.013027
10688 0 3 -0.950000 22.872442 30.483030 26.231578
10689 0 4 0.425000 22.913045 30.038424 27.092727
10690 0 4 0.425000 19.371477 31.240291 26.206981
10691 0 3 -0.950000 23.425102 14.052034 23.732277
10692 0 4 0.425000 23.413661 14.437942 24.622133
10693 0 4 0.425000 20.619690 12.938380 21.677583
10694 0 3 -0.950000 47.935300 12.371453 26.256859
10695 0 4 0.425000 48.048668 12.796667 27.121290
10696 0 4 0.425000 49.882994 10.955394 26.352800
10697 0 3 -0.950000 36.039709 13.664291 24.048867
10698 0 4 0.425000 36.082740 13.940481 24.977720
10699 0 4 0.425000 37.632518 14.532294 21.872826
10700 0 3 -0.950000 72.988077 14.052034 23.732277
10701 0 4 0.425000 72.976636 14.437942 24.622133
10702 0 4 0.425000 70.182666 12.938380 21.677583
10703 0 3 -0.950000 97.769565 14.052034 23.732277
10704 0 4 0.425000 97.758124 14.437942 24.622133
10705 0 4 0.425000 94.964153 12.938380 21.677583
10706 0 3 -0.950000 122.551053 14.052034 23.732277
10707 0 4 0.425000 122.539612 14.437942 24.622133
10708 0 4 0.425000 119.745641 12.938380 21.677583
10709 0 3 -0.950000 16.035397 30.205241 26.204022
10710 0 4 0.425000 15.867057 29.734863 27.035470
10711 0 4 0.425000 20.642237 29.327129 20.856632
10712 0 3 -0.950000 47.653929 30.483030 26.231578
10713 0 4 0.425000 47.694532 30.038424 27.092727
10714 0 4 0.425000 46.990470 34.796706 27.897284
10715 0 3 -0.950000 72.621135 29.161880 23.531462
10716 0 4 0.425000 72.405991 28.777490 24.395671
10717 0 4 0.425000 76.033702 29.438733 22.851976
10718 0 3 -0.950000 97.216905 30.483030 26.231578
10719 0 4 0.425000 97.257508 30.038424 27.092727
10720 0 4 0.425000 100.256594 31.807929 24.467553
10721 0 3 -0.950000 122.184111 29.161880 23.531462
10722 0 4 0.425000 121.968966 28.777490 24.395671
10723 0 4 0.425000 1.689239 29.438733 22.851976
10724 0 3 -0.950000 65.799374 18.761330 18.183045
10725 0 4 0.425000 65.696834 19.031824 19.108906
10726 0 4 0.425000 66.052418 20.092179 15.836530
10727 0 3 -0.950000 90.580861 18.761330 18.183045
10728 0 4 0.425000 90.478322 19.031824 19.108906
10729 0 4 0.425000 90.833906 20.092179 15.836530
10730 0 3 -0.950000 16.236398 18.761330 18.183045
10731 0 4 0.425000 16.133859 19.031824 19.108906
10732 0 4 0.425000 16.489442 20.092179 15.836530
10733 0 3 -0.950000 41.017886 18.761330 18.183045
10734 0 4 0.425000 40.915346 19.031824 19.108906
10735 0 4 0.425000 41.270930 20.092179 15.836530
