3984
in2o3-111-oh Lattice="57.23039444211442 0 0 0 49.56297545547483 0 0 0 205.0"
In 0.000000 0.000000 1.655938
In 10.730699 22.716364 7.496991
In 0.000000 4.130248 7.496991
In 3.576900 22.716364 7.496991
In 0.000000 24.781488 10.417517
In 3.576900 2.065124 4.576465
In 0.000000 20.651240 4.576465
In 10.730699 2.065124 4.576465
In 6.914147 1.926761 4.380790
In 3.816552 20.789603 4.772140
In 10.970351 0.138363 1.851614
In 14.067946 22.578000 7.301316
In 9.181901 5.024447 4.380790
In 1.548798 5.301173 4.772140
In 1.548798 21.822165 1.851614
In 2.028102 0.894199 7.301316
In 12.519149 17.830280 4.380790
In 8.942249 23.472199 4.772140
In 1.788450 2.820959 1.851614
In 12.519149 1.309289 7.301316
In 0.239652 18.724479 1.851614
In 3.337247 24.643124 1.460263
In 3.337247 24.643124 10.221842
In 0.239652 2.203487 4.772140
In 5.125697 3.236049 1.851614
In 12.758801 2.959323 1.460263
In 12.758801 2.959323 10.221842
In 12.279497 23.887289 4.772140
In 8.942249 2.820959 1.851614
In 12.519149 21.960528 1.460263
In 12.519149 21.960528 10.221842
In 1.788450 23.472199 4.772140
O 1.699743 23.860442 2.687468
O 9.030956 21.436813 8.021518
O 13.997124 4.249199 5.331129
O 3.887375 0.016521 8.106797
O 14.255376 1.932543 2.687468
O 5.534895 21.884119 8.021518
O 10.782922 22.388009 5.331129
O 12.349604 3.358305 8.106797
O 12.660079 23.769990 2.687468
O 14.049346 6.242044 8.021518
O 3.835152 22.925767 5.331129
O 12.378219 21.406662 8.106797
O 1.699743 23.860442 11.449047
O 1.877157 0.785573 5.100991
O 13.997124 20.770191 2.410602
O 11.041174 4.146769 5.186271
O 14.255376 1.932543 11.449047
O 12.688694 1.232879 5.100991
O 3.629122 1.736769 2.410602
O 12.349604 19.879296 5.186271
O 12.660079 23.769990 11.449047
O 14.049346 22.763036 5.100991
O 10.988951 2.274528 2.410602
O 5.224420 0.755422 5.186271
O 12.607856 0.921045 9.385988
O 5.276642 3.344675 4.051938
O 0.310475 20.532289 6.742327
O 10.420224 24.764967 3.966659
O 0.052223 22.848945 9.385988
O 8.772704 2.897369 4.051938
O 3.524677 2.393479 6.742327
O 1.957995 21.423183 3.966659
O 1.647520 1.011498 9.385988
O 0.258252 18.539444 4.051938
O 10.472447 1.855720 6.742327
O 1.929380 3.374826 3.966659
O 12.607856 0.921045 0.624409
O 12.430442 23.995915 6.972465
O 0.310475 4.011297 9.662853
O 3.266425 20.634719 6.887185
O 0.052223 22.848945 0.624409
O 1.618905 23.548609 6.972465
O 10.678476 23.044718 9.662853
O 1.957995 4.902191 6.887185
O 1.647520 1.011498 0.624409
O 0.258252 2.018452 6.972465
O 3.318647 22.506960 9.662853
O 9.083179 24.026065 6.887185
In 7.153799 12.390744 1.655938
In 3.576900 10.325620 7.496991
In 7.153799 16.520992 7.496991
In 10.730699 10.325620 7.496991
In 7.153799 12.390744 10.417517
In 10.730699 14.455868 4.576465
In 7.153799 8.260496 4.576465
In 3.576900 14.455868 4.576465
In 14.067946 14.317505 4.380790
In 10.970351 8.398859 4.772140
In 3.816552 12.529107 1.851614
In 6.914147 10.187257 7.301316
In 2.028102 17.415191 4.380790
In 8.702597 17.691917 4.772140
In 8.702597 9.431421 1.851614
In 9.181901 13.284943 7.301316
In 5.365349 5.439537 4.380790
In 1.788450 11.081455 4.772140
In 8.942249 15.211703 1.851614
In 5.365349 13.700032 7.301316
In 7.393452 6.333735 1.851614
In 10.491047 12.252381 1.460263
In 10.491047 12.252381 10.221842
In 7.393452 14.594231 4.772140
In 12.279497 15.626793 1.851614
In 5.605002 15.350067 1.460263
In 5.605002 15.350067 10.221842
In 5.125697 11.496545 4.772140
In 1.788450 15.211703 1.851614
In 5.365349 9.569785 1.460263
In 5.365349 9.569785 10.221842
In 8.942249 11.081455 4.772140
O 8.853542 11.469699 2.687468
O 1.877157 9.046069 8.021518
O 6.843324 16.639943 5.331129
O 11.041174 12.407265 8.106797
O 7.101577 14.323287 2.687468
O 12.688694 9.493375 8.021518
O 3.629122 9.997265 5.331129
O 5.195804 15.749048 8.106797
O 5.506279 11.379246 2.687468
O 6.895547 18.632788 8.021518
O 10.988951 10.535023 5.331129
O 5.224420 9.015918 8.106797
O 8.853542 11.469699 11.449047
O 9.030956 13.176317 5.100991
O 6.843324 8.379447 2.410602
O 3.887375 16.537513 5.186271
O 7.101577 14.323287 11.449047
O 5.534895 13.623623 5.100991
O 10.782922 14.127513 2.410602
O 5.195804 7.488553 5.186271
O 5.506279 11.379246 11.449047
O 6.895547 10.372292 5.100991
O 3.835152 14.665271 2.410602
O 12.378219 13.146166 5.186271
O 5.454057 13.311789 9.385988
O 12.430442 15.735419 4.051938
O 7.464274 8.141545 6.742327
O 3.266425 12.374223 3.966659
O 7.206022 10.458201 9.385988
O 1.618905 15.288113 4.051938
O 10.678476 14.784223 6.742327
O 9.111794 9.032439 3.966659
O 8.801319 13.402242 9.385988
O 7.412051 6.148700 4.051938
O 3.318647 14.246464 6.742327
O 9.083179 15.765569 3.966659
O 5.454057 13.311789 0.624409
O 5.276642 11.605171 6.972465
O 7.464274 16.402041 9.662853
O 10.420224 8.243975 6.887185
O 7.206022 10.458201 0.624409
O 8.772704 11.157865 6.972465
O 3.524677 10.653975 9.662853
O 9.111794 17.292935 6.887185
O 8.801319 13.402242 0.624409
O 7.412051 14.409196 6.972465
O 10.472447 10.116216 9.662853
O 1.929380 11.635322 6.887185
In 7.153799 4.130248 7.496991
In 3.576900 2.065124 13.338044
In 7.153799 8.260496 13.338044
In 10.730699 2.065124 13.338044
In 10.730699 6.195372 10.417517
In 7.153799 24.781488 10.417517
In 3.576900 6.195372 10.417517
In 14.067946 6.057009 10.221842
In 10.970351 0.138363 10.613193
In 3.816552 4.268611 7.692666
In 6.914147 1.926761 13.142369
In 2.028102 9.154695 10.221842
In 8.702597 9.431421 10.613193
In 8.702597 1.170925 7.692666
In 9.181901 5.024447 13.142369
In 5.365349 21.960528 10.221842
In 1.788450 2.820959 10.613193
In 8.942249 6.951207 7.692666
In 5.365349 5.439537 13.142369
In 7.393452 22.854727 7.692666
In 10.491047 3.991885 7.301316
In 7.393452 6.333735 10.613193
In 12.279497 7.366297 7.692666
In 5.605002 7.089571 7.301316
In 5.125697 3.236049 10.613193
In 1.788450 6.951207 7.692666
In 5.365349 1.309289 7.301316
In 8.942249 2.820959 10.613193
O 8.853542 3.209203 8.528521
O 1.877157 0.785573 13.862570
O 6.843324 8.379447 11.172181
O 11.041174 4.146769 13.947850
O 7.101577 6.062791 8.528521
O 12.688694 1.232879 13.862570
O 3.629122 1.736769 11.172181
O 5.195804 7.488553 13.947850
O 5.506279 3.118750 8.528521
O 6.895547 10.372292 13.862570
O 10.988951 2.274528 11.172181
O 5.224420 0.755422 13.947850
O 9.030956 4.915821 10.942044
O 6.843324 0.118951 8.251655
O 3.887375 8.277017 11.027323
O 5.534895 5.363127 10.942044
O 10.782922 5.867017 8.251655
O 5.195804 24.009544 11.027323
O 6.895547 2.111796 10.942044
O 3.835152 6.404776 8.251655
O 12.378219 4.885670 11.027323
O 12.430442 7.474923 9.892991
O 7.464274 24.662537 12.583380
O 3.266425 4.113727 9.807712
O 1.618905 7.027617 9.892991
O 10.678476 6.523727 12.583380
O 9.111794 0.771943 9.807712
O 7.412051 22.669692 9.892991
O 3.318647 5.985968 12.583380
O 9.083179 7.505074 9.807712
O 5.454057 5.051293 6.465461
O 5.276642 3.344675 12.813517
O 10.420224 24.764967 12.728238
O 7.206022 2.197705 6.465461
O 8.772704 2.897369 12.813517
O 9.111794 9.032439 12.728238
O 8.801319 5.141746 6.465461
O 7.412051 6.148700 12.813517
O 1.929380 3.374826 12.728238
In 0.000000 16.520992 7.496991
In 10.730699 14.455868 13.338044
In 0.000000 20.651240 13.338044
In 3.576900 14.455868 13.338044
In 3.576900 18.586116 10.417517
In 0.000000 12.390744 10.417517
In 10.730699 18.586116 10.417517
In 6.914147 18.447752 10.221842
In 3.816552 12.529107 10.613193
In 10.970351 16.659355 7.692666
In 14.067946 14.317505 13.142369
In 9.181901 21.545438 10.221842
In 1.548798 21.822165 10.613193
In 1.548798 13.561669 7.692666
In 2.028102 17.415191 13.142369
In 12.519149 9.569785 10.221842
In 8.942249 15.211703 10.613193
In 1.788450 19.341951 7.692666
In 12.519149 17.830280 13.142369
In 0.239652 10.463983 7.692666
In 3.337247 16.382629 7.301316
In 0.239652 18.724479 10.613193
In 5.125697 19.757041 7.692666
In 12.758801 19.480314 7.301316
In 12.279497 15.626793 10.613193
In 8.942249 19.341951 7.692666
In 12.519149 13.700032 7.301316
In 1.788450 15.211703 10.613193
O 1.699743 15.599947 8.528521
O 9.030956 13.176317 13.862570
O 13.997124 20.770191 11.172181
O 3.887375 16.537513 13.947850
O 14.255376 18.453535 8.528521
O 5.534895 13.623623 13.862570
O 10.782922 14.127513 11.172181
O 12.349604 19.879296 13.947850
O 12.660079 15.509494 8.528521
O 14.049346 22.763036 13.862570
O 3.835152 14.665271 11.172181
O 12.378219 13.146166 13.947850
O 1.877157 17.306565 10.942044
O 13.997124 12.509695 8.251655
O 11.041174 20.667761 11.027323
O 12.688694 17.753871 10.942044
O 3.629122 18.257761 8.251655
O 12.349604 11.618801 11.027323
O 14.049346 14.502540 10.942044
O 10.988951 18.795519 8.251655
O 5.224420 17.276414 11.027323
O 5.276642 19.865667 9.892991
O 0.310475 12.271793 12.583380
O 10.420224 16.504471 9.807712
O 8.772704 19.418361 9.892991
O 3.524677 18.914471 12.583380
O 1.957995 13.162687 9.807712
O 0.258252 10.278948 9.892991
O 10.472447 18.376712 12.583380
O 1.929380 19.895817 9.807712
O 12.607856 17.442037 6.465461
O 12.430442 15.735419 12.813517
O 3.266425 12.374223 12.728238
O 0.052223 14.588449 6.465461
O 1.618905 15.288113 12.813517
O 1.957995 21.423183 12.728238
O 1.647520 17.532490 6.465461
O 0.258252 18.539444 12.813517
O 9.083179 15.765569 12.728238
In 0.000000 8.260496 13.338044
In 10.730699 6.195372 1.655938
In 0.000000 12.390744 1.655938
In 3.576900 6.195372 1.655938
In 0.000000 8.260496 4.576465
In 10.970351 8.398859 13.533719
In 14.067946 6.057009 1.460263
In 1.548798 5.301173 13.533719
In 2.028102 9.154695 1.460263
In 1.788450 11.081455 13.533719
In 12.519149 9.569785 1.460263
In 0.239652 2.203487 13.533719
In 3.337247 8.122133 13.142369
In 3.337247 8.122133 4.380790
In 5.125697 11.496545 13.533719
In 12.758801 11.219819 13.142369
In 12.758801 11.219819 4.380790
In 8.942249 11.081455 13.533719
In 12.519149 5.439537 13.142369
In 12.519149 5.439537 4.380790
O 1.699743 7.339451 14.369574
O 9.030956 4.915821 2.180465
O 3.887375 8.277017 2.265744
O 14.255376 10.193039 14.369574
O 5.534895 5.363127 2.180465
O 12.349604 11.618801 2.265744
O 12.660079 7.248998 14.369574
O 14.049346 14.502540 2.180465
O 12.378219 4.885670 2.265744
O 1.699743 7.339451 5.607995
O 13.997124 4.249199 14.092708
O 14.255376 10.193039 5.607995
O 3.629122 9.997265 14.092708
O 12.660079 7.248998 5.607995
O 10.988951 10.535023 14.092708
O 12.607856 9.181541 3.544935
O 0.310475 4.011297 0.901274
O 0.052223 6.327953 3.544935
O 3.524677 10.653975 0.901274
O 1.647520 9.271994 3.544935
O 10.472447 10.116216 0.901274
O 12.607856 9.181541 12.306514
O 12.430442 7.474923 1.131412
O 0.310475 12.271793 3.821801
O 3.266425 4.113727 1.046133
O 0.052223 6.327953 12.306514
O 1.618905 7.027617 1.131412
O 10.678476 6.523727 3.821801
O 1.957995 13.162687 1.046133
O 1.647520 9.271994 12.306514
O 0.258252 10.278948 1.131412
O 3.318647 5.985968 3.821801
O 9.083179 7.505074 1.046133
In 7.153799 20.651240 13.338044
In 3.576900 18.586116 1.655938
In 7.153799 24.781488 1.655938
In 10.730699 18.586116 1.655938
In 7.153799 20.651240 4.576465
In 3.816552 20.789603 13.533719
In 6.914147 18.447752 1.460263
In 8.702597 17.691917 13.533719
In 9.181901 21.545438 1.460263
In 8.942249 23.472199 13.533719
In 5.365349 21.960528 1.460263
In 7.393452 14.594231 13.533719
In 10.491047 20.512876 13.142369
In 10.491047 20.512876 4.380790
In 12.279497 23.887289 13.533719
In 5.605002 23.610562 13.142369
In 5.605002 23.610562 4.380790
In 1.788450 23.472199 13.533719
In 5.365349 17.830280 13.142369
In 5.365349 17.830280 4.380790
O 8.853542 19.730194 14.369574
O 1.877157 17.306565 2.180465
O 11.041174 20.667761 2.265744
O 7.101577 22.583783 14.369574
O 12.688694 17.753871 2.180465
O 5.195804 24.009544 2.265744
O 5.506279 19.639742 14.369574
O 6.895547 2.111796 2.180465
O 5.224420 17.276414 2.265744
O 8.853542 19.730194 5.607995
O 6.843324 16.639943 14.092708
O 7.101577 22.583783 5.607995
O 10.782922 22.388009 14.092708
O 5.506279 19.639742 5.607995
O 3.835152 22.925767 14.092708
O 5.454057 21.572285 3.544935
O 7.464274 16.402041 0.901274
O 7.206022 18.718697 3.544935
O 10.678476 23.044718 0.901274
O 8.801319 21.662737 3.544935
O 3.318647 22.506960 0.901274
O 5.454057 21.572285 12.306514
O 5.276642 19.865667 1.131412
O 7.464274 24.662537 3.821801
O 10.420224 16.504471 1.046133
O 7.206022 18.718697 12.306514
O 8.772704 19.418361 1.131412
O 3.524677 18.914471 3.821801
O 9.111794 0.771943 1.046133
O 8.801319 21.662737 12.306514
O 7.412051 22.669692 1.131412
O 10.472447 18.376712 3.821801
O 1.929380 19.895817 1.046133
In 7.153799 4.130248 16.258570
In 10.491047 3.991885 16.062895
In 5.605002 7.089571 16.062895
In 5.365349 1.309289 16.062895
O 8.853542 3.209203 17.290100
O 7.101577 6.062791 17.290100
O 5.506279 3.118750 17.290100
O 5.454057 5.051293 15.227040
O 7.206022 2.197705 15.227040
O 8.801319 5.141746 15.227040
O 7.464274 8.141545 15.503906
O 3.524677 2.393479 15.503906
O 10.472447 1.855720 15.503906
In 0.000000 16.520992 16.258570
In 3.337247 16.382629 16.062895
In 12.758801 19.480314 16.062895
In 12.519149 13.700032 16.062895
O 1.699743 15.599947 17.290100
O 14.255376 18.453535 17.290100
O 12.660079 15.509494 17.290100
O 12.607856 17.442037 15.227040
O 0.052223 14.588449 15.227040
O 1.647520 17.532490 15.227040
O 0.310475 20.532289 15.503906
O 10.678476 14.784223 15.503906
O 3.318647 14.246464 15.503906
In 3.576900 10.325620 16.258570
In 0.000000 4.130248 16.258570
In 10.730699 10.325620 16.258570
In 6.914147 10.187257 16.062895
In 3.816552 4.268611 16.454245
In 9.181901 13.284943 16.062895
In 1.548798 13.561669 16.454245
In 12.519149 1.309289 16.062895
In 8.942249 6.951207 16.454245
In 0.239652 10.463983 16.454245
In 12.279497 7.366297 16.454245
In 1.788450 6.951207 16.454245
O 13.997124 12.509695 17.013234
O 10.782922 5.867017 17.013234
O 3.835152 6.404776 17.013234
O 1.877157 9.046069 16.783097
O 11.041174 12.407265 16.868376
O 12.688694 9.493375 16.783097
O 12.349604 3.358305 16.868376
O 14.049346 6.242044 16.783097
O 5.224420 9.015918 16.868376
O 5.276642 11.605171 15.734044
O 10.420224 8.243975 15.648764
O 8.772704 11.157865 15.734044
O 1.957995 4.902191 15.648764
O 0.258252 2.018452 15.734044
O 1.929380 11.635322 15.648764
In 10.730699 22.716364 16.258570
In 7.153799 16.520992 16.258570
In 3.576900 22.716364 16.258570
In 14.067946 22.578000 16.062895
In 10.970351 16.659355 16.454245
In 2.028102 0.894199 16.062895
In 8.702597 1.170925 16.454245
In 5.365349 13.700032 16.062895
In 1.788450 19.341951 16.454245
In 7.393452 22.854727 16.454245
In 5.125697 19.757041 16.454245
In 8.942249 19.341951 16.454245
O 6.843324 0.118951 17.013234
O 3.629122 18.257761 17.013234
O 10.988951 18.795519 17.013234
O 9.030956 21.436813 16.783097
O 3.887375 0.016521 16.868376
O 5.534895 21.884119 16.783097
O 5.195804 15.749048 16.868376
O 6.895547 18.632788 16.783097
O 12.378219 21.406662 16.868376
O 12.430442 23.995915 15.734044
O 3.266425 20.634719 15.648764
O 1.618905 23.548609 15.734044
O 9.111794 17.292935 15.648764
O 7.412051 14.409196 15.734044
O 9.083179 24.026065 15.648764
In 0.000000 24.781488 1.655938
In 10.730699 47.497851 7.496991
In 0.000000 28.911736 7.496991
In 3.576900 47.497851 7.496991
In 0.000000 49.562975 10.417517
In 3.576900 26.846612 4.576465
In 0.000000 45.432728 4.576465
In 10.730699 26.846612 4.576465
In 6.914147 26.708248 4.380790
In 3.816552 45.571091 4.772140
In 10.970351 24.919851 1.851614
In 14.067946 47.359488 7.301316
In 9.181901 29.805934 4.380790
In 1.548798 30.082661 4.772140
In 1.548798 46.603653 1.851614
In 2.028102 25.675686 7.301316
In 12.519149 42.611768 4.380790
In 8.942249 48.253687 4.772140
In 1.788450 27.602447 1.851614
In 12.519149 26.090776 7.301316
In 0.239652 43.505967 1.851614
In 3.337247 49.424612 1.460263
In 3.337247 49.424612 10.221842
In 0.239652 26.984975 4.772140
In 5.125697 28.017537 1.851614
In 12.758801 27.740810 1.460263
In 12.758801 27.740810 10.221842
In 12.279497 48.668777 4.772140
In 8.942249 27.602447 1.851614
In 12.519149 46.742016 1.460263
In 12.519149 46.742016 10.221842
In 1.788450 48.253687 4.772140
O 1.699743 48.641930 2.687468
O 9.030956 46.218301 8.021518
O 13.997124 29.030687 5.331129
O 3.887375 24.798009 8.106797
O 14.255376 26.714031 2.687468
O 5.534895 46.665607 8.021518
O 10.782922 47.169497 5.331129
O 12.349604 28.139792 8.106797
O 12.660079 48.551478 2.687468
O 14.049346 31.023531 8.021518
O 3.835152 47.707255 5.331129
O 12.378219 46.188150 8.106797
O 1.699743 48.641930 11.449047
O 1.877157 25.567061 5.100991
O 13.997124 45.551679 2.410602
O 11.041174 28.928257 5.186271
O 14.255376 26.714031 11.449047
O 12.688694 26.014367 5.100991
O 3.629122 26.518257 2.410602
O 12.349604 44.660784 5.186271
O 12.660079 48.551478 11.449047
O 14.049346 47.544523 5.100991
O 10.988951 27.056015 2.410602
O 5.224420 25.536910 5.186271
O 12.607856 25.702533 9.385988
O 5.276642 28.126163 4.051938
O 0.310475 45.313776 6.742327
O 10.420224 49.546454 3.966659
O 0.052223 47.630432 9.385988
O 8.772704 27.678857 4.051938
O 3.524677 27.174966 6.742327
O 1.957995 46.204671 3.966659
O 1.647520 25.792985 9.385988
O 0.258252 43.320932 4.051938
O 10.472447 26.637208 6.742327
O 1.929380 28.156313 3.966659
O 12.607856 25.702533 0.624409
O 12.430442 48.777402 6.972465
O 0.310475 28.792785 9.662853
O 3.266425 45.416207 6.887185
O 0.052223 47.630432 0.624409
O 1.618905 48.330096 6.972465
O 10.678476 47.826206 9.662853
O 1.957995 29.683679 6.887185
O 1.647520 25.792985 0.624409
O 0.258252 26.799940 6.972465
O 3.318647 47.288448 9.662853
O 9.083179 48.807553 6.887185
In 7.153799 37.172232 1.655938
In 3.576900 35.107108 7.496991
In 7.153799 41.302480 7.496991
In 10.730699 35.107108 7.496991
In 7.153799 37.172232 10.417517
In 10.730699 39.237356 4.576465
In 7.153799 33.041984 4.576465
In 3.576900 39.237356 4.576465
In 14.067946 39.098992 4.380790
In 10.970351 33.180347 4.772140
In 3.816552 37.310595 1.851614
In 6.914147 34.968744 7.301316
In 2.028102 42.196678 4.380790
In 8.702597 42.473405 4.772140
In 8.702597 34.212909 1.851614
In 9.181901 38.066430 7.301316
In 5.365349 30.221024 4.380790
In 1.788450 35.862943 4.772140
In 8.942249 39.993191 1.851614
In 5.365349 38.481520 7.301316
In 7.393452 31.115223 1.851614
In 10.491047 37.033868 1.460263
In 10.491047 37.033868 10.221842
In 7.393452 39.375719 4.772140
In 12.279497 40.408281 1.851614
In 5.605002 40.131554 1.460263
In 5.605002 40.131554 10.221842
In 5.125697 36.278033 4.772140
In 1.788450 39.993191 1.851614
In 5.365349 34.351272 1.460263
In 5.365349 34.351272 10.221842
In 8.942249 35.862943 4.772140
O 8.853542 36.251186 2.687468
O 1.877157 33.827557 8.021518
O 6.843324 41.421431 5.331129
O 11.041174 37.188753 8.106797
O 7.101577 39.104775 2.687468
O 12.688694 34.274863 8.021518
O 3.629122 34.778753 5.331129
O 5.195804 40.530536 8.106797
O 5.506279 36.160734 2.687468
O 6.895547 43.414275 8.021518
O 10.988951 35.316511 5.331129
O 5.224420 33.797406 8.106797
O 8.853542 36.251186 11.449047
O 9.030956 37.957805 5.100991
O 6.843324 33.160935 2.410602
O 3.887375 41.319001 5.186271
O 7.101577 39.104775 11.449047
O 5.534895 38.405111 5.100991
O 10.782922 38.909001 2.410602
O 5.195804 32.270040 5.186271
O 5.506279 36.160734 11.449047
O 6.895547 35.153779 5.100991
O 3.835152 39.446759 2.410602
O 12.378219 37.927654 5.186271
O 5.454057 38.093277 9.385988
O 12.430442 40.516906 4.051938
O 7.464274 32.923032 6.742327
O 3.266425 37.155711 3.966659
O 7.206022 35.239689 9.385988
O 1.618905 40.069601 4.051938
O 10.678476 39.565710 6.742327
O 9.111794 33.813927 3.966659
O 8.801319 38.183729 9.385988
O 7.412051 30.930188 4.051938
O 3.318647 39.027952 6.742327
O 9.083179 40.547057 3.966659
O 5.454057 38.093277 0.624409
O 5.276642 36.386658 6.972465
O 7.464274 41.183528 9.662853
O 10.420224 33.025463 6.887185
O 7.206022 35.239689 0.624409
O 8.772704 35.939353 6.972465
O 3.524677 35.435462 9.662853
O 9.111794 42.074423 6.887185
O 8.801319 38.183729 0.624409
O 7.412051 39.190684 6.972465
O 10.472447 34.897704 9.662853
O 1.929380 36.416809 6.887185
In 7.153799 28.911736 7.496991
In 3.576900 26.846612 13.338044
In 7.153799 33.041984 13.338044
In 10.730699 26.846612 13.338044
In 10.730699 30.976860 10.417517
In 7.153799 49.562975 10.417517
In 3.576900 30.976860 10.417517
In 14.067946 30.838496 10.221842
In 10.970351 24.919851 10.613193
In 3.816552 29.050099 7.692666
In 6.914147 26.708248 13.142369
In 2.028102 33.936182 10.221842
In 8.702597 34.212909 10.613193
In 8.702597 25.952413 7.692666
In 9.181901 29.805934 13.142369
In 5.365349 46.742016 10.221842
In 1.788450 27.602447 10.613193
In 8.942249 31.732695 7.692666
In 5.365349 30.221024 13.142369
In 7.393452 47.636215 7.692666
In 10.491047 28.773372 7.301316
In 7.393452 31.115223 10.613193
In 12.279497 32.147785 7.692666
In 5.605002 31.871058 7.301316
In 5.125697 28.017537 10.613193
In 1.788450 31.732695 7.692666
In 5.365349 26.090776 7.301316
In 8.942249 27.602447 10.613193
O 8.853542 27.990690 8.528521
O 1.877157 25.567061 13.862570
O 6.843324 33.160935 11.172181
O 11.041174 28.928257 13.947850
O 7.101577 30.844279 8.528521
O 12.688694 26.014367 13.862570
O 3.629122 26.518257 11.172181
O 5.195804 32.270040 13.947850
O 5.506279 27.900238 8.528521
O 6.895547 35.153779 13.862570
O 10.988951 27.056015 11.172181
O 5.224420 25.536910 13.947850
O 9.030956 29.697309 10.942044
O 6.843324 24.900439 8.251655
O 3.887375 33.058505 11.027323
O 5.534895 30.144615 10.942044
O 10.782922 30.648505 8.251655
O 5.195804 48.791032 11.027323
O 6.895547 26.893284 10.942044
O 3.835152 31.186263 8.251655
O 12.378219 29.667158 11.027323
O 12.430442 32.256410 9.892991
O 7.464274 49.444024 12.583380
O 3.266425 28.895215 9.807712
O 1.618905 31.809105 9.892991
O 10.678476 31.305214 12.583380
O 9.111794 25.553431 9.807712
O 7.412051 47.451180 9.892991
O 3.318647 30.767456 12.583380
O 9.083179 32.286561 9.807712
O 5.454057 29.832781 6.465461
O 5.276642 28.126163 12.813517
O 10.420224 49.546454 12.728238
O 7.206022 26.979193 6.465461
O 8.772704 27.678857 12.813517
O 9.111794 33.813927 12.728238
O 8.801319 29.923233 6.465461
O 7.412051 30.930188 12.813517
O 1.929380 28.156313 12.728238
In 0.000000 41.302480 7.496991
In 10.730699 39.237356 13.338044
In 0.000000 45.432728 13.338044
In 3.576900 39.237356 13.338044
In 3.576900 43.367604 10.417517
In 0.000000 37.172232 10.417517
In 10.730699 43.367604 10.417517
In 6.914147 43.229240 10.221842
In 3.816552 37.310595 10.613193
In 10.970351 41.440843 7.692666
In 14.067946 39.098992 13.142369
In 9.181901 46.326926 10.221842
In 1.548798 46.603653 10.613193
In 1.548798 38.343157 7.692666
In 2.028102 42.196678 13.142369
In 12.519149 34.351272 10.221842
In 8.942249 39.993191 10.613193
In 1.788450 44.123439 7.692666
In 12.519149 42.611768 13.142369
In 0.239652 35.245471 7.692666
In 3.337247 41.164116 7.301316
In 0.239652 43.505967 10.613193
In 5.125697 44.538529 7.692666
In 12.758801 44.261802 7.301316
In 12.279497 40.408281 10.613193
In 8.942249 44.123439 7.692666
In 12.519149 38.481520 7.301316
In 1.788450 39.993191 10.613193
O 1.699743 40.381434 8.528521
O 9.030956 37.957805 13.862570
O 13.997124 45.551679 11.172181
O 3.887375 41.319001 13.947850
O 14.255376 43.235023 8.528521
O 5.534895 38.405111 13.862570
O 10.782922 38.909001 11.172181
O 12.349604 44.660784 13.947850
O 12.660079 40.290982 8.528521
O 14.049346 47.544523 13.862570
O 3.835152 39.446759 11.172181
O 12.378219 37.927654 13.947850
O 1.877157 42.088053 10.942044
O 13.997124 37.291183 8.251655
O 11.041174 45.449248 11.027323
O 12.688694 42.535359 10.942044
O 3.629122 43.039249 8.251655
O 12.349604 36.400288 11.027323
O 14.049346 39.284027 10.942044
O 10.988951 43.577007 8.251655
O 5.224420 42.057902 11.027323
O 5.276642 44.647154 9.892991
O 0.310475 37.053280 12.583380
O 10.420224 41.285959 9.807712
O 8.772704 44.199848 9.892991
O 3.524677 43.695958 12.583380
O 1.957995 37.944175 9.807712
O 0.258252 35.060436 9.892991
O 10.472447 43.158200 12.583380
O 1.929380 44.677305 9.807712
O 12.607856 42.223525 6.465461
O 12.430442 40.516906 12.813517
O 3.266425 37.155711 12.728238
O 0.052223 39.369937 6.465461
O 1.618905 40.069601 12.813517
O 1.957995 46.204671 12.728238
O 1.647520 42.313977 6.465461
O 0.258252 43.320932 12.813517
O 9.083179 40.547057 12.728238
In 0.000000 33.041984 13.338044
In 10.730699 30.976860 1.655938
In 0.000000 37.172232 1.655938
In 3.576900 30.976860 1.655938
In 0.000000 33.041984 4.576465
In 10.970351 33.180347 13.533719
In 14.067946 30.838496 1.460263
In 1.548798 30.082661 13.533719
In 2.028102 33.936182 1.460263
In 1.788450 35.862943 13.533719
In 12.519149 34.351272 1.460263
In 0.239652 26.984975 13.533719
In 3.337247 32.903620 13.142369
In 3.337247 32.903620 4.380790
In 5.125697 36.278033 13.533719
In 12.758801 36.001306 13.142369
In 12.758801 36.001306 4.380790
In 8.942249 35.862943 13.533719
In 12.519149 30.221024 13.142369
In 12.519149 30.221024 4.380790
O 1.699743 32.120938 14.369574
O 9.030956 29.697309 2.180465
O 3.887375 33.058505 2.265744
O 14.255376 34.974527 14.369574
O 5.534895 30.144615 2.180465
O 12.349604 36.400288 2.265744
O 12.660079 32.030486 14.369574
O 14.049346 39.284027 2.180465
O 12.378219 29.667158 2.265744
O 1.699743 32.120938 5.607995
O 13.997124 29.030687 14.092708
O 14.255376 34.974527 5.607995
O 3.629122 34.778753 14.092708
O 12.660079 32.030486 5.607995
O 10.988951 35.316511 14.092708
O 12.607856 33.963029 3.544935
O 0.310475 28.792785 0.901274
O 0.052223 31.109441 3.544935
O 3.524677 35.435462 0.901274
O 1.647520 34.053481 3.544935
O 10.472447 34.897704 0.901274
O 12.607856 33.963029 12.306514
O 12.430442 32.256410 1.131412
O 0.310475 37.053280 3.821801
O 3.266425 28.895215 1.046133
O 0.052223 31.109441 12.306514
O 1.618905 31.809105 1.131412
O 10.678476 31.305214 3.821801
O 1.957995 37.944175 1.046133
O 1.647520 34.053481 12.306514
O 0.258252 35.060436 1.131412
O 3.318647 30.767456 3.821801
O 9.083179 32.286561 1.046133
In 7.153799 45.432728 13.338044
In 3.576900 43.367604 1.655938
In 7.153799 49.562975 1.655938
In 10.730699 43.367604 1.655938
In 7.153799 45.432728 4.576465
In 3.816552 45.571091 13.533719
In 6.914147 43.229240 1.460263
In 8.702597 42.473405 13.533719
In 9.181901 46.326926 1.460263
In 8.942249 48.253687 13.533719
In 5.365349 46.742016 1.460263
In 7.393452 39.375719 13.533719
In 10.491047 45.294364 13.142369
In 10.491047 45.294364 4.380790
In 12.279497 48.668777 13.533719
In 5.605002 48.392050 13.142369
In 5.605002 48.392050 4.380790
In 1.788450 48.253687 13.533719
In 5.365349 42.611768 13.142369
In 5.365349 42.611768 4.380790
O 8.853542 44.511682 14.369574
O 1.877157 42.088053 2.180465
O 11.041174 45.449248 2.265744
O 7.101577 47.365271 14.369574
O 12.688694 42.535359 2.180465
O 5.195804 48.791032 2.265744
O 5.506279 44.421230 14.369574
O 6.895547 26.893284 2.180465
O 5.224420 42.057902 2.265744
O 8.853542 44.511682 5.607995
O 6.843324 41.421431 14.092708
O 7.101577 47.365271 5.607995
O 10.782922 47.169497 14.092708
O 5.506279 44.421230 5.607995
O 3.835152 47.707255 14.092708
O 5.454057 46.353773 3.544935
O 7.464274 41.183528 0.901274
O 7.206022 43.500184 3.544935
O 10.678476 47.826206 0.901274
O 8.801319 46.444225 3.544935
O 3.318647 47.288448 0.901274
O 5.454057 46.353773 12.306514
O 5.276642 44.647154 1.131412
O 7.464274 49.444024 3.821801
O 10.420224 41.285959 1.046133
O 7.206022 43.500184 12.306514
O 8.772704 44.199848 1.131412
O 3.524677 43.695958 3.821801
O 9.111794 25.553431 1.046133
O 8.801319 46.444225 12.306514
O 7.412051 47.451180 1.131412
O 10.472447 43.158200 3.821801
O 1.929380 44.677305 1.046133
In 7.153799 28.911736 16.258570
In 10.491047 28.773372 16.062895
In 5.605002 31.871058 16.062895
In 5.365349 26.090776 16.062895
O 8.853542 27.990690 17.290100
O 7.101577 30.844279 17.290100
O 5.506279 27.900238 17.290100
O 5.454057 29.832781 15.227040
O 7.206022 26.979193 15.227040
O 8.801319 29.923233 15.227040
O 7.464274 32.923032 15.503906
O 3.524677 27.174966 15.503906
O 10.472447 26.637208 15.503906
In 0.000000 41.302480 16.258570
In 3.337247 41.164116 16.062895
In 12.758801 44.261802 16.062895
In 12.519149 38.481520 16.062895
O 1.699743 40.381434 17.290100
O 14.255376 43.235023 17.290100
O 12.660079 40.290982 17.290100
O 12.607856 42.223525 15.227040
O 0.052223 39.369937 15.227040
O 1.647520 42.313977 15.227040
O 0.310475 45.313776 15.503906
O 10.678476 39.565710 15.503906
O 3.318647 39.027952 15.503906
In 3.576900 35.107108 16.258570
In 0.000000 28.911736 16.258570
In 10.730699 35.107108 16.258570
In 6.914147 34.968744 16.062895
In 3.816552 29.050099 16.454245
In 9.181901 38.066430 16.062895
In 1.548798 38.343157 16.454245
In 12.519149 26.090776 16.062895
In 8.942249 31.732695 16.454245
In 0.239652 35.245471 16.454245
In 12.279497 32.147785 16.454245
In 1.788450 31.732695 16.454245
O 13.997124 37.291183 17.013234
O 10.782922 30.648505 17.013234
O 3.835152 31.186263 17.013234
O 1.877157 33.827557 16.783097
O 11.041174 37.188753 16.868376
O 12.688694 34.274863 16.783097
O 12.349604 28.139792 16.868376
O 14.049346 31.023531 16.783097
O 5.224420 33.797406 16.868376
O 5.276642 36.386658 15.734044
O 10.420224 33.025463 15.648764
O 8.772704 35.939353 15.734044
O 1.957995 29.683679 15.648764
O 0.258252 26.799940 15.734044
O 1.929380 36.416809 15.648764
In 10.730699 47.497851 16.258570
In 7.153799 41.302480 16.258570
In 3.576900 47.497851 16.258570
In 14.067946 47.359488 16.062895
In 10.970351 41.440843 16.454245
In 2.028102 25.675686 16.062895
In 8.702597 25.952413 16.454245
In 5.365349 38.481520 16.062895
In 1.788450 44.123439 16.454245
In 7.393452 47.636215 16.454245
In 5.125697 44.538529 16.454245
In 8.942249 44.123439 16.454245
O 6.843324 24.900439 17.013234
O 3.629122 43.039249 17.013234
O 10.988951 43.577007 17.013234
O 9.030956 46.218301 16.783097
O 3.887375 24.798009 16.868376
O 5.534895 46.665607 16.783097
O 5.195804 40.530536 16.868376
O 6.895547 43.414275 16.783097
O 12.378219 46.188150 16.868376
O 12.430442 48.777402 15.734044
O 3.266425 45.416207 15.648764
O 1.618905 48.330096 15.734044
O 9.111794 42.074423 15.648764
O 7.412051 39.190684 15.734044
O 9.083179 48.807553 15.648764
In 14.307599 0.000000 1.655938
In 25.038298 22.716364 7.496991
In 14.307599 4.130248 7.496991
In 17.884498 22.716364 7.496991
In 14.307599 24.781488 10.417517
In 17.884498 2.065124 4.576465
In 14.307599 20.651240 4.576465
In 25.038298 2.065124 4.576465
In 21.221746 1.926761 4.380790
In 18.124151 20.789603 4.772140
In 25.277950 0.138363 1.851614
In 28.375545 22.578000 7.301316
In 23.489500 5.024447 4.380790
In 15.856396 5.301173 4.772140
In 15.856396 21.822165 1.851614
In 16.335701 0.894199 7.301316
In 26.826747 17.830280 4.380790
In 23.249848 23.472199 4.772140
In 16.096048 2.820959 1.851614
In 26.826747 1.309289 7.301316
In 14.547251 18.724479 1.851614
In 17.644846 24.643124 1.460263
In 17.644846 24.643124 10.221842
In 14.547251 2.203487 4.772140
In 19.433296 3.236049 1.851614
In 27.066400 2.959323 1.460263
In 27.066400 2.959323 10.221842
In 26.587095 23.887289 4.772140
In 23.249848 2.820959 1.851614
In 26.826747 21.960528 1.460263
In 26.826747 21.960528 10.221842
In 16.096048 23.472199 4.772140
O 16.007341 23.860442 2.687468
O 23.338555 21.436813 8.021518
O 28.304722 4.249199 5.331129
O 18.194973 0.016521 8.106797
O 28.562974 1.932543 2.687468
O 19.842493 21.884119 8.021518
O 25.090520 22.388009 5.331129
O 26.657202 3.358305 8.106797
O 26.967677 23.769990 2.687468
O 28.356945 6.242044 8.021518
O 18.142750 22.925767 5.331129
O 26.685818 21.406662 8.106797
O 16.007341 23.860442 11.449047
O 16.184756 0.785573 5.100991
O 28.304722 20.770191 2.410602
O 25.348772 4.146769 5.186271
O 28.562974 1.932543 11.449047
O 26.996292 1.232879 5.100991
O 17.936721 1.736769 2.410602
O 26.657202 19.879296 5.186271
O 26.967677 23.769990 11.449047
O 28.356945 22.763036 5.100991
O 25.296550 2.274528 2.410602
O 19.532018 0.755422 5.186271
O 26.915455 0.921045 9.385988
O 19.584241 3.344675 4.051938
O 14.618074 20.532289 6.742327
O 24.727823 24.764967 3.966659
O 14.359821 22.848945 9.385988
O 23.080303 2.897369 4.051938
O 17.832276 2.393479 6.742327
O 16.265593 21.423183 3.966659
O 15.955119 1.011498 9.385988
O 14.565851 18.539444 4.051938
O 24.780045 1.855720 6.742327
O 16.236978 3.374826 3.966659
O 26.915455 0.921045 0.624409
O 26.738040 23.995915 6.972465
O 14.618074 4.011297 9.662853
O 17.574023 20.634719 6.887185
O 14.359821 22.848945 0.624409
O 15.926503 23.548609 6.972465
O 24.986075 23.044718 9.662853
O 16.265593 4.902191 6.887185
O 15.955119 1.011498 0.624409
O 14.565851 2.018452 6.972465
O 17.626246 22.506960 9.662853
O 23.390778 24.026065 6.887185
In 21.461398 12.390744 1.655938
In 17.884498 10.325620 7.496991
In 21.461398 16.520992 7.496991
In 25.038298 10.325620 7.496991
In 21.461398 12.390744 10.417517
In 25.038298 14.455868 4.576465
In 21.461398 8.260496 4.576465
In 17.884498 14.455868 4.576465
In 28.375545 14.317505 4.380790
In 25.277950 8.398859 4.772140
In 18.124151 12.529107 1.851614
In 21.221746 10.187257 7.301316
In 16.335701 17.415191 4.380790
In 23.010195 17.691917 4.772140
In 23.010195 9.431421 1.851614
In 23.489500 13.284943 7.301316
In 19.672948 5.439537 4.380790
In 16.096048 11.081455 4.772140
In 23.249848 15.211703 1.851614
In 19.672948 13.700032 7.301316
In 21.701050 6.333735 1.851614
In 24.798645 12.252381 1.460263
In 24.798645 12.252381 10.221842
In 21.701050 14.594231 4.772140
In 26.587095 15.626793 1.851614
In 19.912600 15.350067 1.460263
In 19.912600 15.350067 10.221842
In 19.433296 11.496545 4.772140
In 16.096048 15.211703 1.851614
In 19.672948 9.569785 1.460263
In 19.672948 9.569785 10.221842
In 23.249848 11.081455 4.772140
O 23.161141 11.469699 2.687468
O 16.184756 9.046069 8.021518
O 21.150923 16.639943 5.331129
O 25.348772 12.407265 8.106797
O 21.409175 14.323287 2.687468
O 26.996292 9.493375 8.021518
O 17.936721 9.997265 5.331129
O 19.503403 15.749048 8.106797
O 19.813878 11.379246 2.687468
O 21.203146 18.632788 8.021518
O 25.296550 10.535023 5.331129
O 19.532018 9.015918 8.106797
O 23.161141 11.469699 11.449047
O 23.338555 13.176317 5.100991
O 21.150923 8.379447 2.410602
O 18.194973 16.537513 5.186271
O 21.409175 14.323287 11.449047
O 19.842493 13.623623 5.100991
O 25.090520 14.127513 2.410602
O 19.503403 7.488553 5.186271
O 19.813878 11.379246 11.449047
O 21.203146 10.372292 5.100991
O 18.142750 14.665271 2.410602
O 26.685818 13.146166 5.186271
O 19.761655 13.311789 9.385988
O 26.738040 15.735419 4.051938
O 21.771873 8.141545 6.742327
O 17.574023 12.374223 3.966659
O 21.513621 10.458201 9.385988
O 15.926503 15.288113 4.051938
O 24.986075 14.784223 6.742327
O 23.419393 9.032439 3.966659
O 23.108918 13.402242 9.385988
O 21.719650 6.148700 4.051938
O 17.626246 14.246464 6.742327
O 23.390778 15.765569 3.966659
O 19.761655 13.311789 0.624409
O 19.584241 11.605171 6.972465
O 21.771873 16.402041 9.662853
O 24.727823 8.243975 6.887185
O 21.513621 10.458201 0.624409
O 23.080303 11.157865 6.972465
O 17.832276 10.653975 9.662853
O 23.419393 17.292935 6.887185
O 23.108918 13.402242 0.624409
O 21.719650 14.409196 6.972465
O 24.780045 10.116216 9.662853
O 16.236978 11.635322 6.887185
In 21.461398 4.130248 7.496991
In 17.884498 2.065124 13.338044
In 21.461398 8.260496 13.338044
In 25.038298 2.065124 13.338044
In 25.038298 6.195372 10.417517
In 21.461398 24.781488 10.417517
In 17.884498 6.195372 10.417517
In 28.375545 6.057009 10.221842
In 25.277950 0.138363 10.613193
In 18.124151 4.268611 7.692666
In 21.221746 1.926761 13.142369
In 16.335701 9.154695 10.221842
In 23.010195 9.431421 10.613193
In 23.010195 1.170925 7.692666
In 23.489500 5.024447 13.142369
In 19.672948 21.960528 10.221842
In 16.096048 2.820959 10.613193
In 23.249848 6.951207 7.692666
In 19.672948 5.439537 13.142369
In 21.701050 22.854727 7.692666
In 24.798645 3.991885 7.301316
In 21.701050 6.333735 10.613193
In 26.587095 7.366297 7.692666
In 19.912600 7.089571 7.301316
In 19.433296 3.236049 10.613193
In 16.096048 6.951207 7.692666
In 19.672948 1.309289 7.301316
In 23.249848 2.820959 10.613193
O 23.161141 3.209203 8.528521
O 16.184756 0.785573 13.862570
O 21.150923 8.379447 11.172181
O 25.348772 4.146769 13.947850
O 21.409175 6.062791 8.528521
O 26.996292 1.232879 13.862570
O 17.936721 1.736769 11.172181
O 19.503403 7.488553 13.947850
O 19.813878 3.118750 8.528521
O 21.203146 10.372292 13.862570
O 25.296550 2.274528 11.172181
O 19.532018 0.755422 13.947850
O 23.338555 4.915821 10.942044
O 21.150923 0.118951 8.251655
O 18.194973 8.277017 11.027323
O 19.842493 5.363127 10.942044
O 25.090520 5.867017 8.251655
O 19.503403 24.009544 11.027323
O 21.203146 2.111796 10.942044
O 18.142750 6.404776 8.251655
O 26.685818 4.885670 11.027323
O 26.738040 7.474923 9.892991
O 21.771873 24.662537 12.583380
O 17.574023 4.113727 9.807712
O 15.926503 7.027617 9.892991
O 24.986075 6.523727 12.583380
O 23.419393 0.771943 9.807712
O 21.719650 22.669692 9.892991
O 17.626246 5.985968 12.583380
O 23.390778 7.505074 9.807712
O 19.761655 5.051293 6.465461
O 19.584241 3.344675 12.813517
O 24.727823 24.764967 12.728238
O 21.513621 2.197705 6.465461
O 23.080303 2.897369 12.813517
O 23.419393 9.032439 12.728238
O 23.108918 5.141746 6.465461
O 21.719650 6.148700 12.813517
O 16.236978 3.374826 12.728238
In 14.307599 16.520992 7.496991
In 25.038298 14.455868 13.338044
In 14.307599 20.651240 13.338044
In 17.884498 14.455868 13.338044
In 17.884498 18.586116 10.417517
In 14.307599 12.390744 10.417517
In 25.038298 18.586116 10.417517
In 21.221746 18.447752 10.221842
In 18.124151 12.529107 10.613193
In 25.277950 16.659355 7.692666
In 28.375545 14.317505 13.142369
In 23.489500 21.545438 10.221842
In 15.856396 21.822165 10.613193
In 15.856396 13.561669 7.692666
In 16.335701 17.415191 13.142369
In 26.826747 9.569785 10.221842
In 23.249848 15.211703 10.613193
In 16.096048 19.341951 7.692666
In 26.826747 17.830280 13.142369
In 14.547251 10.463983 7.692666
In 17.644846 16.382629 7.301316
In 14.547251 18.724479 10.613193
In 19.433296 19.757041 7.692666
In 27.066400 19.480314 7.301316
In 26.587095 15.626793 10.613193
In 23.249848 19.341951 7.692666
In 26.826747 13.700032 7.301316
In 16.096048 15.211703 10.613193
O 16.007341 15.599947 8.528521
O 23.338555 13.176317 13.862570
O 28.304722 20.770191 11.172181
O 18.194973 16.537513 13.947850
O 28.562974 18.453535 8.528521
O 19.842493 13.623623 13.862570
O 25.090520 14.127513 11.172181
O 26.657202 19.879296 13.947850
O 26.967677 15.509494 8.528521
O 28.356945 22.763036 13.862570
O 18.142750 14.665271 11.172181
O 26.685818 13.146166 13.947850
O 16.184756 17.306565 10.942044
O 28.304722 12.509695 8.251655
O 25.348772 20.667761 11.027323
O 26.996292 17.753871 10.942044
O 17.936721 18.257761 8.251655
O 26.657202 11.618801 11.027323
O 28.356945 14.502540 10.942044
O 25.296550 18.795519 8.251655
O 19.532018 17.276414 11.027323
O 19.584241 19.865667 9.892991
O 14.618074 12.271793 12.583380
O 24.727823 16.504471 9.807712
O 23.080303 19.418361 9.892991
O 17.832276 18.914471 12.583380
O 16.265593 13.162687 9.807712
O 14.565851 10.278948 9.892991
O 24.780045 18.376712 12.583380
O 16.236978 19.895817 9.807712
O 26.915455 17.442037 6.465461
O 26.738040 15.735419 12.813517
O 17.574023 12.374223 12.728238
O 14.359821 14.588449 6.465461
O 15.926503 15.288113 12.813517
O 16.265593 21.423183 12.728238
O 15.955119 17.532490 6.465461
O 14.565851 18.539444 12.813517
O 23.390778 15.765569 12.728238
In 14.307599 8.260496 13.338044
In 25.038298 6.195372 1.655938
In 14.307599 12.390744 1.655938
In 17.884498 6.195372 1.655938
In 14.307599 8.260496 4.576465
In 25.277950 8.398859 13.533719
In 28.375545 6.057009 1.460263
In 15.856396 5.301173 13.533719
In 16.335701 9.154695 1.460263
In 16.096048 11.081455 13.533719
In 26.826747 9.569785 1.460263
In 14.547251 2.203487 13.533719
In 17.644846 8.122133 13.142369
In 17.644846 8.122133 4.380790
In 19.433296 11.496545 13.533719
In 27.066400 11.219819 13.142369
In 27.066400 11.219819 4.380790
In 23.249848 11.081455 13.533719
In 26.826747 5.439537 13.142369
In 26.826747 5.439537 4.380790
O 16.007341 7.339451 14.369574
O 23.338555 4.915821 2.180465
O 18.194973 8.277017 2.265744
O 28.562974 10.193039 14.369574
O 19.842493 5.363127 2.180465
O 26.657202 11.618801 2.265744
O 26.967677 7.248998 14.369574
O 28.356945 14.502540 2.180465
O 26.685818 4.885670 2.265744
O 16.007341 7.339451 5.607995
O 28.304722 4.249199 14.092708
O 28.562974 10.193039 5.607995
O 17.936721 9.997265 14.092708
O 26.967677 7.248998 5.607995
O 25.296550 10.535023 14.092708
O 26.915455 9.181541 3.544935
O 14.618074 4.011297 0.901274
O 14.359821 6.327953 3.544935
O 17.832276 10.653975 0.901274
O 15.955119 9.271994 3.544935
O 24.780045 10.116216 0.901274
O 26.915455 9.181541 12.306514
O 26.738040 7.474923 1.131412
O 14.618074 12.271793 3.821801
O 17.574023 4.113727 1.046133
O 14.359821 6.327953 12.306514
O 15.926503 7.027617 1.131412
O 24.986075 6.523727 3.821801
O 16.265593 13.162687 1.046133
O 15.955119 9.271994 12.306514
O 14.565851 10.278948 1.131412
O 17.626246 5.985968 3.821801
O 23.390778 7.505074 1.046133
In 21.461398 20.651240 13.338044
In 17.884498 18.586116 1.655938
In 21.461398 24.781488 1.655938
In 25.038298 18.586116 1.655938
In 21.461398 20.651240 4.576465
In 18.124151 20.789603 13.533719
In 21.221746 18.447752 1.460263
In 23.010195 17.691917 13.533719
In 23.489500 21.545438 1.460263
In 23.249848 23.472199 13.533719
In 19.672948 21.960528 1.460263
In 21.701050 14.594231 13.533719
In 24.798645 20.512876 13.142369
In 24.798645 20.512876 4.380790
In 26.587095 23.887289 13.533719
In 19.912600 23.610562 13.142369
In 19.912600 23.610562 4.380790
In 16.096048 23.472199 13.533719
In 19.672948 17.830280 13.142369
In 19.672948 17.830280 4.380790
O 23.161141 19.730194 14.369574
O 16.184756 17.306565 2.180465
O 25.348772 20.667761 2.265744
O 21.409175 22.583783 14.369574
O 26.996292 17.753871 2.180465
O 19.503403 24.009544 2.265744
O 19.813878 19.639742 14.369574
O 21.203146 2.111796 2.180465
O 19.532018 17.276414 2.265744
O 23.161141 19.730194 5.607995
O 21.150923 16.639943 14.092708
O 21.409175 22.583783 5.607995
O 25.090520 22.388009 14.092708
O 19.813878 19.639742 5.607995
O 18.142750 22.925767 14.092708
O 19.761655 21.572285 3.544935
O 21.771873 16.402041 0.901274
O 21.513621 18.718697 3.544935
O 24.986075 23.044718 0.901274
O 23.108918 21.662737 3.544935
O 17.626246 22.506960 0.901274
O 19.761655 21.572285 12.306514
O 19.584241 19.865667 1.131412
O 21.771873 24.662537 3.821801
O 24.727823 16.504471 1.046133
O 21.513621 18.718697 12.306514
O 23.080303 19.418361 1.131412
O 17.832276 18.914471 3.821801
O 23.419393 0.771943 1.046133
O 23.108918 21.662737 12.306514
O 21.719650 22.669692 1.131412
O 24.780045 18.376712 3.821801
O 16.236978 19.895817 1.046133
In 21.461398 4.130248 16.258570
In 24.798645 3.991885 16.062895
In 19.912600 7.089571 16.062895
In 19.672948 1.309289 16.062895
O 23.161141 3.209203 17.290100
O 21.409175 6.062791 17.290100
O 19.813878 3.118750 17.290100
O 19.761655 5.051293 15.227040
O 21.513621 2.197705 15.227040
O 23.108918 5.141746 15.227040
O 21.771873 8.141545 15.503906
O 17.832276 2.393479 15.503906
O 24.780045 1.855720 15.503906
In 14.307599 16.520992 16.258570
In 17.644846 16.382629 16.062895
In 27.066400 19.480314 16.062895
In 26.826747 13.700032 16.062895
O 16.007341 15.599947 17.290100
O 28.562974 18.453535 17.290100
O 26.967677 15.509494 17.290100
O 26.915455 17.442037 15.227040
O 14.359821 14.588449 15.227040
O 15.955119 17.532490 15.227040
O 14.618074 20.532289 15.503906
O 24.986075 14.784223 15.503906
O 17.626246 14.246464 15.503906
In 17.884498 10.325620 16.258570
In 14.307599 4.130248 16.258570
In 25.038298 10.325620 16.258570
In 21.221746 10.187257 16.062895
In 18.124151 4.268611 16.454245
In 23.489500 13.284943 16.062895
In 15.856396 13.561669 16.454245
In 26.826747 1.309289 16.062895
In 23.249848 6.951207 16.454245
In 14.547251 10.463983 16.454245
In 26.587095 7.366297 16.454245
In 16.096048 6.951207 16.454245
O 28.304722 12.509695 17.013234
O 25.090520 5.867017 17.013234
O 18.142750 6.404776 17.013234
O 16.184756 9.046069 16.783097
O 25.348772 12.407265 16.868376
O 26.996292 9.493375 16.783097
O 26.657202 3.358305 16.868376
O 28.356945 6.242044 16.783097
O 19.532018 9.015918 16.868376
O 19.584241 11.605171 15.734044
O 24.727823 8.243975 15.648764
O 23.080303 11.157865 15.734044
O 16.265593 4.902191 15.648764
O 14.565851 2.018452 15.734044
O 16.236978 11.635322 15.648764
In 25.038298 22.716364 16.258570
In 21.461398 16.520992 16.258570
In 17.884498 22.716364 16.258570
In 28.375545 22.578000 16.062895
In 25.277950 16.659355 16.454245
In 16.335701 0.894199 16.062895
In 23.010195 1.170925 16.454245
In 19.672948 13.700032 16.062895
In 16.096048 19.341951 16.454245
In 21.701050 22.854727 16.454245
In 19.433296 19.757041 16.454245
In 23.249848 19.341951 16.454245
O 21.150923 0.118951 17.013234
O 17.936721 18.257761 17.013234
O 25.296550 18.795519 17.013234
O 23.338555 21.436813 16.783097
O 18.194973 0.016521 16.868376
O 19.842493 21.884119 16.783097
O 19.503403 15.749048 16.868376
O 21.203146 18.632788 16.783097
O 26.685818 21.406662 16.868376
O 26.738040 23.995915 15.734044
O 17.574023 20.634719 15.648764
O 15.926503 23.548609 15.734044
O 23.419393 17.292935 15.648764
O 21.719650 14.409196 15.734044
O 23.390778 24.026065 15.648764
In 14.307599 24.781488 1.655938
In 25.038298 47.497851 7.496991
In 14.307599 28.911736 7.496991
In 17.884498 47.497851 7.496991
In 14.307599 49.562975 10.417517
In 17.884498 26.846612 4.576465
In 14.307599 45.432728 4.576465
In 25.038298 26.846612 4.576465
In 21.221746 26.708248 4.380790
In 18.124151 45.571091 4.772140
In 25.277950 24.919851 1.851614
In 28.375545 47.359488 7.301316
In 23.489500 29.805934 4.380790
In 15.856396 30.082661 4.772140
In 15.856396 46.603653 1.851614
In 16.335701 25.675686 7.301316
In 26.826747 42.611768 4.380790
In 23.249848 48.253687 4.772140
In 16.096048 27.602447 1.851614
In 26.826747 26.090776 7.301316
In 14.547251 43.505967 1.851614
In 17.644846 49.424612 1.460263
In 17.644846 49.424612 10.221842
In 14.547251 26.984975 4.772140
In 19.433296 28.017537 1.851614
In 27.066400 27.740810 1.460263
In 27.066400 27.740810 10.221842
In 26.587095 48.668777 4.772140
In 23.249848 27.602447 1.851614
In 26.826747 46.742016 1.460263
In 26.826747 46.742016 10.221842
In 16.096048 48.253687 4.772140
O 16.007341 48.641930 2.687468
O 23.338555 46.218301 8.021518
O 28.304722 29.030687 5.331129
O 18.194973 24.798009 8.106797
O 28.562974 26.714031 2.687468
O 19.842493 46.665607 8.021518
O 25.090520 47.169497 5.331129
O 26.657202 28.139792 8.106797
O 26.967677 48.551478 2.687468
O 28.356945 31.023531 8.021518
O 18.142750 47.707255 5.331129
O 26.685818 46.188150 8.106797
O 16.007341 48.641930 11.449047
O 16.184756 25.567061 5.100991
O 28.304722 45.551679 2.410602
O 25.348772 28.928257 5.186271
O 28.562974 26.714031 11.449047
O 26.996292 26.014367 5.100991
O 17.936721 26.518257 2.410602
O 26.657202 44.660784 5.186271
O 26.967677 48.551478 11.449047
O 28.356945 47.544523 5.100991
O 25.296550 27.056015 2.410602
O 19.532018 25.536910 5.186271
O 26.915455 25.702533 9.385988
O 19.584241 28.126163 4.051938
O 14.618074 45.313776 6.742327
O 24.727823 49.546454 3.966659
O 14.359821 47.630432 9.385988
O 23.080303 27.678857 4.051938
O 17.832276 27.174966 6.742327
O 16.265593 46.204671 3.966659
O 15.955119 25.792985 9.385988
O 14.565851 43.320932 4.051938
O 24.780045 26.637208 6.742327
O 16.236978 28.156313 3.966659
O 26.915455 25.702533 0.624409
O 26.738040 48.777402 6.972465
O 14.618074 28.792785 9.662853
O 17.574023 45.416207 6.887185
O 14.359821 47.630432 0.624409
O 15.926503 48.330096 6.972465
O 24.986075 47.826206 9.662853
O 16.265593 29.683679 6.887185
O 15.955119 25.792985 0.624409
O 14.565851 26.799940 6.972465
O 17.626246 47.288448 9.662853
O 23.390778 48.807553 6.887185
In 21.461398 37.172232 1.655938
In 17.884498 35.107108 7.496991
In 21.461398 41.302480 7.496991
In 25.038298 35.107108 7.496991
In 21.461398 37.172232 10.417517
In 25.038298 39.237356 4.576465
In 21.461398 33.041984 4.576465
In 17.884498 39.237356 4.576465
In 28.375545 39.098992 4.380790
In 25.277950 33.180347 4.772140
In 18.124151 37.310595 1.851614
In 21.221746 34.968744 7.301316
In 16.335701 42.196678 4.380790
In 23.010195 42.473405 4.772140
In 23.010195 34.212909 1.851614
In 23.489500 38.066430 7.301316
In 19.672948 30.221024 4.380790
In 16.096048 35.862943 4.772140
In 23.249848 39.993191 1.851614
In 19.672948 38.481520 7.301316
In 21.701050 31.115223 1.851614
In 24.798645 37.033868 1.460263
In 24.798645 37.033868 10.221842
In 21.701050 39.375719 4.772140
In 26.587095 40.408281 1.851614
In 19.912600 40.131554 1.460263
In 19.912600 40.131554 10.221842
In 19.433296 36.278033 4.772140
In 16.096048 39.993191 1.851614
In 19.672948 34.351272 1.460263
In 19.672948 34.351272 10.221842
In 23.249848 35.862943 4.772140
O 23.161141 36.251186 2.687468
O 16.184756 33.827557 8.021518
O 21.150923 41.421431 5.331129
O 25.348772 37.188753 8.106797
O 21.409175 39.104775 2.687468
O 26.996292 34.274863 8.021518
O 17.936721 34.778753 5.331129
O 19.503403 40.530536 8.106797
O 19.813878 36.160734 2.687468
O 21.203146 43.414275 8.021518
O 25.296550 35.316511 5.331129
O 19.532018 33.797406 8.106797
O 23.161141 36.251186 11.449047
O 23.338555 37.957805 5.100991
O 21.150923 33.160935 2.410602
O 18.194973 41.319001 5.186271
O 21.409175 39.104775 11.449047
O 19.842493 38.405111 5.100991
O 25.090520 38.909001 2.410602
O 19.503403 32.270040 5.186271
O 19.813878 36.160734 11.449047
O 21.203146 35.153779 5.100991
O 18.142750 39.446759 2.410602
O 26.685818 37.927654 5.186271
O 19.761655 38.093277 9.385988
O 26.738040 40.516906 4.051938
O 21.771873 32.923032 6.742327
O 17.574023 37.155711 3.966659
O 21.513621 35.239689 9.385988
O 15.926503 40.069601 4.051938
O 24.986075 39.565710 6.742327
O 23.419393 33.813927 3.966659
O 23.108918 38.183729 9.385988
O 21.719650 30.930188 4.051938
O 17.626246 39.027952 6.742327
O 23.390778 40.547057 3.966659
O 19.761655 38.093277 0.624409
O 19.584241 36.386658 6.972465
O 21.771873 41.183528 9.662853
O 24.727823 33.025463 6.887185
O 21.513621 35.239689 0.624409
O 23.080303 35.939353 6.972465
O 17.832276 35.435462 9.662853
O 23.419393 42.074423 6.887185
O 23.108918 38.183729 0.624409
O 21.719650 39.190684 6.972465
O 24.780045 34.897704 9.662853
O 16.236978 36.416809 6.887185
In 21.461398 28.911736 7.496991
In 17.884498 26.846612 13.338044
In 21.461398 33.041984 13.338044
In 25.038298 26.846612 13.338044
In 25.038298 30.976860 10.417517
In 21.461398 49.562975 10.417517
In 17.884498 30.976860 10.417517
In 28.375545 30.838496 10.221842
In 25.277950 24.919851 10.613193
In 18.124151 29.050099 7.692666
In 21.221746 26.708248 13.142369
In 16.335701 33.936182 10.221842
In 23.010195 34.212909 10.613193
In 23.010195 25.952413 7.692666
In 23.489500 29.805934 13.142369
In 19.672948 46.742016 10.221842
In 16.096048 27.602447 10.613193
In 23.249848 31.732695 7.692666
In 19.672948 30.221024 13.142369
In 21.701050 47.636215 7.692666
In 24.798645 28.773372 7.301316
In 21.701050 31.115223 10.613193
In 26.587095 32.147785 7.692666
In 19.912600 31.871058 7.301316
In 19.433296 28.017537 10.613193
In 16.096048 31.732695 7.692666
In 19.672948 26.090776 7.301316
In 23.249848 27.602447 10.613193
O 23.161141 27.990690 8.528521
O 16.184756 25.567061 13.862570
O 21.150923 33.160935 11.172181
O 25.348772 28.928257 13.947850
O 21.409175 30.844279 8.528521
O 26.996292 26.014367 13.862570
O 17.936721 26.518257 11.172181
O 19.503403 32.270040 13.947850
O 19.813878 27.900238 8.528521
O 21.203146 35.153779 13.862570
O 25.296550 27.056015 11.172181
O 19.532018 25.536910 13.947850
O 23.338555 29.697309 10.942044
O 21.150923 24.900439 8.251655
O 18.194973 33.058505 11.027323
O 19.842493 30.144615 10.942044
O 25.090520 30.648505 8.251655
O 19.503403 48.791032 11.027323
O 21.203146 26.893284 10.942044
O 18.142750 31.186263 8.251655
O 26.685818 29.667158 11.027323
O 26.738040 32.256410 9.892991
O 21.771873 49.444024 12.583380
O 17.574023 28.895215 9.807712
O 15.926503 31.809105 9.892991
O 24.986075 31.305214 12.583380
O 23.419393 25.553431 9.807712
O 21.719650 47.451180 9.892991
O 17.626246 30.767456 12.583380
O 23.390778 32.286561 9.807712
O 19.761655 29.832781 6.465461
O 19.584241 28.126163 12.813517
O 24.727823 49.546454 12.728238
O 21.513621 26.979193 6.465461
O 23.080303 27.678857 12.813517
O 23.419393 33.813927 12.728238
O 23.108918 29.923233 6.465461
O 21.719650 30.930188 12.813517
O 16.236978 28.156313 12.728238
In 14.307599 41.302480 7.496991
In 25.038298 39.237356 13.338044
In 14.307599 45.432728 13.338044
In 17.884498 39.237356 13.338044
In 17.884498 43.367604 10.417517
In 14.307599 37.172232 10.417517
In 25.038298 43.367604 10.417517
In 21.221746 43.229240 10.221842
In 18.124151 37.310595 10.613193
In 25.277950 41.440843 7.692666
In 28.375545 39.098992 13.142369
In 23.489500 46.326926 10.221842
In 15.856396 46.603653 10.613193
In 15.856396 38.343157 7.692666
In 16.335701 42.196678 13.142369
In 26.826747 34.351272 10.221842
In 23.249848 39.993191 10.613193
In 16.096048 44.123439 7.692666
In 26.826747 42.611768 13.142369
In 14.547251 35.245471 7.692666
In 17.644846 41.164116 7.301316
In 14.547251 43.505967 10.613193
In 19.433296 44.538529 7.692666
In 27.066400 44.261802 7.301316
In 26.587095 40.408281 10.613193
In 23.249848 44.123439 7.692666
In 26.826747 38.481520 7.301316
In 16.096048 39.993191 10.613193
O 16.007341 40.381434 8.528521
O 23.338555 37.957805 13.862570
O 28.304722 45.551679 11.172181
O 18.194973 41.319001 13.947850
O 28.562974 43.235023 8.528521
O 19.842493 38.405111 13.862570
O 25.090520 38.909001 11.172181
O 26.657202 44.660784 13.947850
O 26.967677 40.290982 8.528521
O 28.356945 47.544523 13.862570
O 18.142750 39.446759 11.172181
O 26.685818 37.927654 13.947850
O 16.184756 42.088053 10.942044
O 28.304722 37.291183 8.251655
O 25.348772 45.449248 11.027323
O 26.996292 42.535359 10.942044
O 17.936721 43.039249 8.251655
O 26.657202 36.400288 11.027323
O 28.356945 39.284027 10.942044
O 25.296550 43.577007 8.251655
O 19.532018 42.057902 11.027323
O 19.584241 44.647154 9.892991
O 14.618074 37.053280 12.583380
O 24.727823 41.285959 9.807712
O 23.080303 44.199848 9.892991
O 17.832276 43.695958 12.583380
O 16.265593 37.944175 9.807712
O 14.565851 35.060436 9.892991
O 24.780045 43.158200 12.583380
O 16.236978 44.677305 9.807712
O 26.915455 42.223525 6.465461
O 26.738040 40.516906 12.813517
O 17.574023 37.155711 12.728238
O 14.359821 39.369937 6.465461
O 15.926503 40.069601 12.813517
O 16.265593 46.204671 12.728238
O 15.955119 42.313977 6.465461
O 14.565851 43.320932 12.813517
O 23.390778 40.547057 12.728238
In 14.307599 33.041984 13.338044
In 25.038298 30.976860 1.655938
In 14.307599 37.172232 1.655938
In 17.884498 30.976860 1.655938
In 14.307599 33.041984 4.576465
In 25.277950 33.180347 13.533719
In 28.375545 30.838496 1.460263
In 15.856396 30.082661 13.533719
In 16.335701 33.936182 1.460263
In 16.096048 35.862943 13.533719
In 26.826747 34.351272 1.460263
In 14.547251 26.984975 13.533719
In 17.644846 32.903620 13.142369
In 17.644846 32.903620 4.380790
In 19.433296 36.278033 13.533719
In 27.066400 36.001306 13.142369
In 27.066400 36.001306 4.380790
In 23.249848 35.862943 13.533719
In 26.826747 30.221024 13.142369
In 26.826747 30.221024 4.380790
O 16.007341 32.120938 14.369574
O 23.338555 29.697309 2.180465
O 18.194973 33.058505 2.265744
O 28.562974 34.974527 14.369574
O 19.842493 30.144615 2.180465
O 26.657202 36.400288 2.265744
O 26.967677 32.030486 14.369574
O 28.356945 39.284027 2.180465
O 26.685818 29.667158 2.265744
O 16.007341 32.120938 5.607995
O 28.304722 29.030687 14.092708
O 28.562974 34.974527 5.607995
O 17.936721 34.778753 14.092708
O 26.967677 32.030486 5.607995
O 25.296550 35.316511 14.092708
O 26.915455 33.963029 3.544935
O 14.618074 28.792785 0.901274
O 14.359821 31.109441 3.544935
O 17.832276 35.435462 0.901274
O 15.955119 34.053481 3.544935
O 24.780045 34.897704 0.901274
O 26.915455 33.963029 12.306514
O 26.738040 32.256410 1.131412
O 14.618074 37.053280 3.821801
O 17.574023 28.895215 1.046133
O 14.359821 31.109441 12.306514
O 15.926503 31.809105 1.131412
O 24.986075 31.305214 3.821801
O 16.265593 37.944175 1.046133
O 15.955119 34.053481 12.306514
O 14.565851 35.060436 1.131412
O 17.626246 30.767456 3.821801
O 23.390778 32.286561 1.046133
In 21.461398 45.432728 13.338044
In 17.884498 43.367604 1.655938
In 21.461398 49.562975 1.655938
In 25.038298 43.367604 1.655938
In 21.461398 45.432728 4.576465
In 18.124151 45.571091 13.533719
In 21.221746 43.229240 1.460263
In 23.010195 42.473405 13.533719
In 23.489500 46.326926 1.460263
In 23.249848 48.253687 13.533719
In 19.672948 46.742016 1.460263
In 21.701050 39.375719 13.533719
In 24.798645 45.294364 13.142369
In 24.798645 45.294364 4.380790
In 26.587095 48.668777 13.533719
In 19.912600 48.392050 13.142369
In 19.912600 48.392050 4.380790
In 16.096048 48.253687 13.533719
In 19.672948 42.611768 13.142369
In 19.672948 42.611768 4.380790
O 23.161141 44.511682 14.369574
O 16.184756 42.088053 2.180465
O 25.348772 45.449248 2.265744
O 21.409175 47.365271 14.369574
O 26.996292 42.535359 2.180465
O 19.503403 48.791032 2.265744
O 19.813878 44.421230 14.369574
O 21.203146 26.893284 2.180465
O 19.532018 42.057902 2.265744
O 23.161141 44.511682 5.607995
O 21.150923 41.421431 14.092708
O 21.409175 47.365271 5.607995
O 25.090520 47.169497 14.092708
O 19.813878 44.421230 5.607995
O 18.142750 47.707255 14.092708
O 19.761655 46.353773 3.544935
O 21.771873 41.183528 0.901274
O 21.513621 43.500184 3.544935
O 24.986075 47.826206 0.901274
O 23.108918 46.444225 3.544935
O 17.626246 47.288448 0.901274
O 19.761655 46.353773 12.306514
O 19.584241 44.647154 1.131412
O 21.771873 49.444024 3.821801
O 24.727823 41.285959 1.046133
O 21.513621 43.500184 12.306514
O 23.080303 44.199848 1.131412
O 17.832276 43.695958 3.821801
O 23.419393 25.553431 1.046133
O 23.108918 46.444225 12.306514
O 21.719650 47.451180 1.131412
O 24.780045 43.158200 3.821801
O 16.236978 44.677305 1.046133
In 21.461398 28.911736 16.258570
In 24.798645 28.773372 16.062895
In 19.912600 31.871058 16.062895
In 19.672948 26.090776 16.062895
O 23.161141 27.990690 17.290100
O 21.409175 30.844279 17.290100
O 19.813878 27.900238 17.290100
O 19.761655 29.832781 15.227040
O 21.513621 26.979193 15.227040
O 23.108918 29.923233 15.227040
O 21.771873 32.923032 15.503906
O 17.832276 27.174966 15.503906
O 24.780045 26.637208 15.503906
In 14.307599 41.302480 16.258570
In 17.644846 41.164116 16.062895
In 27.066400 44.261802 16.062895
In 26.826747 38.481520 16.062895
O 16.007341 40.381434 17.290100
O 28.562974 43.235023 17.290100
O 26.967677 40.290982 17.290100
O 26.915455 42.223525 15.227040
O 14.359821 39.369937 15.227040
O 15.955119 42.313977 15.227040
O 14.618074 45.313776 15.503906
O 24.986075 39.565710 15.503906
O 17.626246 39.027952 15.503906
In 17.884498 35.107108 16.258570
In 14.307599 28.911736 16.258570
In 25.038298 35.107108 16.258570
In 21.221746 34.968744 16.062895
In 18.124151 29.050099 16.454245
In 23.489500 38.066430 16.062895
In 15.856396 38.343157 16.454245
In 26.826747 26.090776 16.062895
In 23.249848 31.732695 16.454245
In 14.547251 35.245471 16.454245
In 26.587095 32.147785 16.454245
In 16.096048 31.732695 16.454245
O 28.304722 37.291183 17.013234
O 25.090520 30.648505 17.013234
O 18.142750 31.186263 17.013234
O 16.184756 33.827557 16.783097
O 25.348772 37.188753 16.868376
O 26.996292 34.274863 16.783097
O 26.657202 28.139792 16.868376
O 28.356945 31.023531 16.783097
O 19.532018 33.797406 16.868376
O 19.584241 36.386658 15.734044
O 24.727823 33.025463 15.648764
O 23.080303 35.939353 15.734044
O 16.265593 29.683679 15.648764
O 14.565851 26.799940 15.734044
O 16.236978 36.416809 15.648764
In 25.038298 47.497851 16.258570
In 21.461398 41.302480 16.258570
In 17.884498 47.497851 16.258570
In 28.375545 47.359488 16.062895
In 25.277950 41.440843 16.454245
In 16.335701 25.675686 16.062895
In 23.010195 25.952413 16.454245
In 19.672948 38.481520 16.062895
In 16.096048 44.123439 16.454245
In 21.701050 47.636215 16.454245
In 19.433296 44.538529 16.454245
In 23.249848 44.123439 16.454245
O 21.150923 24.900439 17.013234
O 17.936721 43.039249 17.013234
O 25.296550 43.577007 17.013234
O 23.338555 46.218301 16.783097
O 18.194973 24.798009 16.868376
O 19.842493 46.665607 16.783097
O 19.503403 40.530536 16.868376
O 21.203146 43.414275 16.783097
O 26.685818 46.188150 16.868376
O 26.738040 48.777402 15.734044
O 17.574023 45.416207 15.648764
O 15.926503 48.330096 15.734044
O 23.419393 42.074423 15.648764
O 21.719650 39.190684 15.734044
O 23.390778 48.807553 15.648764
In 28.615197 0.000000 1.655938
In 39.345896 22.716364 7.496991
In 28.615197 4.130248 7.496991
In 32.192097 22.716364 7.496991
In 28.615197 24.781488 10.417517
In 32.192097 2.065124 4.576465
In 28.615197 20.651240 4.576465
In 39.345896 2.065124 4.576465
In 35.529344 1.926761 4.380790
In 32.431749 20.789603 4.772140
In 39.585548 0.138363 1.851614
In 42.683144 22.578000 7.301316
In 37.797099 5.024447 4.380790
In 30.163995 5.301173 4.772140
In 30.163995 21.822165 1.851614
In 30.643299 0.894199 7.301316
In 41.134346 17.830280 4.380790
In 37.557446 23.472199 4.772140
In 30.403647 2.820959 1.851614
In 41.134346 1.309289 7.301316
In 28.854849 18.724479 1.851614
In 31.952445 24.643124 1.460263
In 31.952445 24.643124 10.221842
In 28.854849 2.203487 4.772140
In 33.740894 3.236049 1.851614
In 41.373998 2.959323 1.460263
In 41.373998 2.959323 10.221842
In 40.894694 23.887289 4.772140
In 37.557446 2.820959 1.851614
In 41.134346 21.960528 1.460263
In 41.134346 21.960528 10.221842
In 30.403647 23.472199 4.772140
O 30.314940 23.860442 2.687468
O 37.646153 21.436813 8.021518
O 42.612321 4.249199 5.331129
O 32.502572 0.016521 8.106797
O 42.870573 1.932543 2.687468
O 34.150092 21.884119 8.021518
O 39.398119 22.388009 5.331129
O 40.964801 3.358305 8.106797
O 41.275276 23.769990 2.687468
O 42.664544 6.242044 8.021518
O 32.450349 22.925767 5.331129
O 40.993416 21.406662 8.106797
O 30.314940 23.860442 11.449047
O 30.492354 0.785573 5.100991
O 42.612321 20.770191 2.410602
O 39.656371 4.146769 5.186271
O 42.870573 1.932543 11.449047
O 41.303891 1.232879 5.100991
O 32.244320 1.736769 2.410602
O 40.964801 19.879296 5.186271
O 41.275276 23.769990 11.449047
O 42.664544 22.763036 5.100991
O 39.604148 2.274528 2.410602
O 33.839617 0.755422 5.186271
O 41.223053 0.921045 9.385988
O 33.891840 3.344675 4.051938
O 28.925672 20.532289 6.742327
O 39.035421 24.764967 3.966659
O 28.667420 22.848945 9.385988
O 37.387901 2.897369 4.051938
O 32.139874 2.393479 6.742327
O 30.573192 21.423183 3.966659
O 30.262717 1.011498 9.385988
O 28.873449 18.539444 4.051938
O 39.087644 1.855720 6.742327
O 30.544577 3.374826 3.966659
O 41.223053 0.921045 0.624409
O 41.045639 23.995915 6.972465
O 28.925672 4.011297 9.662853
O 31.881622 20.634719 6.887185
O 28.667420 22.848945 0.624409
O 30.234102 23.548609 6.972465
O 39.293673 23.044718 9.662853
O 30.573192 4.902191 6.887185
O 30.262717 1.011498 0.624409
O 28.873449 2.018452 6.972465
O 31.933845 22.506960 9.662853
O 37.698376 24.026065 6.887185
In 35.768997 12.390744 1.655938
In 32.192097 10.325620 7.496991
In 35.768997 16.520992 7.496991
In 39.345896 10.325620 7.496991
In 35.768997 12.390744 10.417517
In 39.345896 14.455868 4.576465
In 35.768997 8.260496 4.576465
In 32.192097 14.455868 4.576465
In 42.683144 14.317505 4.380790
In 39.585548 8.398859 4.772140
In 32.431749 12.529107 1.851614
In 35.529344 10.187257 7.301316
In 30.643299 17.415191 4.380790
In 37.317794 17.691917 4.772140
In 37.317794 9.431421 1.851614
In 37.797099 13.284943 7.301316
In 33.980547 5.439537 4.380790
In 30.403647 11.081455 4.772140
In 37.557446 15.211703 1.851614
In 33.980547 13.700032 7.301316
In 36.008649 6.333735 1.851614
In 39.106244 12.252381 1.460263
In 39.106244 12.252381 10.221842
In 36.008649 14.594231 4.772140
In 40.894694 15.626793 1.851614
In 34.220199 15.350067 1.460263
In 34.220199 15.350067 10.221842
In 33.740894 11.496545 4.772140
In 30.403647 15.211703 1.851614
In 33.980547 9.569785 1.460263
In 33.980547 9.569785 10.221842
In 37.557446 11.081455 4.772140
O 37.468739 11.469699 2.687468
O 30.492354 9.046069 8.021518
O 35.458522 16.639943 5.331129
O 39.656371 12.407265 8.106797
O 35.716774 14.323287 2.687468
O 41.303891 9.493375 8.021518
O 32.244320 9.997265 5.331129
O 33.811002 15.749048 8.106797
O 34.121477 11.379246 2.687468
O 35.510744 18.632788 8.021518
O 39.604148 10.535023 5.331129
O 33.839617 9.015918 8.106797
O 37.468739 11.469699 11.449047
O 37.646153 13.176317 5.100991
O 35.458522 8.379447 2.410602
O 32.502572 16.537513 5.186271
O 35.716774 14.323287 11.449047
O 34.150092 13.623623 5.100991
O 39.398119 14.127513 2.410602
O 33.811002 7.488553 5.186271
O 34.121477 11.379246 11.449047
O 35.510744 10.372292 5.100991
O 32.450349 14.665271 2.410602
O 40.993416 13.146166 5.186271
O 34.069254 13.311789 9.385988
O 41.045639 15.735419 4.051938
O 36.079471 8.141545 6.742327
O 31.881622 12.374223 3.966659
O 35.821219 10.458201 9.385988
O 30.234102 15.288113 4.051938
O 39.293673 14.784223 6.742327
O 37.726991 9.032439 3.966659
O 37.416517 13.402242 9.385988
O 36.027249 6.148700 4.051938
O 31.933845 14.246464 6.742327
O 37.698376 15.765569 3.966659
O 34.069254 13.311789 0.624409
O 33.891840 11.605171 6.972465
O 36.079471 16.402041 9.662853
O 39.035421 8.243975 6.887185
O 35.821219 10.458201 0.624409
O 37.387901 11.157865 6.972465
O 32.139874 10.653975 9.662853
O 37.726991 17.292935 6.887185
O 37.416517 13.402242 0.624409
O 36.027249 14.409196 6.972465
O 39.087644 10.116216 9.662853
O 30.544577 11.635322 6.887185
In 35.768997 4.130248 7.496991
In 32.192097 2.065124 13.338044
In 35.768997 8.260496 13.338044
In 39.345896 2.065124 13.338044
In 39.345896 6.195372 10.417517
In 35.768997 24.781488 10.417517
In 32.192097 6.195372 10.417517
In 42.683144 6.057009 10.221842
In 39.585548 0.138363 10.613193
In 32.431749 4.268611 7.692666
In 35.529344 1.926761 13.142369
In 30.643299 9.154695 10.221842
In 37.317794 9.431421 10.613193
In 37.317794 1.170925 7.692666
In 37.797099 5.024447 13.142369
In 33.980547 21.960528 10.221842
In 30.403647 2.820959 10.613193
In 37.557446 6.951207 7.692666
In 33.980547 5.439537 13.142369
In 36.008649 22.854727 7.692666
In 39.106244 3.991885 7.301316
In 36.008649 6.333735 10.613193
In 40.894694 7.366297 7.692666
In 34.220199 7.089571 7.301316
In 33.740894 3.236049 10.613193
In 30.403647 6.951207 7.692666
In 33.980547 1.309289 7.301316
In 37.557446 2.820959 10.613193
O 37.468739 3.209203 8.528521
O 30.492354 0.785573 13.862570
O 35.458522 8.379447 11.172181
O 39.656371 4.146769 13.947850
O 35.716774 6.062791 8.528521
O 41.303891 1.232879 13.862570
O 32.244320 1.736769 11.172181
O 33.811002 7.488553 13.947850
O 34.121477 3.118750 8.528521
O 35.510744 10.372292 13.862570
O 39.604148 2.274528 11.172181
O 33.839617 0.755422 13.947850
O 37.646153 4.915821 10.942044
O 35.458522 0.118951 8.251655
O 32.502572 8.277017 11.027323
O 34.150092 5.363127 10.942044
O 39.398119 5.867017 8.251655
O 33.811002 24.009544 11.027323
O 35.510744 2.111796 10.942044
O 32.450349 6.404776 8.251655
O 40.993416 4.885670 11.027323
O 41.045639 7.474923 9.892991
O 36.079471 24.662537 12.583380
O 31.881622 4.113727 9.807712
O 30.234102 7.027617 9.892991
O 39.293673 6.523727 12.583380
O 37.726991 0.771943 9.807712
O 36.027249 22.669692 9.892991
O 31.933845 5.985968 12.583380
O 37.698376 7.505074 9.807712
O 34.069254 5.051293 6.465461
O 33.891840 3.344675 12.813517
O 39.035421 24.764967 12.728238
O 35.821219 2.197705 6.465461
O 37.387901 2.897369 12.813517
O 37.726991 9.032439 12.728238
O 37.416517 5.141746 6.465461
O 36.027249 6.148700 12.813517
O 30.544577 3.374826 12.728238
In 28.615197 16.520992 7.496991
In 39.345896 14.455868 13.338044
In 28.615197 20.651240 13.338044
In 32.192097 14.455868 13.338044
In 32.192097 18.586116 10.417517
In 28.615197 12.390744 10.417517
In 39.345896 18.586116 10.417517
In 35.529344 18.447752 10.221842
In 32.431749 12.529107 10.613193
In 39.585548 16.659355 7.692666
In 42.683144 14.317505 13.142369
In 37.797099 21.545438 10.221842
In 30.163995 21.822165 10.613193
In 30.163995 13.561669 7.692666
In 30.643299 17.415191 13.142369
In 41.134346 9.569785 10.221842
In 37.557446 15.211703 10.613193
In 30.403647 19.341951 7.692666
In 41.134346 17.830280 13.142369
In 28.854849 10.463983 7.692666
In 31.952445 16.382629 7.301316
In 28.854849 18.724479 10.613193
In 33.740894 19.757041 7.692666
In 41.373998 19.480314 7.301316
In 40.894694 15.626793 10.613193
In 37.557446 19.341951 7.692666
In 41.134346 13.700032 7.301316
In 30.403647 15.211703 10.613193
O 30.314940 15.599947 8.528521
O 37.646153 13.176317 13.862570
O 42.612321 20.770191 11.172181
O 32.502572 16.537513 13.947850
O 42.870573 18.453535 8.528521
O 34.150092 13.623623 13.862570
O 39.398119 14.127513 11.172181
O 40.964801 19.879296 13.947850
O 41.275276 15.509494 8.528521
O 42.664544 22.763036 13.862570
O 32.450349 14.665271 11.172181
O 40.993416 13.146166 13.947850
O 30.492354 17.306565 10.942044
O 42.612321 12.509695 8.251655
O 39.656371 20.667761 11.027323
O 41.303891 17.753871 10.942044
O 32.244320 18.257761 8.251655
O 40.964801 11.618801 11.027323
O 42.664544 14.502540 10.942044
O 39.604148 18.795519 8.251655
O 33.839617 17.276414 11.027323
O 33.891840 19.865667 9.892991
O 28.925672 12.271793 12.583380
O 39.035421 16.504471 9.807712
O 37.387901 19.418361 9.892991
O 32.139874 18.914471 12.583380
O 30.573192 13.162687 9.807712
O 28.873449 10.278948 9.892991
O 39.087644 18.376712 12.583380
O 30.544577 19.895817 9.807712
O 41.223053 17.442037 6.465461
O 41.045639 15.735419 12.813517
O 31.881622 12.374223 12.728238
O 28.667420 14.588449 6.465461
O 30.234102 15.288113 12.813517
O 30.573192 21.423183 12.728238
O 30.262717 17.532490 6.465461
O 28.873449 18.539444 12.813517
O 37.698376 15.765569 12.728238
In 28.615197 8.260496 13.338044
In 39.345896 6.195372 1.655938
In 28.615197 12.390744 1.655938
In 32.192097 6.195372 1.655938
In 28.615197 8.260496 4.576465
In 39.585548 8.398859 13.533719
In 42.683144 6.057009 1.460263
In 30.163995 5.301173 13.533719
In 30.643299 9.154695 1.460263
In 30.403647 11.081455 13.533719
In 41.134346 9.569785 1.460263
In 28.854849 2.203487 13.533719
In 31.952445 8.122133 13.142369
In 31.952445 8.122133 4.380790
In 33.740894 11.496545 13.533719
In 41.373998 11.219819 13.142369
In 41.373998 11.219819 4.380790
In 37.557446 11.081455 13.533719
In 41.134346 5.439537 13.142369
In 41.134346 5.439537 4.380790
O 30.314940 7.339451 14.369574
O 37.646153 4.915821 2.180465
O 32.502572 8.277017 2.265744
O 42.870573 10.193039 14.369574
O 34.150092 5.363127 2.180465
O 40.964801 11.618801 2.265744
O 41.275276 7.248998 14.369574
O 42.664544 14.502540 2.180465
O 40.993416 4.885670 2.265744
O 30.314940 7.339451 5.607995
O 42.612321 4.249199 14.092708
O 42.870573 10.193039 5.607995
O 32.244320 9.997265 14.092708
O 41.275276 7.248998 5.607995
O 39.604148 10.535023 14.092708
O 41.223053 9.181541 3.544935
O 28.925672 4.011297 0.901274
O 28.667420 6.327953 3.544935
O 32.139874 10.653975 0.901274
O 30.262717 9.271994 3.544935
O 39.087644 10.116216 0.901274
O 41.223053 9.181541 12.306514
O 41.045639 7.474923 1.131412
O 28.925672 12.271793 3.821801
O 31.881622 4.113727 1.046133
O 28.667420 6.327953 12.306514
O 30.234102 7.027617 1.131412
O 39.293673 6.523727 3.821801
O 30.573192 13.162687 1.046133
O 30.262717 9.271994 12.306514
O 28.873449 10.278948 1.131412
O 31.933845 5.985968 3.821801
O 37.698376 7.505074 1.046133
In 35.768997 20.651240 13.338044
In 32.192097 18.586116 1.655938
In 35.768997 24.781488 1.655938
In 39.345896 18.586116 1.655938
In 35.768997 20.651240 4.576465
In 32.431749 20.789603 13.533719
In 35.529344 18.447752 1.460263
In 37.317794 17.691917 13.533719
In 37.797099 21.545438 1.460263
In 37.557446 23.472199 13.533719
In 33.980547 21.960528 1.460263
In 36.008649 14.594231 13.533719
In 39.106244 20.512876 13.142369
In 39.106244 20.512876 4.380790
In 40.894694 23.887289 13.533719
In 34.220199 23.610562 13.142369
In 34.220199 23.610562 4.380790
In 30.403647 23.472199 13.533719
In 33.980547 17.830280 13.142369
In 33.980547 17.830280 4.380790
O 37.468739 19.730194 14.369574
O 30.492354 17.306565 2.180465
O 39.656371 20.667761 2.265744
O 35.716774 22.583783 14.369574
O 41.303891 17.753871 2.180465
O 33.811002 24.009544 2.265744
O 34.121477 19.639742 14.369574
O 35.510744 2.111796 2.180465
O 33.839617 17.276414 2.265744
O 37.468739 19.730194 5.607995
O 35.458522 16.639943 14.092708
O 35.716774 22.583783 5.607995
O 39.398119 22.388009 14.092708
O 34.121477 19.639742 5.607995
O 32.450349 22.925767 14.092708
O 34.069254 21.572285 3.544935
O 36.079471 16.402041 0.901274
O 35.821219 18.718697 3.544935
O 39.293673 23.044718 0.901274
O 37.416517 21.662737 3.544935
O 31.933845 22.506960 0.901274
O 34.069254 21.572285 12.306514
O 33.891840 19.865667 1.131412
O 36.079471 24.662537 3.821801
O 39.035421 16.504471 1.046133
O 35.821219 18.718697 12.306514
O 37.387901 19.418361 1.131412
O 32.139874 18.914471 3.821801
O 37.726991 0.771943 1.046133
O 37.416517 21.662737 12.306514
O 36.027249 22.669692 1.131412
O 39.087644 18.376712 3.821801
O 30.544577 19.895817 1.046133
In 35.768997 4.130248 16.258570
In 39.106244 3.991885 16.062895
In 34.220199 7.089571 16.062895
In 33.980547 1.309289 16.062895
O 37.468739 3.209203 17.290100
O 35.716774 6.062791 17.290100
O 34.121477 3.118750 17.290100
O 34.069254 5.051293 15.227040
O 35.821219 2.197705 15.227040
O 37.416517 5.141746 15.227040
O 36.079471 8.141545 15.503906
O 32.139874 2.393479 15.503906
O 39.087644 1.855720 15.503906
In 28.615197 16.520992 16.258570
In 31.952445 16.382629 16.062895
In 41.373998 19.480314 16.062895
In 41.134346 13.700032 16.062895
O 30.314940 15.599947 17.290100
O 42.870573 18.453535 17.290100
O 41.275276 15.509494 17.290100
O 41.223053 17.442037 15.227040
O 28.667420 14.588449 15.227040
O 30.262717 17.532490 15.227040
O 28.925672 20.532289 15.503906
O 39.293673 14.784223 15.503906
O 31.933845 14.246464 15.503906
In 32.192097 10.325620 16.258570
In 28.615197 4.130248 16.258570
In 39.345896 10.325620 16.258570
In 35.529344 10.187257 16.062895
In 32.431749 4.268611 16.454245
In 37.797099 13.284943 16.062895
In 30.163995 13.561669 16.454245
In 41.134346 1.309289 16.062895
In 37.557446 6.951207 16.454245
In 28.854849 10.463983 16.454245
In 40.894694 7.366297 16.454245
In 30.403647 6.951207 16.454245
O 42.612321 12.509695 17.013234
O 39.398119 5.867017 17.013234
O 32.450349 6.404776 17.013234
O 30.492354 9.046069 16.783097
O 39.656371 12.407265 16.868376
O 41.303891 9.493375 16.783097
O 40.964801 3.358305 16.868376
O 42.664544 6.242044 16.783097
O 33.839617 9.015918 16.868376
O 33.891840 11.605171 15.734044
O 39.035421 8.243975 15.648764
O 37.387901 11.157865 15.734044
O 30.573192 4.902191 15.648764
O 28.873449 2.018452 15.734044
O 30.544577 11.635322 15.648764
In 39.345896 22.716364 16.258570
In 35.768997 16.520992 16.258570
In 32.192097 22.716364 16.258570
In 42.683144 22.578000 16.062895
In 39.585548 16.659355 16.454245
In 30.643299 0.894199 16.062895
In 37.317794 1.170925 16.454245
In 33.980547 13.700032 16.062895
In 30.403647 19.341951 16.454245
In 36.008649 22.854727 16.454245
In 33.740894 19.757041 16.454245
In 37.557446 19.341951 16.454245
O 35.458522 0.118951 17.013234
O 32.244320 18.257761 17.013234
O 39.604148 18.795519 17.013234
O 37.646153 21.436813 16.783097
O 32.502572 0.016521 16.868376
O 34.150092 21.884119 16.783097
O 33.811002 15.749048 16.868376
O 35.510744 18.632788 16.783097
O 40.993416 21.406662 16.868376
O 41.045639 23.995915 15.734044
O 31.881622 20.634719 15.648764
O 30.234102 23.548609 15.734044
O 37.726991 17.292935 15.648764
O 36.027249 14.409196 15.734044
O 37.698376 24.026065 15.648764
In 28.615197 24.781488 1.655938
In 39.345896 47.497851 7.496991
In 28.615197 28.911736 7.496991
In 32.192097 47.497851 7.496991
In 28.615197 49.562975 10.417517
In 32.192097 26.846612 4.576465
In 28.615197 45.432728 4.576465
In 39.345896 26.846612 4.576465
In 35.529344 26.708248 4.380790
In 32.431749 45.571091 4.772140
In 39.585548 24.919851 1.851614
In 42.683144 47.359488 7.301316
In 37.797099 29.805934 4.380790
In 30.163995 30.082661 4.772140
In 30.163995 46.603653 1.851614
In 30.643299 25.675686 7.301316
In 41.134346 42.611768 4.380790
In 37.557446 48.253687 4.772140
In 30.403647 27.602447 1.851614
In 41.134346 26.090776 7.301316
In 28.854849 43.505967 1.851614
In 31.952445 49.424612 1.460263
In 31.952445 49.424612 10.221842
In 28.854849 26.984975 4.772140
In 33.740894 28.017537 1.851614
In 41.373998 27.740810 1.460263
In 41.373998 27.740810 10.221842
In 40.894694 48.668777 4.772140
In 37.557446 27.602447 1.851614
In 41.134346 46.742016 1.460263
In 41.134346 46.742016 10.221842
In 30.403647 48.253687 4.772140
O 30.314940 48.641930 2.687468
O 37.646153 46.218301 8.021518
O 42.612321 29.030687 5.331129
O 32.502572 24.798009 8.106797
O 42.870573 26.714031 2.687468
O 34.150092 46.665607 8.021518
O 39.398119 47.169497 5.331129
O 40.964801 28.139792 8.106797
O 41.275276 48.551478 2.687468
O 42.664544 31.023531 8.021518
O 32.450349 47.707255 5.331129
O 40.993416 46.188150 8.106797
O 30.314940 48.641930 11.449047
O 30.492354 25.567061 5.100991
O 42.612321 45.551679 2.410602
O 39.656371 28.928257 5.186271
O 42.870573 26.714031 11.449047
O 41.303891 26.014367 5.100991
O 32.244320 26.518257 2.410602
O 40.964801 44.660784 5.186271
O 41.275276 48.551478 11.449047
O 42.664544 47.544523 5.100991
O 39.604148 27.056015 2.410602
O 33.839617 25.536910 5.186271
O 41.223053 25.702533 9.385988
O 33.891840 28.126163 4.051938
O 28.925672 45.313776 6.742327
O 39.035421 49.546454 3.966659
O 28.667420 47.630432 9.385988
O 37.387901 27.678857 4.051938
O 32.139874 27.174966 6.742327
O 30.573192 46.204671 3.966659
O 30.262717 25.792985 9.385988
O 28.873449 43.320932 4.051938
O 39.087644 26.637208 6.742327
O 30.544577 28.156313 3.966659
O 41.223053 25.702533 0.624409
O 41.045639 48.777402 6.972465
O 28.925672 28.792785 9.662853
O 31.881622 45.416207 6.887185
O 28.667420 47.630432 0.624409
O 30.234102 48.330096 6.972465
O 39.293673 47.826206 9.662853
O 30.573192 29.683679 6.887185
O 30.262717 25.792985 0.624409
O 28.873449 26.799940 6.972465
O 31.933845 47.288448 9.662853
O 37.698376 48.807553 6.887185
In 35.768997 37.172232 1.655938
In 32.192097 35.107108 7.496991
In 35.768997 41.302480 7.496991
In 39.345896 35.107108 7.496991
In 35.768997 37.172232 10.417517
In 39.345896 39.237356 4.576465
In 35.768997 33.041984 4.576465
In 32.192097 39.237356 4.576465
In 42.683144 39.098992 4.380790
In 39.585548 33.180347 4.772140
In 32.431749 37.310595 1.851614
In 35.529344 34.968744 7.301316
In 30.643299 42.196678 4.380790
In 37.317794 42.473405 4.772140
In 37.317794 34.212909 1.851614
In 37.797099 38.066430 7.301316
In 33.980547 30.221024 4.380790
In 30.403647 35.862943 4.772140
In 37.557446 39.993191 1.851614
In 33.980547 38.481520 7.301316
In 36.008649 31.115223 1.851614
In 39.106244 37.033868 1.460263
In 39.106244 37.033868 10.221842
In 36.008649 39.375719 4.772140
In 40.894694 40.408281 1.851614
In 34.220199 40.131554 1.460263
In 34.220199 40.131554 10.221842
In 33.740894 36.278033 4.772140
In 30.403647 39.993191 1.851614
In 33.980547 34.351272 1.460263
In 33.980547 34.351272 10.221842
In 37.557446 35.862943 4.772140
O 37.468739 36.251186 2.687468
O 30.492354 33.827557 8.021518
O 35.458522 41.421431 5.331129
O 39.656371 37.188753 8.106797
O 35.716774 39.104775 2.687468
O 41.303891 34.274863 8.021518
O 32.244320 34.778753 5.331129
O 33.811002 40.530536 8.106797
O 34.121477 36.160734 2.687468
O 35.510744 43.414275 8.021518
O 39.604148 35.316511 5.331129
O 33.839617 33.797406 8.106797
O 37.468739 36.251186 11.449047
O 37.646153 37.957805 5.100991
O 35.458522 33.160935 2.410602
O 32.502572 41.319001 5.186271
O 35.716774 39.104775 11.449047
O 34.150092 38.405111 5.100991
O 39.398119 38.909001 2.410602
O 33.811002 32.270040 5.186271
O 34.121477 36.160734 11.449047
O 35.510744 35.153779 5.100991
O 32.450349 39.446759 2.410602
O 40.993416 37.927654 5.186271
O 34.069254 38.093277 9.385988
O 41.045639 40.516906 4.051938
O 36.079471 32.923032 6.742327
O 31.881622 37.155711 3.966659
O 35.821219 35.239689 9.385988
O 30.234102 40.069601 4.051938
O 39.293673 39.565710 6.742327
O 37.726991 33.813927 3.966659
O 37.416517 38.183729 9.385988
O 36.027249 30.930188 4.051938
O 31.933845 39.027952 6.742327
O 37.698376 40.547057 3.966659
O 34.069254 38.093277 0.624409
O 33.891840 36.386658 6.972465
O 36.079471 41.183528 9.662853
O 39.035421 33.025463 6.887185
O 35.821219 35.239689 0.624409
O 37.387901 35.939353 6.972465
O 32.139874 35.435462 9.662853
O 37.726991 42.074423 6.887185
O 37.416517 38.183729 0.624409
O 36.027249 39.190684 6.972465
O 39.087644 34.897704 9.662853
O 30.544577 36.416809 6.887185
In 35.768997 28.911736 7.496991
In 32.192097 26.846612 13.338044
In 35.768997 33.041984 13.338044
In 39.345896 26.846612 13.338044
In 39.345896 30.976860 10.417517
In 35.768997 49.562975 10.417517
In 32.192097 30.976860 10.417517
In 42.683144 30.838496 10.221842
In 39.585548 24.919851 10.613193
In 32.431749 29.050099 7.692666
In 35.529344 26.708248 13.142369
In 30.643299 33.936182 10.221842
In 37.317794 34.212909 10.613193
In 37.317794 25.952413 7.692666
In 37.797099 29.805934 13.142369
In 33.980547 46.742016 10.221842
In 30.403647 27.602447 10.613193
In 37.557446 31.732695 7.692666
In 33.980547 30.221024 13.142369
In 36.008649 47.636215 7.692666
In 39.106244 28.773372 7.301316
In 36.008649 31.115223 10.613193
In 40.894694 32.147785 7.692666
In 34.220199 31.871058 7.301316
In 33.740894 28.017537 10.613193
In 30.403647 31.732695 7.692666
In 33.980547 26.090776 7.301316
In 37.557446 27.602447 10.613193
O 37.468739 27.990690 8.528521
O 30.492354 25.567061 13.862570
O 35.458522 33.160935 11.172181
O 39.656371 28.928257 13.947850
O 35.716774 30.844279 8.528521
O 41.303891 26.014367 13.862570
O 32.244320 26.518257 11.172181
O 33.811002 32.270040 13.947850
O 34.121477 27.900238 8.528521
O 35.510744 35.153779 13.862570
O 39.604148 27.056015 11.172181
O 33.839617 25.536910 13.947850
O 37.646153 29.697309 10.942044
O 35.458522 24.900439 8.251655
O 32.502572 33.058505 11.027323
O 34.150092 30.144615 10.942044
O 39.398119 30.648505 8.251655
O 33.811002 48.791032 11.027323
O 35.510744 26.893284 10.942044
O 32.450349 31.186263 8.251655
O 40.993416 29.667158 11.027323
O 41.045639 32.256410 9.892991
O 36.079471 49.444024 12.583380
O 31.881622 28.895215 9.807712
O 30.234102 31.809105 9.892991
O 39.293673 31.305214 12.583380
O 37.726991 25.553431 9.807712
O 36.027249 47.451180 9.892991
O 31.933845 30.767456 12.583380
O 37.698376 32.286561 9.807712
O 34.069254 29.832781 6.465461
O 33.891840 28.126163 12.813517
O 39.035421 49.546454 12.728238
O 35.821219 26.979193 6.465461
O 37.387901 27.678857 12.813517
O 37.726991 33.813927 12.728238
O 37.416517 29.923233 6.465461
O 36.027249 30.930188 12.813517
O 30.544577 28.156313 12.728238
In 28.615197 41.302480 7.496991
In 39.345896 39.237356 13.338044
In 28.615197 45.432728 13.338044
In 32.192097 39.237356 13.338044
In 32.192097 43.367604 10.417517
In 28.615197 37.172232 10.417517
In 39.345896 43.367604 10.417517
In 35.529344 43.229240 10.221842
In 32.431749 37.310595 10.613193
In 39.585548 41.440843 7.692666
In 42.683144 39.098992 13.142369
In 37.797099 46.326926 10.221842
In 30.163995 46.603653 10.613193
In 30.163995 38.343157 7.692666
In 30.643299 42.196678 13.142369
In 41.134346 34.351272 10.221842
In 37.557446 39.993191 10.613193
In 30.403647 44.123439 7.692666
In 41.134346 42.611768 13.142369
In 28.854849 35.245471 7.692666
In 31.952445 41.164116 7.301316
In 28.854849 43.505967 10.613193
In 33.740894 44.538529 7.692666
In 41.373998 44.261802 7.301316
In 40.894694 40.408281 10.613193
In 37.557446 44.123439 7.692666
In 41.134346 38.481520 7.301316
In 30.403647 39.993191 10.613193
O 30.314940 40.381434 8.528521
O 37.646153 37.957805 13.862570
O 42.612321 45.551679 11.172181
O 32.502572 41.319001 13.947850
O 42.870573 43.235023 8.528521
O 34.150092 38.405111 13.862570
O 39.398119 38.909001 11.172181
O 40.964801 44.660784 13.947850
O 41.275276 40.290982 8.528521
O 42.664544 47.544523 13.862570
O 32.450349 39.446759 11.172181
O 40.993416 37.927654 13.947850
O 30.492354 42.088053 10.942044
O 42.612321 37.291183 8.251655
O 39.656371 45.449248 11.027323
O 41.303891 42.535359 10.942044
O 32.244320 43.039249 8.251655
O 40.964801 36.400288 11.027323
O 42.664544 39.284027 10.942044
O 39.604148 43.577007 8.251655
O 33.839617 42.057902 11.027323
O 33.891840 44.647154 9.892991
O 28.925672 37.053280 12.583380
O 39.035421 41.285959 9.807712
O 37.387901 44.199848 9.892991
O 32.139874 43.695958 12.583380
O 30.573192 37.944175 9.807712
O 28.873449 35.060436 9.892991
O 39.087644 43.158200 12.583380
O 30.544577 44.677305 9.807712
O 41.223053 42.223525 6.465461
O 41.045639 40.516906 12.813517
O 31.881622 37.155711 12.728238
O 28.667420 39.369937 6.465461
O 30.234102 40.069601 12.813517
O 30.573192 46.204671 12.728238
O 30.262717 42.313977 6.465461
O 28.873449 43.320932 12.813517
O 37.698376 40.547057 12.728238
In 28.615197 33.041984 13.338044
In 39.345896 30.976860 1.655938
In 28.615197 37.172232 1.655938
In 32.192097 30.976860 1.655938
In 28.615197 33.041984 4.576465
In 39.585548 33.180347 13.533719
In 42.683144 30.838496 1.460263
In 30.163995 30.082661 13.533719
In 30.643299 33.936182 1.460263
In 30.403647 35.862943 13.533719
In 41.134346 34.351272 1.460263
In 28.854849 26.984975 13.533719
In 31.952445 32.903620 13.142369
In 31.952445 32.903620 4.380790
In 33.740894 36.278033 13.533719
In 41.373998 36.001306 13.142369
In 41.373998 36.001306 4.380790
In 37.557446 35.862943 13.533719
In 41.134346 30.221024 13.142369
In 41.134346 30.221024 4.380790
O 30.314940 32.120938 14.369574
O 37.646153 29.697309 2.180465
O 32.502572 33.058505 2.265744
O 42.870573 34.974527 14.369574
O 34.150092 30.144615 2.180465
O 40.964801 36.400288 2.265744
O 41.275276 32.030486 14.369574
O 42.664544 39.284027 2.180465
O 40.993416 29.667158 2.265744
O 30.314940 32.120938 5.607995
O 42.612321 29.030687 14.092708
O 42.870573 34.974527 5.607995
O 32.244320 34.778753 14.092708
O 41.275276 32.030486 5.607995
O 39.604148 35.316511 14.092708
O 41.223053 33.963029 3.544935
O 28.925672 28.792785 0.901274
O 28.667420 31.109441 3.544935
O 32.139874 35.435462 0.901274
O 30.262717 34.053481 3.544935
O 39.087644 34.897704 0.901274
O 41.223053 33.963029 12.306514
O 41.045639 32.256410 1.131412
O 28.925672 37.053280 3.821801
O 31.881622 28.895215 1.046133
O 28.667420 31.109441 12.306514
O 30.234102 31.809105 1.131412
O 39.293673 31.305214 3.821801
O 30.573192 37.944175 1.046133
O 30.262717 34.053481 12.306514
O 28.873449 35.060436 1.131412
O 31.933845 30.767456 3.821801
O 37.698376 32.286561 1.046133
In 35.768997 45.432728 13.338044
In 32.192097 43.367604 1.655938
In 35.768997 49.562975 1.655938
In 39.345896 43.367604 1.655938
In 35.768997 45.432728 4.576465
In 32.431749 45.571091 13.533719
In 35.529344 43.229240 1.460263
In 37.317794 42.473405 13.533719
In 37.797099 46.326926 1.460263
In 37.557446 48.253687 13.533719
In 33.980547 46.742016 1.460263
In 36.008649 39.375719 13.533719
In 39.106244 45.294364 13.142369
In 39.106244 45.294364 4.380790
In 40.894694 48.668777 13.533719
In 34.220199 48.392050 13.142369
In 34.220199 48.392050 4.380790
In 30.403647 48.253687 13.533719
In 33.980547 42.611768 13.142369
In 33.980547 42.611768 4.380790
O 37.468739 44.511682 14.369574
O 30.492354 42.088053 2.180465
O 39.656371 45.449248 2.265744
O 35.716774 47.365271 14.369574
O 41.303891 42.535359 2.180465
O 33.811002 48.791032 2.265744
O 34.121477 44.421230 14.369574
O 35.510744 26.893284 2.180465
O 33.839617 42.057902 2.265744
O 37.468739 44.511682 5.607995
O 35.458522 41.421431 14.092708
O 35.716774 47.365271 5.607995
O 39.398119 47.169497 14.092708
O 34.121477 44.421230 5.607995
O 32.450349 47.707255 14.092708
O 34.069254 46.353773 3.544935
O 36.079471 41.183528 0.901274
O 35.821219 43.500184 3.544935
O 39.293673 47.826206 0.901274
O 37.416517 46.444225 3.544935
O 31.933845 47.288448 0.901274
O 34.069254 46.353773 12.306514
O 33.891840 44.647154 1.131412
O 36.079471 49.444024 3.821801
O 39.035421 41.285959 1.046133
O 35.821219 43.500184 12.306514
O 37.387901 44.199848 1.131412
O 32.139874 43.695958 3.821801
O 37.726991 25.553431 1.046133
O 37.416517 46.444225 12.306514
O 36.027249 47.451180 1.131412
O 39.087644 43.158200 3.821801
O 30.544577 44.677305 1.046133
In 35.768997 28.911736 16.258570
In 39.106244 28.773372 16.062895
In 34.220199 31.871058 16.062895
In 33.980547 26.090776 16.062895
O 37.468739 27.990690 17.290100
O 35.716774 30.844279 17.290100
O 34.121477 27.900238 17.290100
O 34.069254 29.832781 15.227040
O 35.821219 26.979193 15.227040
O 37.416517 29.923233 15.227040
O 36.079471 32.923032 15.503906
O 32.139874 27.174966 15.503906
O 39.087644 26.637208 15.503906
In 28.615197 41.302480 16.258570
In 31.952445 41.164116 16.062895
In 41.373998 44.261802 16.062895
In 41.134346 38.481520 16.062895
O 30.314940 40.381434 17.290100
O 42.870573 43.235023 17.290100
O 41.275276 40.290982 17.290100
O 41.223053 42.223525 15.227040
O 28.667420 39.369937 15.227040
O 30.262717 42.313977 15.227040
O 28.925672 45.313776 15.503906
O 39.293673 39.565710 15.503906
O 31.933845 39.027952 15.503906
In 32.192097 35.107108 16.258570
In 28.615197 28.911736 16.258570
In 39.345896 35.107108 16.258570
In 35.529344 34.968744 16.062895
In 32.431749 29.050099 16.454245
In 37.797099 38.066430 16.062895
In 30.163995 38.343157 16.454245
In 41.134346 26.090776 16.062895
In 37.557446 31.732695 16.454245
In 28.854849 35.245471 16.454245
In 40.894694 32.147785 16.454245
In 30.403647 31.732695 16.454245
O 42.612321 37.291183 17.013234
O 39.398119 30.648505 17.013234
O 32.450349 31.186263 17.013234
O 30.492354 33.827557 16.783097
O 39.656371 37.188753 16.868376
O 41.303891 34.274863 16.783097
O 40.964801 28.139792 16.868376
O 42.664544 31.023531 16.783097
O 33.839617 33.797406 16.868376
O 33.891840 36.386658 15.734044
O 39.035421 33.025463 15.648764
O 37.387901 35.939353 15.734044
O 30.573192 29.683679 15.648764
O 28.873449 26.799940 15.734044
O 30.544577 36.416809 15.648764
In 39.345896 47.497851 16.258570
In 35.768997 41.302480 16.258570
In 32.192097 47.497851 16.258570
In 42.683144 47.359488 16.062895
In 39.585548 41.440843 16.454245
In 30.643299 25.675686 16.062895
In 37.317794 25.952413 16.454245
In 33.980547 38.481520 16.062895
In 30.403647 44.123439 16.454245
In 36.008649 47.636215 16.454245
In 33.740894 44.538529 16.454245
In 37.557446 44.123439 16.454245
O 35.458522 24.900439 17.013234
O 32.244320 43.039249 17.013234
O 39.604148 43.577007 17.013234
O 37.646153 46.218301 16.783097
O 32.502572 24.798009 16.868376
O 34.150092 46.665607 16.783097
O 33.811002 40.530536 16.868376
O 35.510744 43.414275 16.783097
O 40.993416 46.188150 16.868376
O 41.045639 48.777402 15.734044
O 31.881622 45.416207 15.648764
O 30.234102 48.330096 15.734044
O 37.726991 42.074423 15.648764
O 36.027249 39.190684 15.734044
O 37.698376 48.807553 15.648764
In 42.922796 0.000000 1.655938
In 53.653495 22.716364 7.496991
In 42.922796 4.130248 7.496991
In 46.499695 22.716364 7.496991
In 42.922796 24.781488 10.417517
In 46.499695 2.065124 4.576465
In 42.922796 20.651240 4.576465
In 53.653495 2.065124 4.576465
In 49.836943 1.926761 4.380790
In 46.739348 20.789603 4.772140
In 53.893147 0.138363 1.851614
In 56.990742 22.578000 7.301316
In 52.104697 5.024447 4.380790
In 44.471593 5.301173 4.772140
In 44.471593 21.822165 1.851614
In 44.950898 0.894199 7.301316
In 55.441945 17.830280 4.380790
In 51.865045 23.472199 4.772140
In 44.711246 2.820959 1.851614
In 55.441945 1.309289 7.301316
In 43.162448 18.724479 1.851614
In 46.260043 24.643124 1.460263
In 46.260043 24.643124 10.221842
In 43.162448 2.203487 4.772140
In 48.048493 3.236049 1.851614
In 55.681597 2.959323 1.460263
In 55.681597 2.959323 10.221842
In 55.202292 23.887289 4.772140
In 51.865045 2.820959 1.851614
In 55.441945 21.960528 1.460263
In 55.441945 21.960528 10.221842
In 44.711246 23.472199 4.772140
O 44.622539 23.860442 2.687468
O 51.953752 21.436813 8.021518
O 56.919920 4.249199 5.331129
O 46.810170 0.016521 8.106797
O 57.178172 1.932543 2.687468
O 48.457690 21.884119 8.021518
O 53.705718 22.388009 5.331129
O 55.272400 3.358305 8.106797
O 55.582874 23.769990 2.687468
O 56.972142 6.242044 8.021518
O 46.757948 22.925767 5.331129
O 55.301015 21.406662 8.106797
O 44.622539 23.860442 11.449047
O 44.799953 0.785573 5.100991
O 56.919920 20.770191 2.410602
O 53.963970 4.146769 5.186271
O 57.178172 1.932543 11.449047
O 55.611490 1.232879 5.100991
O 46.551918 1.736769 2.410602
O 55.272400 19.879296 5.186271
O 55.582874 23.769990 11.449047
O 56.972142 22.763036 5.100991
O 53.911747 2.274528 2.410602
O 48.147215 0.755422 5.186271
O 55.530652 0.921045 9.385988
O 48.199438 3.344675 4.051938
O 43.233271 20.532289 6.742327
O 53.343020 24.764967 3.966659
O 42.975019 22.848945 9.385988
O 51.695500 2.897369 4.051938
O 46.447473 2.393479 6.742327
O 44.880791 21.423183 3.966659
O 44.570316 1.011498 9.385988
O 43.181048 18.539444 4.051938
O 53.395243 1.855720 6.742327
O 44.852176 3.374826 3.966659
O 55.530652 0.921045 0.624409
O 55.353238 23.995915 6.972465
O 43.233271 4.011297 9.662853
O 46.189221 20.634719 6.887185
O 42.975019 22.848945 0.624409
O 44.541701 23.548609 6.972465
O 53.601272 23.044718 9.662853
O 44.880791 4.902191 6.887185
O 44.570316 1.011498 0.624409
O 43.181048 2.018452 6.972465
O 46.241443 22.506960 9.662853
O 52.005975 24.026065 6.887185
In 50.076595 12.390744 1.655938
In 46.499695 10.325620 7.496991
In 50.076595 16.520992 7.496991
In 53.653495 10.325620 7.496991
In 50.076595 12.390744 10.417517
In 53.653495 14.455868 4.576465
In 50.076595 8.260496 4.576465
In 46.499695 14.455868 4.576465
In 56.990742 14.317505 4.380790
In 53.893147 8.398859 4.772140
In 46.739348 12.529107 1.851614
In 49.836943 10.187257 7.301316
In 44.950898 17.415191 4.380790
In 51.625393 17.691917 4.772140
In 51.625393 9.431421 1.851614
In 52.104697 13.284943 7.301316
In 48.288145 5.439537 4.380790
In 44.711246 11.081455 4.772140
In 51.865045 15.211703 1.851614
In 48.288145 13.700032 7.301316
In 50.316247 6.333735 1.851614
In 53.413843 12.252381 1.460263
In 53.413843 12.252381 10.221842
In 50.316247 14.594231 4.772140
In 55.202292 15.626793 1.851614
In 48.527798 15.350067 1.460263
In 48.527798 15.350067 10.221842
In 48.048493 11.496545 4.772140
In 44.711246 15.211703 1.851614
In 48.288145 9.569785 1.460263
In 48.288145 9.569785 10.221842
In 51.865045 11.081455 4.772140
O 51.776338 11.469699 2.687468
O 44.799953 9.046069 8.021518
O 49.766120 16.639943 5.331129
O 53.963970 12.407265 8.106797
O 50.024372 14.323287 2.687468
O 55.611490 9.493375 8.021518
O 46.551918 9.997265 5.331129
O 48.118600 15.749048 8.106797
O 48.429075 11.379246 2.687468
O 49.818343 18.632788 8.021518
O 53.911747 10.535023 5.331129
O 48.147215 9.015918 8.106797
O 51.776338 11.469699 11.449047
O 51.953752 13.176317 5.100991
O 49.766120 8.379447 2.410602
O 46.810170 16.537513 5.186271
O 50.024372 14.323287 11.449047
O 48.457690 13.623623 5.100991
O 53.705718 14.127513 2.410602
O 48.118600 7.488553 5.186271
O 48.429075 11.379246 11.449047
O 49.818343 10.372292 5.100991
O 46.757948 14.665271 2.410602
O 55.301015 13.146166 5.186271
O 48.376852 13.311789 9.385988
O 55.353238 15.735419 4.051938
O 50.387070 8.141545 6.742327
O 46.189221 12.374223 3.966659
O 50.128818 10.458201 9.385988
O 44.541701 15.288113 4.051938
O 53.601272 14.784223 6.742327
O 52.034590 9.032439 3.966659
O 51.724115 13.402242 9.385988
O 50.334847 6.148700 4.051938
O 46.241443 14.246464 6.742327
O 52.005975 15.765569 3.966659
O 48.376852 13.311789 0.624409
O 48.199438 11.605171 6.972465
O 50.387070 16.402041 9.662853
O 53.343020 8.243975 6.887185
O 50.128818 10.458201 0.624409
O 51.695500 11.157865 6.972465
O 46.447473 10.653975 9.662853
O 52.034590 17.292935 6.887185
O 51.724115 13.402242 0.624409
O 50.334847 14.409196 6.972465
O 53.395243 10.116216 9.662853
O 44.852176 11.635322 6.887185
In 50.076595 4.130248 7.496991
In 46.499695 2.065124 13.338044
In 50.076595 8.260496 13.338044
In 53.653495 2.065124 13.338044
In 53.653495 6.195372 10.417517
In 50.076595 24.781488 10.417517
In 46.499695 6.195372 10.417517
In 56.990742 6.057009 10.221842
In 53.893147 0.138363 10.613193
In 46.739348 4.268611 7.692666
In 49.836943 1.926761 13.142369
In 44.950898 9.154695 10.221842
In 51.625393 9.431421 10.613193
In 51.625393 1.170925 7.692666
In 52.104697 5.024447 13.142369
In 48.288145 21.960528 10.221842
In 44.711246 2.820959 10.613193
In 51.865045 6.951207 7.692666
In 48.288145 5.439537 13.142369
In 50.316247 22.854727 7.692666
In 53.413843 3.991885 7.301316
In 50.316247 6.333735 10.613193
In 55.202292 7.366297 7.692666
In 48.527798 7.089571 7.301316
In 48.048493 3.236049 10.613193
In 44.711246 6.951207 7.692666
In 48.288145 1.309289 7.301316
In 51.865045 2.820959 10.613193
O 51.776338 3.209203 8.528521
O 44.799953 0.785573 13.862570
O 49.766120 8.379447 11.172181
O 53.963970 4.146769 13.947850
O 50.024372 6.062791 8.528521
O 55.611490 1.232879 13.862570
O 46.551918 1.736769 11.172181
O 48.118600 7.488553 13.947850
O 48.429075 3.118750 8.528521
O 49.818343 10.372292 13.862570
O 53.911747 2.274528 11.172181
O 48.147215 0.755422 13.947850
O 51.953752 4.915821 10.942044
O 49.766120 0.118951 8.251655
O 46.810170 8.277017 11.027323
O 48.457690 5.363127 10.942044
O 53.705718 5.867017 8.251655
O 48.118600 24.009544 11.027323
O 49.818343 2.111796 10.942044
O 46.757948 6.404776 8.251655
O 55.301015 4.885670 11.027323
O 55.353238 7.474923 9.892991
O 50.387070 24.662537 12.583380
O 46.189221 4.113727 9.807712
O 44.541701 7.027617 9.892991
O 53.601272 6.523727 12.583380
O 52.034590 0.771943 9.807712
O 50.334847 22.669692 9.892991
O 46.241443 5.985968 12.583380
O 52.005975 7.505074 9.807712
O 48.376852 5.051293 6.465461
O 48.199438 3.344675 12.813517
O 53.343020 24.764967 12.728238
O 50.128818 2.197705 6.465461
O 51.695500 2.897369 12.813517
O 52.034590 9.032439 12.728238
O 51.724115 5.141746 6.465461
O 50.334847 6.148700 12.813517
O 44.852176 3.374826 12.728238
In 42.922796 16.520992 7.496991
In 53.653495 14.455868 13.338044
In 42.922796 20.651240 13.338044
In 46.499695 14.455868 13.338044
In 46.499695 18.586116 10.417517
In 42.922796 12.390744 10.417517
In 53.653495 18.586116 10.417517
In 49.836943 18.447752 10.221842
In 46.739348 12.529107 10.613193
In 53.893147 16.659355 7.692666
In 56.990742 14.317505 13.142369
In 52.104697 21.545438 10.221842
In 44.471593 21.822165 10.613193
In 44.471593 13.561669 7.692666
In 44.950898 17.415191 13.142369
In 55.441945 9.569785 10.221842
In 51.865045 15.211703 10.613193
In 44.711246 19.341951 7.692666
In 55.441945 17.830280 13.142369
In 43.162448 10.463983 7.692666
In 46.260043 16.382629 7.301316
In 43.162448 18.724479 10.613193
In 48.048493 19.757041 7.692666
In 55.681597 19.480314 7.301316
In 55.202292 15.626793 10.613193
In 51.865045 19.341951 7.692666
In 55.441945 13.700032 7.301316
In 44.711246 15.211703 10.613193
O 44.622539 15.599947 8.528521
O 51.953752 13.176317 13.862570
O 56.919920 20.770191 11.172181
O 46.810170 16.537513 13.947850
O 57.178172 18.453535 8.528521
O 48.457690 13.623623 13.862570
O 53.705718 14.127513 11.172181
O 55.272400 19.879296 13.947850
O 55.582874 15.509494 8.528521
O 56.972142 22.763036 13.862570
O 46.757948 14.665271 11.172181
O 55.301015 13.146166 13.947850
O 44.799953 17.306565 10.942044
O 56.919920 12.509695 8.251655
O 53.963970 20.667761 11.027323
O 55.611490 17.753871 10.942044
O 46.551918 18.257761 8.251655
O 55.272400 11.618801 11.027323
O 56.972142 14.502540 10.942044
O 53.911747 18.795519 8.251655
O 48.147215 17.276414 11.027323
O 48.199438 19.865667 9.892991
O 43.233271 12.271793 12.583380
O 53.343020 16.504471 9.807712
O 51.695500 19.418361 9.892991
O 46.447473 18.914471 12.583380
O 44.880791 13.162687 9.807712
O 43.181048 10.278948 9.892991
O 53.395243 18.376712 12.583380
O 44.852176 19.895817 9.807712
O 55.530652 17.442037 6.465461
O 55.353238 15.735419 12.813517
O 46.189221 12.374223 12.728238
O 42.975019 14.588449 6.465461
O 44.541701 15.288113 12.813517
O 44.880791 21.423183 12.728238
O 44.570316 17.532490 6.465461
O 43.181048 18.539444 12.813517
O 52.005975 15.765569 12.728238
In 42.922796 8.260496 13.338044
In 53.653495 6.195372 1.655938
In 42.922796 12.390744 1.655938
In 46.499695 6.195372 1.655938
In 42.922796 8.260496 4.576465
In 53.893147 8.398859 13.533719
In 56.990742 6.057009 1.460263
In 44.471593 5.301173 13.533719
In 44.950898 9.154695 1.460263
In 44.711246 11.081455 13.533719
In 55.441945 9.569785 1.460263
In 43.162448 2.203487 13.533719
In 46.260043 8.122133 13.142369
In 46.260043 8.122133 4.380790
In 48.048493 11.496545 13.533719
In 55.681597 11.219819 13.142369
In 55.681597 11.219819 4.380790
In 51.865045 11.081455 13.533719
In 55.441945 5.439537 13.142369
In 55.441945 5.439537 4.380790
O 44.622539 7.339451 14.369574
O 51.953752 4.915821 2.180465
O 46.810170 8.277017 2.265744
O 57.178172 10.193039 14.369574
O 48.457690 5.363127 2.180465
O 55.272400 11.618801 2.265744
O 55.582874 7.248998 14.369574
O 56.972142 14.502540 2.180465
O 55.301015 4.885670 2.265744
O 44.622539 7.339451 5.607995
O 56.919920 4.249199 14.092708
O 57.178172 10.193039 5.607995
O 46.551918 9.997265 14.092708
O 55.582874 7.248998 5.607995
O 53.911747 10.535023 14.092708
O 55.530652 9.181541 3.544935
O 43.233271 4.011297 0.901274
O 42.975019 6.327953 3.544935
O 46.447473 10.653975 0.901274
O 44.570316 9.271994 3.544935
O 53.395243 10.116216 0.901274
O 55.530652 9.181541 12.306514
O 55.353238 7.474923 1.131412
O 43.233271 12.271793 3.821801
O 46.189221 4.113727 1.046133
O 42.975019 6.327953 12.306514
O 44.541701 7.027617 1.131412
O 53.601272 6.523727 3.821801
O 44.880791 13.162687 1.046133
O 44.570316 9.271994 12.306514
O 43.181048 10.278948 1.131412
O 46.241443 5.985968 3.821801
O 52.005975 7.505074 1.046133
In 50.076595 20.651240 13.338044
In 46.499695 18.586116 1.655938
In 50.076595 24.781488 1.655938
In 53.653495 18.586116 1.655938
In 50.076595 20.651240 4.576465
In 46.739348 20.789603 13.533719
In 49.836943 18.447752 1.460263
In 51.625393 17.691917 13.533719
In 52.104697 21.545438 1.460263
In 51.865045 23.472199 13.533719
In 48.288145 21.960528 1.460263
In 50.316247 14.594231 13.533719
In 53.413843 20.512876 13.142369
In 53.413843 20.512876 4.380790
In 55.202292 23.887289 13.533719
In 48.527798 23.610562 13.142369
In 48.527798 23.610562 4.380790
In 44.711246 23.472199 13.533719
In 48.288145 17.830280 13.142369
In 48.288145 17.830280 4.380790
O 51.776338 19.730194 14.369574
O 44.799953 17.306565 2.180465
O 53.963970 20.667761 2.265744
O 50.024372 22.583783 14.369574
O 55.611490 17.753871 2.180465
O 48.118600 24.009544 2.265744
O 48.429075 19.639742 14.369574
O 49.818343 2.111796 2.180465
O 48.147215 17.276414 2.265744
O 51.776338 19.730194 5.607995
O 49.766120 16.639943 14.092708
O 50.024372 22.583783 5.607995
O 53.705718 22.388009 14.092708
O 48.429075 19.639742 5.607995
O 46.757948 22.925767 14.092708
O 48.376852 21.572285 3.544935
O 50.387070 16.402041 0.901274
O 50.128818 18.718697 3.544935
O 53.601272 23.044718 0.901274
O 51.724115 21.662737 3.544935
O 46.241443 22.506960 0.901274
O 48.376852 21.572285 12.306514
O 48.199438 19.865667 1.131412
O 50.387070 24.662537 3.821801
O 53.343020 16.504471 1.046133
O 50.128818 18.718697 12.306514
O 51.695500 19.418361 1.131412
O 46.447473 18.914471 3.821801
O 52.034590 0.771943 1.046133
O 51.724115 21.662737 12.306514
O 50.334847 22.669692 1.131412
O 53.395243 18.376712 3.821801
O 44.852176 19.895817 1.046133
In 50.076595 4.130248 16.258570
In 53.413843 3.991885 16.062895
In 48.527798 7.089571 16.062895
In 48.288145 1.309289 16.062895
O 51.776338 3.209203 17.290100
O 50.024372 6.062791 17.290100
O 48.429075 3.118750 17.290100
O 48.376852 5.051293 15.227040
O 50.128818 2.197705 15.227040
O 51.724115 5.141746 15.227040
O 50.387070 8.141545 15.503906
O 46.447473 2.393479 15.503906
O 53.395243 1.855720 15.503906
In 42.922796 16.520992 16.258570
In 46.260043 16.382629 16.062895
In 55.681597 19.480314 16.062895
In 55.441945 13.700032 16.062895
O 44.622539 15.599947 17.290100
O 57.178172 18.453535 17.290100
O 55.582874 15.509494 17.290100
O 55.530652 17.442037 15.227040
O 42.975019 14.588449 15.227040
O 44.570316 17.532490 15.227040
O 43.233271 20.532289 15.503906
O 53.601272 14.784223 15.503906
O 46.241443 14.246464 15.503906
In 46.499695 10.325620 16.258570
In 42.922796 4.130248 16.258570
In 53.653495 10.325620 16.258570
In 49.836943 10.187257 16.062895
In 46.739348 4.268611 16.454245
In 52.104697 13.284943 16.062895
In 44.471593 13.561669 16.454245
In 55.441945 1.309289 16.062895
In 51.865045 6.951207 16.454245
In 43.162448 10.463983 16.454245
In 55.202292 7.366297 16.454245
In 44.711246 6.951207 16.454245
O 56.919920 12.509695 17.013234
O 53.705718 5.867017 17.013234
O 46.757948 6.404776 17.013234
O 44.799953 9.046069 16.783097
O 53.963970 12.407265 16.868376
O 55.611490 9.493375 16.783097
O 55.272400 3.358305 16.868376
O 56.972142 6.242044 16.783097
O 48.147215 9.015918 16.868376
O 48.199438 11.605171 15.734044
O 53.343020 8.243975 15.648764
O 51.695500 11.157865 15.734044
O 44.880791 4.902191 15.648764
O 43.181048 2.018452 15.734044
O 44.852176 11.635322 15.648764
In 53.653495 22.716364 16.258570
In 50.076595 16.520992 16.258570
In 46.499695 22.716364 16.258570
In 56.990742 22.578000 16.062895
In 53.893147 16.659355 16.454245
In 44.950898 0.894199 16.062895
In 51.625393 1.170925 16.454245
In 48.288145 13.700032 16.062895
In 44.711246 19.341951 16.454245
In 50.316247 22.854727 16.454245
In 48.048493 19.757041 16.454245
In 51.865045 19.341951 16.454245
O 49.766120 0.118951 17.013234
O 46.551918 18.257761 17.013234
O 53.911747 18.795519 17.013234
O 51.953752 21.436813 16.783097
O 46.810170 0.016521 16.868376
O 48.457690 21.884119 16.783097
O 48.118600 15.749048 16.868376
O 49.818343 18.632788 16.783097
O 55.301015 21.406662 16.868376
O 55.353238 23.995915 15.734044
O 46.189221 20.634719 15.648764
O 44.541701 23.548609 15.734044
O 52.034590 17.292935 15.648764
O 50.334847 14.409196 15.734044
O 52.005975 24.026065 15.648764
In 42.922796 24.781488 1.655938
In 53.653495 47.497851 7.496991
In 42.922796 28.911736 7.496991
In 46.499695 47.497851 7.496991
In 42.922796 49.562975 10.417517
In 46.499695 26.846612 4.576465
In 42.922796 45.432728 4.576465
In 53.653495 26.846612 4.576465
In 49.836943 26.708248 4.380790
In 46.739348 45.571091 4.772140
In 53.893147 24.919851 1.851614
In 56.990742 47.359488 7.301316
In 52.104697 29.805934 4.380790
In 44.471593 30.082661 4.772140
In 44.471593 46.603653 1.851614
In 44.950898 25.675686 7.301316
In 55.441945 42.611768 4.380790
In 51.865045 48.253687 4.772140
In 44.711246 27.602447 1.851614
In 55.441945 26.090776 7.301316
In 43.162448 43.505967 1.851614
In 46.260043 49.424612 1.460263
In 46.260043 49.424612 10.221842
In 43.162448 26.984975 4.772140
In 48.048493 28.017537 1.851614
In 55.681597 27.740810 1.460263
In 55.681597 27.740810 10.221842
In 55.202292 48.668777 4.772140
In 51.865045 27.602447 1.851614
In 55.441945 46.742016 1.460263
In 55.441945 46.742016 10.221842
In 44.711246 48.253687 4.772140
O 44.622539 48.641930 2.687468
O 51.953752 46.218301 8.021518
O 56.919920 29.030687 5.331129
O 46.810170 24.798009 8.106797
O 57.178172 26.714031 2.687468
O 48.457690 46.665607 8.021518
O 53.705718 47.169497 5.331129
O 55.272400 28.139792 8.106797
O 55.582874 48.551478 2.687468
O 56.972142 31.023531 8.021518
O 46.757948 47.707255 5.331129
O 55.301015 46.188150 8.106797
O 44.622539 48.641930 11.449047
O 44.799953 25.567061 5.100991
O 56.919920 45.551679 2.410602
O 53.963970 28.928257 5.186271
O 57.178172 26.714031 11.449047
O 55.611490 26.014367 5.100991
O 46.551918 26.518257 2.410602
O 55.272400 44.660784 5.186271
O 55.582874 48.551478 11.449047
O 56.972142 47.544523 5.100991
O 53.911747 27.056015 2.410602
O 48.147215 25.536910 5.186271
O 55.530652 25.702533 9.385988
O 48.199438 28.126163 4.051938
O 43.233271 45.313776 6.742327
O 53.343020 49.546454 3.966659
O 42.975019 47.630432 9.385988
O 51.695500 27.678857 4.051938
O 46.447473 27.174966 6.742327
O 44.880791 46.204671 3.966659
O 44.570316 25.792985 9.385988
O 43.181048 43.320932 4.051938
O 53.395243 26.637208 6.742327
O 44.852176 28.156313 3.966659
O 55.530652 25.702533 0.624409
O 55.353238 48.777402 6.972465
O 43.233271 28.792785 9.662853
O 46.189221 45.416207 6.887185
O 42.975019 47.630432 0.624409
O 44.541701 48.330096 6.972465
O 53.601272 47.826206 9.662853
O 44.880791 29.683679 6.887185
O 44.570316 25.792985 0.624409
O 43.181048 26.799940 6.972465
O 46.241443 47.288448 9.662853
O 52.005975 48.807553 6.887185
In 50.076595 37.172232 1.655938
In 46.499695 35.107108 7.496991
In 50.076595 41.302480 7.496991
In 53.653495 35.107108 7.496991
In 50.076595 37.172232 10.417517
In 53.653495 39.237356 4.576465
In 50.076595 33.041984 4.576465
In 46.499695 39.237356 4.576465
In 56.990742 39.098992 4.380790
In 53.893147 33.180347 4.772140
In 46.739348 37.310595 1.851614
In 49.836943 34.968744 7.301316
In 44.950898 42.196678 4.380790
In 51.625393 42.473405 4.772140
In 51.625393 34.212909 1.851614
In 52.104697 38.066430 7.301316
In 48.288145 30.221024 4.380790
In 44.711246 35.862943 4.772140
In 51.865045 39.993191 1.851614
In 48.288145 38.481520 7.301316
In 50.316247 31.115223 1.851614
In 53.413843 37.033868 1.460263
In 53.413843 37.033868 10.221842
In 50.316247 39.375719 4.772140
In 55.202292 40.408281 1.851614
In 48.527798 40.131554 1.460263
In 48.527798 40.131554 10.221842
In 48.048493 36.278033 4.772140
In 44.711246 39.993191 1.851614
In 48.288145 34.351272 1.460263
In 48.288145 34.351272 10.221842
In 51.865045 35.862943 4.772140
O 51.776338 36.251186 2.687468
O 44.799953 33.827557 8.021518
O 49.766120 41.421431 5.331129
O 53.963970 37.188753 8.106797
O 50.024372 39.104775 2.687468
O 55.611490 34.274863 8.021518
O 46.551918 34.778753 5.331129
O 48.118600 40.530536 8.106797
O 48.429075 36.160734 2.687468
O 49.818343 43.414275 8.021518
O 53.911747 35.316511 5.331129
O 48.147215 33.797406 8.106797
O 51.776338 36.251186 11.449047
O 51.953752 37.957805 5.100991
O 49.766120 33.160935 2.410602
O 46.810170 41.319001 5.186271
O 50.024372 39.104775 11.449047
O 48.457690 38.405111 5.100991
O 53.705718 38.909001 2.410602
O 48.118600 32.270040 5.186271
O 48.429075 36.160734 11.449047
O 49.818343 35.153779 5.100991
O 46.757948 39.446759 2.410602
O 55.301015 37.927654 5.186271
O 48.376852 38.093277 9.385988
O 55.353238 40.516906 4.051938
O 50.387070 32.923032 6.742327
O 46.189221 37.155711 3.966659
O 50.128818 35.239689 9.385988
O 44.541701 40.069601 4.051938
O 53.601272 39.565710 6.742327
O 52.034590 33.813927 3.966659
O 51.724115 38.183729 9.385988
O 50.334847 30.930188 4.051938
O 46.241443 39.027952 6.742327
O 52.005975 40.547057 3.966659
O 48.376852 38.093277 0.624409
O 48.199438 36.386658 6.972465
O 50.387070 41.183528 9.662853
O 53.343020 33.025463 6.887185
O 50.128818 35.239689 0.624409
O 51.695500 35.939353 6.972465
O 46.447473 35.435462 9.662853
O 52.034590 42.074423 6.887185
O 51.724115 38.183729 0.624409
O 50.334847 39.190684 6.972465
O 53.395243 34.897704 9.662853
O 44.852176 36.416809 6.887185
In 50.076595 28.911736 7.496991
In 46.499695 26.846612 13.338044
In 50.076595 33.041984 13.338044
In 53.653495 26.846612 13.338044
In 53.653495 30.976860 10.417517
In 50.076595 49.562975 10.417517
In 46.499695 30.976860 10.417517
In 56.990742 30.838496 10.221842
In 53.893147 24.919851 10.613193
In 46.739348 29.050099 7.692666
In 49.836943 26.708248 13.142369
In 44.950898 33.936182 10.221842
In 51.625393 34.212909 10.613193
In 51.625393 25.952413 7.692666
In 52.104697 29.805934 13.142369
In 48.288145 46.742016 10.221842
In 44.711246 27.602447 10.613193
In 51.865045 31.732695 7.692666
In 48.288145 30.221024 13.142369
In 50.316247 47.636215 7.692666
In 53.413843 28.773372 7.301316
In 50.316247 31.115223 10.613193
In 55.202292 32.147785 7.692666
In 48.527798 31.871058 7.301316
In 48.048493 28.017537 10.613193
In 44.711246 31.732695 7.692666
In 48.288145 26.090776 7.301316
In 51.865045 27.602447 10.613193
O 51.776338 27.990690 8.528521
O 44.799953 25.567061 13.862570
O 49.766120 33.160935 11.172181
O 53.963970 28.928257 13.947850
O 50.024372 30.844279 8.528521
O 55.611490 26.014367 13.862570
O 46.551918 26.518257 11.172181
O 48.118600 32.270040 13.947850
O 48.429075 27.900238 8.528521
O 49.818343 35.153779 13.862570
O 53.911747 27.056015 11.172181
O 48.147215 25.536910 13.947850
O 51.953752 29.697309 10.942044
O 49.766120 24.900439 8.251655
O 46.810170 33.058505 11.027323
O 48.457690 30.144615 10.942044
O 53.705718 30.648505 8.251655
O 48.118600 48.791032 11.027323
O 49.818343 26.893284 10.942044
O 46.757948 31.186263 8.251655
O 55.301015 29.667158 11.027323
O 55.353238 32.256410 9.892991
O 50.387070 49.444024 12.583380
O 46.189221 28.895215 9.807712
O 44.541701 31.809105 9.892991
O 53.601272 31.305214 12.583380
O 52.034590 25.553431 9.807712
O 50.334847 47.451180 9.892991
O 46.241443 30.767456 12.583380
O 52.005975 32.286561 9.807712
O 48.376852 29.832781 6.465461
O 48.199438 28.126163 12.813517
O 53.343020 49.546454 12.728238
O 50.128818 26.979193 6.465461
O 51.695500 27.678857 12.813517
O 52.034590 33.813927 12.728238
O 51.724115 29.923233 6.465461
O 50.334847 30.930188 12.813517
O 44.852176 28.156313 12.728238
In 42.922796 41.302480 7.496991
In 53.653495 39.237356 13.338044
In 42.922796 45.432728 13.338044
In 46.499695 39.237356 13.338044
In 46.499695 43.367604 10.417517
In 42.922796 37.172232 10.417517
In 53.653495 43.367604 10.417517
In 49.836943 43.229240 10.221842
In 46.739348 37.310595 10.613193
In 53.893147 41.440843 7.692666
In 56.990742 39.098992 13.142369
In 52.104697 46.326926 10.221842
In 44.471593 46.603653 10.613193
In 44.471593 38.343157 7.692666
In 44.950898 42.196678 13.142369
In 55.441945 34.351272 10.221842
In 51.865045 39.993191 10.613193
In 44.711246 44.123439 7.692666
In 55.441945 42.611768 13.142369
In 43.162448 35.245471 7.692666
In 46.260043 41.164116 7.301316
In 43.162448 43.505967 10.613193
In 48.048493 44.538529 7.692666
In 55.681597 44.261802 7.301316
In 55.202292 40.408281 10.613193
In 51.865045 44.123439 7.692666
In 55.441945 38.481520 7.301316
In 44.711246 39.993191 10.613193
O 44.622539 40.381434 8.528521
O 51.953752 37.957805 13.862570
O 56.919920 45.551679 11.172181
O 46.810170 41.319001 13.947850
O 57.178172 43.235023 8.528521
O 48.457690 38.405111 13.862570
O 53.705718 38.909001 11.172181
O 55.272400 44.660784 13.947850
O 55.582874 40.290982 8.528521
O 56.972142 47.544523 13.862570
O 46.757948 39.446759 11.172181
O 55.301015 37.927654 13.947850
O 44.799953 42.088053 10.942044
O 56.919920 37.291183 8.251655
O 53.963970 45.449248 11.027323
O 55.611490 42.535359 10.942044
O 46.551918 43.039249 8.251655
O 55.272400 36.400288 11.027323
O 56.972142 39.284027 10.942044
O 53.911747 43.577007 8.251655
O 48.147215 42.057902 11.027323
O 48.199438 44.647154 9.892991
O 43.233271 37.053280 12.583380
O 53.343020 41.285959 9.807712
O 51.695500 44.199848 9.892991
O 46.447473 43.695958 12.583380
O 44.880791 37.944175 9.807712
O 43.181048 35.060436 9.892991
O 53.395243 43.158200 12.583380
O 44.852176 44.677305 9.807712
O 55.530652 42.223525 6.465461
O 55.353238 40.516906 12.813517
O 46.189221 37.155711 12.728238
O 42.975019 39.369937 6.465461
O 44.541701 40.069601 12.813517
O 44.880791 46.204671 12.728238
O 44.570316 42.313977 6.465461
O 43.181048 43.320932 12.813517
O 52.005975 40.547057 12.728238
In 42.922796 33.041984 13.338044
In 53.653495 30.976860 1.655938
In 42.922796 37.172232 1.655938
In 46.499695 30.976860 1.655938
In 42.922796 33.041984 4.576465
In 53.893147 33.180347 13.533719
In 56.990742 30.838496 1.460263
In 44.471593 30.082661 13.533719
In 44.950898 33.936182 1.460263
In 44.711246 35.862943 13.533719
In 55.441945 34.351272 1.460263
In 43.162448 26.984975 13.533719
In 46.260043 32.903620 13.142369
In 46.260043 32.903620 4.380790
In 48.048493 36.278033 13.533719
In 55.681597 36.001306 13.142369
In 55.681597 36.001306 4.380790
In 51.865045 35.862943 13.533719
In 55.441945 30.221024 13.142369
In 55.441945 30.221024 4.380790
O 44.622539 32.120938 14.369574
O 51.953752 29.697309 2.180465
O 46.810170 33.058505 2.265744
O 57.178172 34.974527 14.369574
O 48.457690 30.144615 2.180465
O 55.272400 36.400288 2.265744
O 55.582874 32.030486 14.369574
O 56.972142 39.284027 2.180465
O 55.301015 29.667158 2.265744
O 44.622539 32.120938 5.607995
O 56.919920 29.030687 14.092708
O 57.178172 34.974527 5.607995
O 46.551918 34.778753 14.092708
O 55.582874 32.030486 5.607995
O 53.911747 35.316511 14.092708
O 55.530652 33.963029 3.544935
O 43.233271 28.792785 0.901274
O 42.975019 31.109441 3.544935
O 46.447473 35.435462 0.901274
O 44.570316 34.053481 3.544935
O 53.395243 34.897704 0.901274
O 55.530652 33.963029 12.306514
O 55.353238 32.256410 1.131412
O 43.233271 37.053280 3.821801
O 46.189221 28.895215 1.046133
O 42.975019 31.109441 12.306514
O 44.541701 31.809105 1.131412
O 53.601272 31.305214 3.821801
O 44.880791 37.944175 1.046133
O 44.570316 34.053481 12.306514
O 43.181048 35.060436 1.131412
O 46.241443 30.767456 3.821801
O 52.005975 32.286561 1.046133
In 50.076595 45.432728 13.338044
In 46.499695 43.367604 1.655938
In 50.076595 49.562975 1.655938
In 53.653495 43.367604 1.655938
In 50.076595 45.432728 4.576465
In 46.739348 45.571091 13.533719
In 49.836943 43.229240 1.460263
In 51.625393 42.473405 13.533719
In 52.104697 46.326926 1.460263
In 51.865045 48.253687 13.533719
In 48.288145 46.742016 1.460263
In 50.316247 39.375719 13.533719
In 53.413843 45.294364 13.142369
In 53.413843 45.294364 4.380790
In 55.202292 48.668777 13.533719
In 48.527798 48.392050 13.142369
In 48.527798 48.392050 4.380790
In 44.711246 48.253687 13.533719
In 48.288145 42.611768 13.142369
In 48.288145 42.611768 4.380790
O 51.776338 44.511682 14.369574
O 44.799953 42.088053 2.180465
O 53.963970 45.449248 2.265744
O 50.024372 47.365271 14.369574
O 55.611490 42.535359 2.180465
O 48.118600 48.791032 2.265744
O 48.429075 44.421230 14.369574
O 49.818343 26.893284 2.180465
O 48.147215 42.057902 2.265744
O 51.776338 44.511682 5.607995
O 49.766120 41.421431 14.092708
O 50.024372 47.365271 5.607995
O 53.705718 47.169497 14.092708
O 48.429075 44.421230 5.607995
O 46.757948 47.707255 14.092708
O 48.376852 46.353773 3.544935
O 50.387070 41.183528 0.901274
O 50.128818 43.500184 3.544935
O 53.601272 47.826206 0.901274
O 51.724115 46.444225 3.544935
O 46.241443 47.288448 0.901274
O 48.376852 46.353773 12.306514
O 48.199438 44.647154 1.131412
O 50.387070 49.444024 3.821801
O 53.343020 41.285959 1.046133
O 50.128818 43.500184 12.306514
O 51.695500 44.199848 1.131412
O 46.447473 43.695958 3.821801
O 52.034590 25.553431 1.046133
O 51.724115 46.444225 12.306514
O 50.334847 47.451180 1.131412
O 53.395243 43.158200 3.821801
O 44.852176 44.677305 1.046133
In 50.076595 28.911736 16.258570
In 53.413843 28.773372 16.062895
In 48.527798 31.871058 16.062895
In 48.288145 26.090776 16.062895
O 51.776338 27.990690 17.290100
O 50.024372 30.844279 17.290100
O 48.429075 27.900238 17.290100
O 48.376852 29.832781 15.227040
O 50.128818 26.979193 15.227040
O 51.724115 29.923233 15.227040
O 50.387070 32.923032 15.503906
O 46.447473 27.174966 15.503906
O 53.395243 26.637208 15.503906
In 42.922796 41.302480 16.258570
In 46.260043 41.164116 16.062895
In 55.681597 44.261802 16.062895
In 55.441945 38.481520 16.062895
O 44.622539 40.381434 17.290100
O 57.178172 43.235023 17.290100
O 55.582874 40.290982 17.290100
O 55.530652 42.223525 15.227040
O 42.975019 39.369937 15.227040
O 44.570316 42.313977 15.227040
O 43.233271 45.313776 15.503906
O 53.601272 39.565710 15.503906
O 46.241443 39.027952 15.503906
In 46.499695 35.107108 16.258570
In 42.922796 28.911736 16.258570
In 53.653495 35.107108 16.258570
In 49.836943 34.968744 16.062895
In 46.739348 29.050099 16.454245
In 52.104697 38.066430 16.062895
In 44.471593 38.343157 16.454245
In 55.441945 26.090776 16.062895
In 51.865045 31.732695 16.454245
In 43.162448 35.245471 16.454245
In 55.202292 32.147785 16.454245
In 44.711246 31.732695 16.454245
O 56.919920 37.291183 17.013234
O 53.705718 30.648505 17.013234
O 46.757948 31.186263 17.013234
O 44.799953 33.827557 16.783097
O 53.963970 37.188753 16.868376
O 55.611490 34.274863 16.783097
O 55.272400 28.139792 16.868376
O 56.972142 31.023531 16.783097
O 48.147215 33.797406 16.868376
O 48.199438 36.386658 15.734044
O 53.343020 33.025463 15.648764
O 51.695500 35.939353 15.734044
O 44.880791 29.683679 15.648764
O 43.181048 26.799940 15.734044
O 44.852176 36.416809 15.648764
In 53.653495 47.497851 16.258570
In 50.076595 41.302480 16.258570
In 46.499695 47.497851 16.258570
In 56.990742 47.359488 16.062895
In 53.893147 41.440843 16.454245
In 44.950898 25.675686 16.062895
In 51.625393 25.952413 16.454245
In 48.288145 38.481520 16.062895
In 44.711246 44.123439 16.454245
In 50.316247 47.636215 16.454245
In 48.048493 44.538529 16.454245
In 51.865045 44.123439 16.454245
O 49.766120 24.900439 17.013234
O 46.551918 43.039249 17.013234
O 53.911747 43.577007 17.013234
O 51.953752 46.218301 16.783097
O 46.810170 24.798009 16.868376
O 48.457690 46.665607 16.783097
O 48.118600 40.530536 16.868376
O 49.818343 43.414275 16.783097
O 55.301015 46.188150 16.868376
O 55.353238 48.777402 15.734044
O 46.189221 45.416207 15.648764
O 44.541701 48.330096 15.734044
O 52.034590 42.074423 15.648764
O 50.334847 39.190684 15.734044
O 52.005975 48.807553 15.648764
O 44.238467 1.226669 18.010176
H 44.070854 1.304889 18.962378
H 47.072172 -0.035090 17.800895
O 15.623270 26.008157 18.010176
H 15.455657 26.086377 18.962378
H 18.456975 24.746398 17.800895
O 15.623270 1.226669 18.010176
H 15.455657 1.304889 18.962378
H 18.456975 -0.035090 17.800895
O 44.238467 26.008157 18.010176
H 44.070854 26.086377 18.962378
H 47.072172 24.746398 17.800895
O 31.158534 12.820911 18.148993
H 31.400179 12.640927 19.071009
H 30.380950 15.699315 18.252736
O 2.543337 12.820911 18.148993
H 2.784982 12.640927 19.071009
H 1.765753 15.699315 18.252736
O 2.543337 37.602398 18.148993
H 2.784982 37.422415 19.071009
H 1.765753 40.480803 18.252736
O 31.158534 37.602398 18.148993
H 31.400179 37.422415 19.071009
H 30.380950 40.480803 18.252736
O 1.315671 26.008157 18.010176
H 1.148058 26.086377 18.962378
H 4.149377 24.746398 17.800895
O 16.850935 12.820911 18.148993
H 17.092580 12.640927 19.071009
H 16.073352 15.699315 18.252736
O 29.930868 26.008157 18.010176
H 29.763255 26.086377 18.962378
H 32.764574 24.746398 17.800895
O 45.466133 12.820911 18.148993
H 45.707777 12.640927 19.071009
H 44.688549 15.699315 18.252736
O 1.315671 1.226669 18.010176
H 1.148058 1.304889 18.962378
H 4.149377 -0.035090 17.800895
O 16.850935 37.602398 18.148993
H 17.092580 37.422415 19.071009
H 16.073352 40.480803 18.252736
O 29.930868 1.226669 18.010176
H 29.763255 1.304889 18.962378
H 32.764574 -0.035090 17.800895
O 45.466133 37.602398 18.148993
H 45.707777 37.422415 19.071009
H 44.688549 40.480803 18.252736
O 23.394094 8.182883 18.148993
H 23.429142 8.482145 19.071009
H 21.290114 6.070273 18.252736
O 23.394094 32.964370 18.148993
H 23.429142 33.263633 19.071009
H 21.290114 30.851761 18.252736
O 9.086495 8.182883 18.148993
H 9.121543 8.482145 19.071009
H 6.982516 6.070273 18.252736
O 9.086495 32.964370 18.148993
H 9.121543 33.263633 19.071009
H 6.982516 30.851761 18.252736
O 37.701692 8.182883 18.148993
H 37.736740 8.482145 19.071009
H 35.597713 6.070273 18.252736
O 37.701692 32.964370 18.148993
H 37.736740 33.263633 19.071009
H 35.597713 30.851761 18.252736
O 52.009291 8.182883 18.148993
H 52.044339 8.482145 19.071009
H 49.905311 6.070273 18.252736
O 52.009291 32.964370 18.148993
H 52.044339 33.263633 19.071009
H 49.905311 30.851761 18.252736
O 37.369320 20.153091 18.382110
H 37.324952 20.344387 19.332024
H 37.668107 21.040082 17.667982
O 37.369320 44.934579 18.382110
H 37.324952 45.125875 19.332024
H 37.668107 45.821570 17.667982
O 8.754122 20.153091 18.382110
H 8.709755 20.344387 19.332024
H 9.052909 21.040082 17.667982
O 8.754122 44.934579 18.382110
H 8.709755 45.125875 19.332024
H 9.052909 45.821570 17.667982
O 23.061721 20.153091 18.382110
H 23.017354 20.344387 19.332024
H 23.360508 21.040082 17.667982
O 51.676918 20.153091 18.382110
H 51.632551 20.344387 19.332024
H 51.975705 21.040082 17.667982
O 23.061721 44.934579 18.382110
H 23.017354 45.125875 19.332024
H 23.360508 45.821570 17.667982
O 51.676918 44.934579 18.382110
H 51.632551 45.125875 19.332024
H 51.975705 45.821570 17.667982
O 8.469471 13.617413 18.010176
H 8.301857 13.695633 18.962378
H 11.303176 12.355654 17.800895
O 22.777069 13.617413 18.010176
H 22.609456 13.695633 18.962378
H 25.610774 12.355654 17.800895
O 37.084668 13.617413 18.010176
H 36.917055 13.695633 18.962378
H 39.918373 12.355654 17.800895
O 51.392266 13.617413 18.010176
H 51.224653 13.695633 18.962378
H 54.225972 12.355654 17.800895
O 8.469471 38.398901 18.010176
H 8.301857 38.477121 18.962378
H 11.303176 37.137142 17.800895
O 22.777069 38.398901 18.010176
H 22.609456 38.477121 18.962378
H 25.610774 37.137142 17.800895
O 37.084668 38.398901 18.010176
H 36.917055 38.477121 18.962378
H 39.918373 37.137142 17.800895
O 51.392266 38.398901 18.010176
H 51.224653 38.477121 18.962378
H 54.225972 37.137142 17.800895
O 1.600323 7.762347 18.382110
H 1.555956 7.953643 19.332024
H 1.899110 8.649338 17.667982
O 15.907922 7.762347 18.382110
H 15.863555 7.953643 19.332024
H 16.206709 8.649338 17.667982
O 30.215520 7.762347 18.382110
H 30.171153 7.953643 19.332024
H 30.514307 8.649338 17.667982
O 44.523119 7.762347 18.382110
H 44.478752 7.953643 19.332024
H 44.821906 8.649338 17.667982
O 1.600323 32.543835 18.382110
H 1.555956 32.735131 19.332024
H 1.899110 33.430826 17.667982
O 15.907922 32.543835 18.382110
H 15.863555 32.735131 19.332024
H 16.206709 33.430826 17.667982
O 30.215520 32.543835 18.382110
H 30.171153 32.735131 19.332024
H 30.514307 33.430826 17.667982
O 44.523119 32.543835 18.382110
H 44.478752 32.735131 19.332024
H 44.821906 33.430826 17.667982
