223
Lattice="14.3075986105 0.0 0.0 0.0 24.7814877277 0.0 0.0 0.0 30.0000000000" Properties=species:S:1:pos:R:3:label:S:1:lig_id:I:1:sd_fixed:L:1 case=ads-me-4pacz-phys pbc="T T T"
In 0.00000000 0.00000000 2.03152990 In 0 T
In 3.57689965 2.06512398 4.95205624 In 0 F
In 0.00000000 20.65123977 4.95205624 In 0 F
In 10.73069896 2.06512398 4.95205624 In 0 F
In 3.33581662 24.64229837 1.83468643 In 0 T
In 0.24108304 18.72530515 2.22837338 In 0 T
In 0.24108304 2.20431333 5.14889971 In 0 F
In 12.76023182 2.95849661 1.83468643 In 0 T
In 5.12426644 3.23687532 2.22837338 In 0 T
In 12.27806575 23.88811510 5.14889971 In 0 F
In 12.51914878 21.96218047 1.83468643 In 0 T
In 8.94224913 2.81930725 2.22837338 In 0 T
In 1.78844983 23.47054703 5.14889971 In 0 F
In 3.81798269 20.79042913 5.14889971 In 0 F
In 6.91271627 1.92593462 4.75521276 In 0 F
In 10.97178199 0.13918936 2.22837338 In 0 T
In 1.54736679 5.30199930 5.14889971 In 0 F
In 9.18333217 5.02362059 4.75521276 In 0 F
In 1.54736679 21.82299112 2.22837338 In 0 T
In 8.94224913 23.47054703 5.14889971 In 0 F
In 12.51914878 17.83193252 4.75521276 In 0 F
In 1.78844983 2.81930725 2.22837338 In 0 T
In 7.15379931 12.39074386 2.03152990 In 0 T
In 10.73069896 14.45586784 4.95205624 In 0 F
In 7.15379931 8.26049591 4.95205624 In 0 F
In 3.57689965 14.45586784 4.95205624 In 0 F
In 10.48961592 12.25155451 1.83468643 In 0 T
In 7.39488234 6.33456129 2.22837338 In 0 T
In 7.39488234 14.59505720 5.14889971 In 0 F
In 5.60643252 15.34924047 1.83468643 In 0 T
In 12.27806575 15.62761919 2.22837338 In 0 T
In 5.12426644 11.49737123 5.14889971 In 0 F
In 5.36534948 9.57143661 1.83468643 In 0 T
In 1.78844983 15.21005112 2.22837338 In 0 T
In 8.94224913 11.07980316 5.14889971 In 0 F
In 10.97178199 8.39968527 5.14889971 In 0 F
In 14.06651557 14.31667849 4.75521276 In 0 F
In 3.81798269 12.52993322 2.22837338 In 0 T
In 8.70116609 17.69274316 5.14889971 In 0 F
In 2.02953286 17.41436445 4.75521276 In 0 F
In 8.70116609 9.43224725 2.22837338 In 0 T
In 1.78844983 11.07980316 5.14889971 In 0 F
In 5.36534948 5.44118866 4.75521276 In 0 F
In 8.94224913 15.21005112 2.22837338 In 0 T
In 10.73069896 6.19537193 2.03152990 In 0 T
In 0.00000000 12.39074386 2.03152990 In 0 T
In 3.57689965 6.19537193 2.03152990 In 0 T
In 0.00000000 8.26049591 4.95205624 In 0 F
In 3.33581662 8.12130655 4.75521276 In 0 F
In 12.76023182 11.21899252 4.75521276 In 0 F
In 12.51914878 5.44118866 4.75521276 In 0 F
In 14.06651557 6.05618258 1.83468643 In 0 T
In 2.02953286 9.15386854 1.83468643 In 0 T
In 12.51914878 9.57143661 1.83468643 In 0 T
In 3.57689965 18.58611580 2.03152990 In 0 T
In 7.15379931 24.78148773 2.03152990 In 0 T
In 10.73069896 18.58611580 2.03152990 In 0 T
In 7.15379931 20.65123977 4.95205624 In 0 F
In 10.48961592 20.51205042 4.75521276 In 0 F
In 5.60643252 23.60973638 4.75521276 In 0 F
In 5.36534948 17.83193252 4.75521276 In 0 F
In 6.91271627 18.44692644 1.83468643 In 0 T
In 9.18333217 21.54461241 1.83468643 In 0 T
In 5.36534948 21.96218047 1.83468643 In 0 T
O 1.68400436 23.90504911 3.06305980 O 0 T
O 13.97137004 4.22854786 5.74059835 Oh 0 F
O 14.22461454 1.89660986 3.06305980 O 0 T
O 10.81368303 22.37603132 5.74059835 Oh 0 F
O 12.70657833 23.76131648 3.06305980 O 0 T
O 3.83014415 22.95839628 5.74059835 O 0 F
O 1.89289530 0.80044205 5.43452719 O 0 F
O 13.97137004 20.74953967 2.82007201 O 0 T
O 11.06692753 4.10794462 5.57003961 Oh 0 F
O 12.66794781 1.23907439 5.43452719 O 0 F
O 3.65988372 1.72479155 2.82007201 O 0 T
O 12.37034976 19.92101193 5.57003961 O 0 F
O 14.05435412 22.74197129 5.43452719 O 0 F
O 10.98394345 2.30715651 2.82007201 O 0 T
O 5.17791994 0.75253118 5.57003961 O 0 F
O 5.26090401 3.32980590 4.46958529 O 0 F
O 10.39447039 0.02230334 4.33407287 O 0 F
O 8.79345011 2.89117357 4.46958529 O 0 F
O 1.93724885 21.38146761 4.33407287 O 0 F
O 0.25324450 18.56050826 4.46958529 O 0 F
O 1.97587937 3.37771678 4.33407287 O 0 F
O 12.62359425 0.87643862 1.00000000 O 0 T
O 0.08298407 22.88487787 1.00000000 O 0 T
O 1.60102028 1.02017124 1.00000000 O 0 T
O 8.83780366 11.51430525 3.06305980 O 0 T
O 6.81757074 16.61929172 5.74059835 Oh 0 F
O 7.07081523 14.28735372 3.06305980 O 0 T
O 3.65988372 9.98528746 5.74059835 Oh 0 F
O 5.55277902 11.37057262 3.06305980 O 0 T
O 10.98394345 10.56765242 5.74059835 O 0 F
O 9.04669460 13.19118592 5.43452719 O 0 F
O 6.81757074 8.35879581 2.82007201 O 0 T
O 3.91312822 16.49868848 5.57003961 Oh 0 F
O 5.51414850 13.62981825 5.43452719 O 0 F
O 10.81368303 14.11553541 2.82007201 O 0 T
O 5.21655045 7.53026807 5.57003961 O 0 F
O 6.90055481 10.35122742 5.43452719 O 0 F
O 3.83014415 14.69790037 2.82007201 O 0 T
O 12.33171924 13.14327504 5.57003961 O 0 F
O 12.41470331 15.72054976 4.46958529 O 0 F
O 3.24067109 12.41304720 4.33407287 O 0 F
O 1.63965080 15.28191743 4.46958529 O 0 F
O 9.09104816 8.99072375 4.33407287 O 0 F
O 7.40704380 6.16976439 4.46958529 O 0 F
O 9.12967867 15.76846064 4.33407287 O 0 F
O 5.46979495 13.26718248 1.00000000 O 0 T
O 7.23678338 10.49413400 1.00000000 O 0 T
O 8.75481959 13.41091511 1.00000000 O 0 T
O 9.04669460 4.93069001 2.51400085 O 0 T
O 3.91312822 8.23819257 2.64951327 O 0 T
O 5.51414850 5.36932234 2.51400085 O 0 T
O 12.37034976 11.66051603 2.64951327 O 0 T
O 14.05435412 14.48147538 2.51400085 O 0 T
O 12.33171924 4.88277913 2.64951327 O 0 T
O 1.68400436 7.38405729 5.98358614 O 0 F
O 14.22461454 10.15710577 5.98358614 O 0 F
O 12.70657833 7.24032466 5.98358614 O 0 F
O 12.62359425 9.13693453 3.92052634 O 0 F
O 0.33622857 4.03194805 1.24298779 O 0 T
O 0.08298407 6.36388605 3.92052634 O 0 F
O 3.49391558 10.66595232 1.24298779 O 0 T
O 1.60102028 9.28066715 3.92052634 O 0 F
O 10.47745446 10.08358736 1.24298779 O 0 T
O 12.41470331 7.46005386 1.54905895 O 0 T
O 0.33622857 12.29244396 4.16351413 O 0 F
O 3.24067109 4.15255129 1.41354653 O 0 T
O 1.63965080 7.02142152 1.54905895 O 0 T
O 10.64771489 6.53570436 4.16351413 O 0 F
O 1.93724885 13.12097170 1.41354653 O 0 T
O 0.25324450 10.30001235 1.54905895 O 0 T
O 3.32365516 5.95333940 4.16351413 O 0 F
O 9.12967867 7.50796473 1.41354653 O 0 T
O 1.89289530 17.32143387 2.51400085 O 0 T
O 11.06692753 20.62893643 2.64951327 O 0 T
O 12.66794781 17.76006620 2.51400085 O 0 T
O 5.21655045 24.05125989 2.64951327 O 0 T
O 6.90055481 2.09073151 2.51400085 O 0 T
O 5.17791994 17.27352300 2.64951327 O 0 T
O 8.83780366 19.77480116 5.98358614 O 0 F
O 7.07081523 22.54784963 5.98358614 O 0 F
O 5.55277902 19.63106853 5.98358614 O 0 F
O 5.46979495 21.52767839 3.92052634 O 0 F
O 7.49002787 16.42269192 1.24298779 O 0 T
O 7.23678338 18.75462991 3.92052634 O 0 F
O 10.64771489 23.05669618 1.24298779 O 0 T
O 8.75481959 21.67141102 3.92052634 O 0 F
O 3.32365516 22.47433122 1.24298779 O 0 T
O 5.26090401 19.85079772 1.54905895 O 0 T
O 7.49002787 24.68318783 4.16351413 O 0 F
O 10.39447039 16.54329516 1.41354653 O 0 T
O 8.79345011 19.41216539 1.54905895 O 0 T
O 3.49391558 18.92644823 4.16351413 O 0 F
O 9.09104816 0.73022784 1.41354653 O 0 T
O 7.40704380 22.69075621 1.54905895 O 0 T
O 10.47745446 18.34408327 4.16351413 O 0 F
O 1.97587937 19.89870860 1.41354653 O 0 T
O 1.30483660 17.73881251 6.69931893 Oh 0 F
O 8.45863591 5.34806864 6.69931893 Oh 0 F
O 2.47333118 4.54574791 6.87536251 Oh 0 F
O 9.62713048 16.93649177 6.87536251 Oh 0 F
O 9.13419985 24.65058140 6.87536251 Oh 0 F
O 1.98040055 12.25983754 6.87536251 Oh 0 F
O 3.69574964 18.55212241 9.15998320 mol 20 F
O 1.39683095 18.28833161 10.33386563 mol 21 F
O 1.52244826 19.66944164 8.20544279 mol 22 F
P 2.40899100 19.22083400 9.48358614 mol 19 F
N 3.71250383 18.61500785 13.84052339 mol 14 F
C 1.51401226 13.99471238 11.36690732 mol 1 F
C 2.13469716 15.21502760 12.00383826 mol 2 F
C 3.32261989 15.76075010 11.47202367 mol 3 F
C 3.93779415 16.88205890 12.01952484 mol 4 F
C 3.34328709 17.47458738 13.13499905 mol 5 F
C 2.14929181 16.94457400 13.68767784 mol 6 F
C 1.55690765 15.82186507 13.11827969 mol 7 F
C 1.77556494 17.81821499 14.77485885 mol 8 F
C 0.71192191 17.82012503 15.68206287 mol 9 F
C 0.61628049 18.82143696 16.64244487 mol 10 F
C 1.60923785 19.82310904 16.67643707 mol 11 F
C 2.67606974 19.84567872 15.78797563 mol 12 F
C 2.75860418 18.83655463 14.83162643 mol 13 F
C 4.69867234 19.58653569 13.38413152 mol 15 F
C 4.37673443 20.17628202 11.99896656 mol 16 F
C 2.92155085 20.64707631 11.84884515 mol 17 F
C 2.47380889 20.79587257 10.38560698 mol 18 F
C 13.78886816 18.85186730 17.63804659 mol 42 F
H 1.13427085 17.81517516 7.65114668 Hh 0 F
H 4.19410023 16.42062555 6.49516712 Hh 0 F
H 8.28807015 5.42443129 7.65114668 Hh 0 F
H 11.34789954 4.02988168 6.49516712 Hh 0 F
H 2.69737998 4.36276331 7.80122361 Hh 0 F
H 13.59566647 4.12124486 6.62842316 Hh 0 F
H 9.85117928 16.75350718 7.80122361 Hh 0 F
H 6.44186717 16.51198872 6.62842316 Hh 0 F
H 9.18064476 0.15461793 7.80122361 Hh 0 F
H 11.09446194 22.10431398 6.62842316 Hh 0 F
H 2.02684546 12.54536179 7.80122361 Hh 0 F
H 3.94066263 9.71357012 6.62842316 Hh 0 F
H 1.50866099 14.06959750 10.27560848 mol 23 F
H 0.48234617 13.85068798 11.69516070 mol 24 F
H 2.07197626 13.08774552 11.62441662 mol 25 F
H 3.77545549 15.29210750 10.60337923 mol 26 F
H 4.82378284 17.29029211 11.55224813 mol 27 F
H 0.64191616 15.41699466 13.54099571 mol 28 F
H 14.26793597 17.03757662 15.63312967 mol 29 F
H 3.41811129 20.63366149 15.85002107 mol 30 F
H 5.68549237 19.11286443 13.36319354 mol 31 F
H 4.74599470 20.37579159 14.13496131 mol 32 F
H 5.06533220 21.00851035 11.81495425 mol 33 F
H 4.60051318 19.43484704 11.23134534 mol 34 F
H 2.24623209 19.94485344 12.34218500 mol 35 F
H 2.78322318 21.60498555 12.36026113 mol 36 F
H 1.47096029 21.22712292 10.33274664 mol 37 F
H 3.14226542 21.45396303 9.82229837 mol 38 F
H 0.85512400 17.69929060 9.78448085 mol 39 F
H 1.99956192 19.61454425 7.36834285 mol 40 F
H 1.53596847 20.60468155 17.42674190 mol 41 F
H 14.15297496 18.73148430 18.66368308 mol 43 F
H 13.24808803 19.80307063 17.59908813 mol 44 F
H 13.06873306 18.05309510 17.44967585 mol 45 F
