45
corrugated-nio-110-rigid-oh025__me-4pacz__cao-nio-rigid placement 2 minimized
C 63.79827 24.28906 37.23803
C 64.32392 23.18392 36.35202
C 63.46178 22.09366 36.01802
C 63.86783 21.07010 35.12801
C 65.16019 21.26607 34.64023
C 66.06908 22.29048 34.94679
C 65.65076 23.28543 35.84097
C 67.22256 22.09086 34.14679
C 68.41143 22.80120 33.94184
C 69.32099 22.29138 32.97344
C 69.06167 21.08602 32.24451
C 67.85046 20.36521 32.41244
C 67.00065 20.94160 33.36330
N 65.69873 20.52523 33.60802
C 64.94481 19.50136 32.82864
C 63.87530 20.21673 31.97016
C 64.42056 21.27533 30.99464
C 63.60686 22.59185 31.08194
P 64.07289 23.75446 32.39174
O 62.69746 23.72494 32.80624
O 63.53342 25.07167 32.22818
O 62.96625 24.53529 31.75403
H 64.55609 24.60450 37.95473
H 62.91694 23.96408 37.78884
H 63.51924 25.14456 36.62352
H 62.46057 22.05516 36.42389
H 63.23358 20.24458 34.84483
H 66.30377 24.10662 36.10040
H 68.62017 23.72185 34.46455
H 67.65098 19.45993 31.86724
H 64.47367 18.78274 33.50374
H 65.59739 18.90006 32.19915
H 63.30158 19.46874 31.42705
H 63.13150 20.67465 32.62052
H 65.48401 21.46704 31.15909
H 64.38517 20.87805 29.97725
H 63.83866 23.10541 30.16967
H 62.53621 22.37377 31.07738
H 62.84839 24.44900 32.54130
H 62.49654 23.73063 32.06923
H 69.79531 20.72071 31.52776
C 70.58492 23.07078 32.68724
H 71.38147 22.78103 33.36832
H 70.93653 22.88544 31.67125
H 70.40142 24.13971 32.79346
