45
in2o3-111-groove-oh025__me-4pacz__uff-cation-clayff-anion placement 2 minimized
C 63.06508 22.66613 27.97746
C 63.42833 22.07718 26.63008
C 62.48988 21.20627 25.99519
C 62.80266 20.51933 24.79576
C 64.09444 20.80088 24.34140
C 65.04535 21.69023 24.87580
C 64.71617 22.33795 26.07742
C 66.23458 21.55231 24.11046
C 67.50599 22.14170 24.14648
C 68.48489 21.64168 23.24065
C 68.22010 20.54435 22.36200
C 66.95591 19.90823 22.33129
C 66.03770 20.48662 23.21381
N 64.70086 20.12926 23.29335
C 64.06414 19.01856 22.53633
C 63.31734 19.61573 21.32830
C 64.22957 20.31147 20.29875
C 64.05356 21.86323 20.18950
P 64.39127 22.84798 21.66735
O 63.12521 23.51854 21.51001
O 64.69707 24.19957 21.47264
O 64.09270 23.92112 20.70834
H 63.94626 23.00926 28.52178
H 62.58037 21.91578 28.60587
H 62.37890 23.50390 27.86560
H 61.54418 21.01140 26.48644
H 62.12909 19.79657 24.36131
H 65.44099 22.93399 26.61464
H 67.74615 22.91424 24.86249
H 66.77816 19.02730 21.73144
H 63.37964 18.45689 23.17863
H 64.79493 18.25814 22.25377
H 62.79517 18.78248 20.84565
H 62.50939 20.26649 21.66662
H 65.27434 20.04491 20.44548
H 64.00197 19.82444 19.35429
H 64.76541 22.23432 19.45320
H 63.04790 22.06967 19.82905
H 63.72650 24.02486 21.40446
H 63.24202 23.46268 20.75738
H 69.01291 20.14606 21.74023
C 69.87199 22.24204 23.27448
H 69.88988 23.20792 22.77094
H 70.19312 22.38309 24.30679
H 70.60098 21.58836 22.79310
