LAMMPS data file Created by LigParGen - (Written by Leela S. Dodda)

      41 atoms
      43 bonds
      73 angles
     100 dihedrals
      23 impropers
 
      41 atom types
      43 bond types
      73 angle types
     100 dihedral types
      23 improper types
 
   -5.848040    44.151960 xlo xhi
   -3.924690    46.075310 ylo yhi
   -1.046960    48.953040 zlo zhi

Masses

       1     12.011  
       2     15.999  
       3     12.011  
       4     12.011  
       5     12.011  
       6     12.011  
       7     12.011  
       8     12.011  
       9     12.011  
      10     12.011  
      11     12.011  
      12     12.011  
      13     12.011  
      14     12.011  
      15     14.007  
      16     12.011  
      17     12.011  
      18     30.974  
      19     15.999  
      20     15.999  
      21     15.999  
      22      1.008  
      23      1.008  
      24      1.008  
      25      1.008  
      26      1.008  
      27      1.008  
      28      1.008  
      29      1.008  
      30      1.008  
      31      1.008  
      32      1.008  
      33      1.008  
      34      1.008  
      35      1.008  
      36      1.008  
      37     15.999  
      38     12.011  
      39      1.008  
      40      1.008  
      41      1.008  

Pair Coeffs 

       1      0.066  3.5000000 
       2      0.140  2.9000000 
       3      0.070  3.5500000 
       4      0.070  3.5500000 
       5      0.070  3.5500000 
       6      0.080  3.5000000 
       7      0.070  3.5500000 
       8      0.070  3.5500000 
       9      0.070  3.5500000 
      10      0.070  3.5500000 
      11      0.070  3.5500000 
      12      0.070  3.5500000 
      13      0.070  3.5500000 
      14      0.080  3.5000000 
      15      0.170  3.2500000 
      16      0.066  3.5000000 
      17      0.066  3.5000000 
      18      0.200  3.7400000 
      19      0.210  2.9600000 
      20      0.170  3.1200000 
      21      0.170  3.1200000 
      22      0.030  2.5000000 
      23      0.030  2.5000000 
      24      0.030  2.5000000 
      25      0.030  2.4200000 
      26      0.030  2.4200000 
      27      0.030  2.4200000 
      28      0.030  2.4200000 
      29      0.030  2.4200000 
      30      0.030  2.5000000 
      31      0.030  2.5000000 
      32      0.030  2.5000000 
      33      0.030  2.5000000 
      34      0.000  0.0000000 
      35      0.000  0.0000000 
      36      0.030  2.4200000 
      37      0.140  2.9000000 
      38      0.066  3.5000000 
      39      0.030  2.5000000 
      40      0.030  2.5000000 
      41      0.030  2.5000000 

Bond Coeffs 

       1   320.0000     1.4100 
       2   450.0000     1.3640 
       3   469.0000     1.4000 
       4   469.0000     1.4000 
       5   469.0000     1.4040 
       6   469.0000     1.4240 
       7   469.0000     1.4000 
       8   469.0000     1.4240 
       9   469.0000     1.4000 
      10   469.0000     1.4000 
      11   469.0000     1.4000 
      12   469.0000     1.4000 
      13   469.0000     1.4240 
      14   436.0000     1.3740 
      15   337.0000     1.4750 
      16   268.0000     1.5290 
      17   212.0000     1.8430 
      18   525.0000     1.4800 
      19   230.0000     1.6100 
      20   230.0000     1.6100 
      21   340.0000     1.0900 
      22   340.0000     1.0900 
      23   340.0000     1.0900 
      24   367.0000     1.0800 
      25   367.0000     1.0800 
      26   367.0000     1.0800 
      27   367.0000     1.0800 
      28   367.0000     1.0800 
      29   340.0000     1.0900 
      30   340.0000     1.0900 
      31   340.0000     1.0900 
      32   340.0000     1.0900 
      33   553.0000     0.9450 
      34   553.0000     0.9450 
      35   367.0000     1.0800 
      36   450.0000     1.3640 
      37   320.0000     1.4100 
      38   340.0000     1.0900 
      39   340.0000     1.0900 
      40   340.0000     1.0900 
      41   469.0000     1.4000 
      42   469.0000     1.4040 
      43   436.0000     1.3740 

Angle Coeffs 

       1     75.000    111.000
       2     70.000    120.000
       3     63.000    120.000
       4     63.000    120.000
       5     85.000    134.900
       6     70.000    120.000
       7     70.000    107.300
       8     63.000    120.000
       9     63.000    120.000
      10     63.000    120.000
      11     63.000    120.000
      12     70.000    107.300
      13     70.000    108.700
      14     70.000    125.800
      15     51.650    110.580
      16     43.000    109.500
      17     45.000    109.500
      18     63.570    108.400
      19     63.570    108.400
      20     35.000    109.500
      21     35.000    109.500
      22     35.000    109.500
      23     35.000    120.000
      24     35.000    120.000
      25     35.000    120.000
      26     35.000    120.000
      27     35.000    120.000
      28     35.000    109.500
      29     35.000    109.500
      30     37.500    110.700
      31     37.500    110.700
      32     55.000    108.500
      33     55.000    108.500
      34     35.000    120.000
      35     70.000    120.000
      36     75.000    111.000
      37     35.000    109.500
      38     35.000    109.500
      39     35.000    109.500
      40     45.000    102.600
      41     35.000    120.000
      42     63.000    120.000
      43     63.000    120.000
      44     33.000    107.800
      45     41.000    109.500
      46     70.000    108.700
      47    100.000    108.230
      48     70.000    120.000
      49     35.000    120.000
      50     33.000    107.800
      51     63.000    120.000
      52     33.000    107.800
      53     33.000    107.800
      54     63.000    120.000
      55     35.000    120.000
      56     70.000    125.200
      57     70.000    107.700
      58     33.000    107.800
      59     33.000    107.800
      60     63.000    120.000
      61     35.000    120.000
      62     85.000    134.900
      63     37.500    110.700
      64     35.000    120.000
      65     33.000    107.800
      66     35.000    120.000
      67     37.500    110.700
      68     70.000    125.800
      69     33.000    107.800
      70     70.000    107.700
      71    100.000    108.230
      72     63.000    120.000
      73     41.000    109.500

Dihedral Coeffs  

       1      0.000      3.000      0.000      0.000 
       2      0.000      7.250      0.000      0.000 
       3      0.000      7.250      0.000      0.000 
       4      0.000      7.000      0.000      0.000 
       5      0.000      2.170      0.000      0.000 
       6      0.000      2.170      0.000      0.000 
       7      0.000      7.250      0.000      0.000 
       8      0.000      7.250      0.000      0.000 
       9      1.000     -0.350      0.000      0.000 
      10     -9.000      2.000      0.800      0.000 
      11      2.250      0.000      0.000      0.000 
      12      0.000      0.000      0.760      0.000 
      13      1.500      5.500      0.000      0.000 
      14      1.500      5.500      0.000      0.000 
      15      0.000      3.000      0.000      0.000 
      16      0.000      0.000      0.760      0.000 
      17      0.000      3.000      0.000      0.000 
      18      0.000      0.000      0.000      0.000 
      19      0.000      7.250      0.000      0.000 
      20      0.000      7.250      0.000      0.000 
      21      0.000      0.000      0.760      0.000 
      22      0.000      2.170      0.000      0.000 
      23      0.000      0.000      0.760      0.000 
      24      0.000      0.000      0.250      0.000 
      25      0.000      0.000      0.000      0.000 
      26      0.000      0.000      0.000      0.000 
      27      0.000      7.250      0.000      0.000 
      28      0.000      7.250      0.000      0.000 
      29      0.000      0.000      0.000      0.000 
      30     -1.013     -0.709      0.473      0.000 
      31      0.000      7.250      0.000      0.000 
      32      0.000      0.000      0.000      0.000 
      33      0.000      0.000      0.250      0.000 
      34      0.000      3.000      0.000      0.000 
      35      0.000      7.250      0.000      0.000 
      36      0.000      7.250      0.000      0.000 
      37     -1.013     -0.709      0.473      0.000 
      38      0.000      2.170      0.000      0.000 
      39      0.000      7.250      0.000      0.000 
      40      0.000      0.000      0.300      0.000 
      41      0.000      7.250      0.000      0.000 
      42      0.000      7.250      0.000      0.000 
      43      0.000      0.000      0.250      0.000 
      44      0.000      0.000      0.250      0.000 
      45      0.000      7.250      0.000      0.000 
      46      1.000     -0.350      0.000      0.000 
      47      2.250      0.000      0.000      0.000 
      48      0.000      7.250      0.000      0.000 
      49      0.000      7.250      0.000      0.000 
      50      0.000      7.250      0.000      0.000 
      51      2.250      0.000      0.000      0.000 
      52      0.000      7.250      0.000      0.000 
      53      0.000      7.250      0.000      0.000 
      54      0.000      7.250      0.000      0.000 
      55      0.000      7.250      0.000      0.000 
      56      0.000      2.170      0.000      0.000 
      57      0.000      7.250      0.000      0.000 
      58      0.000      7.250      0.000      0.000 
      59      0.000      0.000      0.760      0.000 
      60      0.000      7.250      0.000      0.000 
      61      0.000      0.000      0.000      0.000 
      62      0.000      7.250      0.000      0.000 
      63      0.000      7.250      0.000      0.000 
      64      0.000      7.250      0.000      0.000 
      65      0.000      7.250      0.000      0.000 
      66      0.000      0.000      0.300      0.000 
      67      0.000      2.170      0.000      0.000 
      68      0.000      7.250      0.000      0.000 
      69      0.000      7.250      0.000      0.000 
      70      0.000      2.170      0.000      0.000 
      71      0.000      0.000      0.250      0.000 
      72      0.000      0.000      0.250      0.000 
      73      0.000      7.250      0.000      0.000 
      74      0.000      7.000      0.000      0.000 
      75      0.000      7.250      0.000      0.000 
      76      0.000      2.170      0.000      0.000 
      77      0.000      7.250      0.000      0.000 
      78      0.000      0.000      0.300      0.000 
      79      0.000      0.000      0.300      0.000 
      80      0.000      0.000      0.760      0.000 
      81      0.000      7.000      0.000      0.000 
      82      0.000      0.000      0.300      0.000 
      83      0.000      7.250      0.000      0.000 
      84      0.000      7.250      0.000      0.000 
      85      0.000      7.000      0.000      0.000 
      86      0.000      0.000      0.000      0.000 
      87      0.000      7.250      0.000      0.000 
      88      0.000      0.000      0.300      0.000 
      89      0.000      7.250      0.000      0.000 
      90      0.000      0.000      0.000      0.000 
      91      0.000      7.250      0.000      0.000 
      92      0.000      7.250      0.000      0.000 
      93      0.000      7.250      0.000      0.000 
      94      0.000      7.250      0.000      0.000 
      95      0.000      7.250      0.000      0.000 
      96      0.000      7.250      0.000      0.000 
      97      0.000      7.250      0.000      0.000 
      98      0.000      7.250      0.000      0.000 
      99      0.000      7.250      0.000      0.000 
     100      0.000      7.250      0.000      0.000 

Improper Coeffs 

       1      2.500      -1       2 
       2      2.500      -1       2 
       3      2.500      -1       2 
       4      2.500      -1       2 
       5      0.000      -1       2 
       6      0.000      -1       2 
       7      0.000      -1       2 
       8      0.000      -1       2 
       9      0.000      -1       2 
      10      2.500      -1       2 
      11      2.500      -1       2 
      12      2.500      -1       2 
      13      2.500      -1       2 
      14      2.500      -1       2 
      15      0.000      -1       2 
      16      0.000      -1       2 
      17      0.000      -1       2 
      18      0.000      -1       2 
      19      2.500      -1       2 
      20      2.500      -1       2 
      21      0.000      -1       2 
      22      0.000      -1       2 
      23      2.500      -1       2 

Atoms 

     1      1      1 -0.04870000    1.000  1.00000  0.00000
     2      1      2 -0.30560000   -0.417  1.00000  0.00000
     3      1      3 0.09720000   -1.061  1.00000  1.20664
     4      1      4 -0.13930000   -2.469  0.99838  1.12478
     5      1      5 -0.16660000   -3.265  0.99966  2.26127
     6      1      6 0.08440000   -2.628  1.00264  3.50851
     7      1      7 -0.05210000   -1.215  1.00428  3.59952
     8      1      8 -0.17540000   -0.427  1.00000  2.44540
     9      1      9 -0.06110000   -0.889  1.00889  5.00501
    10      1     10 -0.17090000    0.327  1.01090  5.70327
    11      1     11 0.09810000    0.294  1.01401  7.09406
    12      1     12 -0.13710000   -0.939  1.01510  7.77884
    13      1     13 -0.13860000   -2.145  1.01313  7.09750
    14      1     14 0.12100000   -2.117  1.00984  5.70264
    15      1     15 -0.52460000   -3.167  0.95550  4.79217
    16      1     16 0.10230000   -4.551  0.71005  5.14581
    17      1     17 -0.90400000   -4.854 -0.77116  5.44382
    18      1     18 2.97020000   -4.881 -1.78426  3.93923
    19      1     19 -1.26070000   -5.699 -1.21101  2.84301
    20      1     20 -1.07460000   -3.348 -2.09614  3.52212
    21      1     21 -1.05680000   -5.330 -3.20603  4.55033
    22      1     22 0.09290000    1.404  0.10510  0.48883
    23      1     23 0.09290000    1.299  1.00106 -1.04696
    24      1     24 0.09290000    1.404  1.89246  0.49317
    25      1     25 0.17510000   -2.917  0.99730  0.13786
    26      1     26 0.19030000   -4.343  0.95524  2.16633
    27      1     27 0.15990000    0.652  0.99562  2.53046
    28      1     28 0.15790000    1.260  1.00882  5.15488
    29      1     29 0.15930000   -3.080  1.01297  7.64811
    30      1     30 0.12640000   -5.188  1.07055  4.33754
    31      1     31 0.12640000   -4.788  1.31084  6.02729
    32      1     32 0.15770000   -5.848 -0.86096  5.89226
    33      1     33 0.15770000   -4.129 -1.18553  6.14661
    34      1     34 0.48720000   -2.983 -1.45158  2.89679
    35      1     35 0.47730000   -5.372 -3.92469  3.90746
    36      1     36 0.16820000   -0.912  1.01633  8.86243
    37      1     37 -0.30770000    1.399  1.01480  7.90134
    38      1     38 -0.04800000    2.675  1.01229  7.28616
    39      1     39 0.09220000    2.823  0.11931  6.66692
    40      1     40 0.09220000    2.828  1.90668  6.66998
    41      1     41 0.09220000    3.399  1.00733  8.09955

Bonds 

     1      1      2      1
     2      2      3      2
     3      3      4      3
     4      4      5      4
     5      5      6      5
     6      6      7      6
     7      7      8      3
     8      8      9      7
     9      9     10      9
    10     10     11     10
    11     11     12     11
    12     12     13     12
    13     13     14      9
    14     14     15      6
    15     15     16     15
    16     16     17     16
    17     17     18     17
    18     18     19     18
    19     19     20     18
    20     20     21     18
    21     21     22      1
    22     22     23      1
    23     23     24      1
    24     24     25      4
    25     25     26      5
    26     26     27      8
    27     27     28     10
    28     28     29     13
    29     29     30     16
    30     30     31     16
    31     31     32     17
    32     32     33     17
    33     33     34     20
    34     34     35     21
    35     35     36     12
    36     36     37     11
    37     37     38     37
    38     38     39     38
    39     39     40     38
    40     40     41     38
    41     41      8      7
    42     42     14     13
    43     43     15     14

Angles 

     1      1      1      2      3
     2      2      2      3      4
     3      3      3      4      5
     4      4      4      5      6
     5      5      5      6      7
     6      6      2      3      8
     7      7      6      7      9
     8      8      7      9     10
     9      9      9     10     11
    10     10     10     11     12
    11     11     11     12     13
    12     12      7      9     14
    13     13      5      6     15
    14     14      6     15     16
    15     15     15     16     17
    16     16     16     17     18
    17     17     17     18     19
    18     18     17     18     20
    19     19     17     18     21
    20     20      2      1     22
    21     21      2      1     23
    22     22      2      1     24
    23     23      3      4     25
    24     24      4      5     26
    25     25      3      8     27
    26     26      9     10     28
    27     27     12     13     29
    28     28     15     16     30
    29     29     15     16     31
    30     30     16     17     32
    31     31     16     17     33
    32     32     18     20     34
    33     33     18     21     35
    34     34     11     12     36
    35     35     10     11     37
    36     36     11     37     38
    37     37     37     38     39
    38     38     37     38     40
    39     39     37     38     41
    40     40     20     18     21
    41     41     14     13     29
    42     42      8      7      9
    43     43     10      9     14
    44     44     40     38     41
    45     45     18     17     32
    46     46     13     14     15
    47     47     19     18     20
    48     48     12     11     37
    49     49      7      8     27
    50     50     22      1     23
    51     51      6      7      8
    52     52     30     16     31
    53     53     22      1     24
    54     54      3      8      7
    55     55     13     12     36
    56     56      6     15     14
    57     57      7      6     15
    58     58     39     38     40
    59     59     32     17     33
    60     60     12     13     14
    61     61      5      4     25
    62     62      9     14     13
    63     63     17     16     31
    64     64      6      5     26
    65     65     39     38     41
    66     66     11     10     28
    67     67     17     16     30
    68     68     14     15     16
    69     69     23      1     24
    70     70      9     14     15
    71     71     19     18     21
    72     72      4      3      8
    73     73     18     17     33

Dihedrals

     1      1      4      3      2      1 
     2      2      5      4      3      2 
     3      3      6      5      4      3 
     4      4      7      6      5      4 
     5      5     10      9      7      6 
     6      6     11     10      9      7 
     7      7     12     11     10      9 
     8      8     13     12     11     10 
     9      9     17     16     15      6 
    10     10     18     17     16     15 
    11     11     19     18     17     16 
    12     12     22      1      2      3 
    13     13     34     20     18     17 
    14     14     35     21     18     17 
    15     15     38     37     11     10 
    16     16     39     38     37     11 
    17     17     38     37     11     12 
    18     18     31     16     15      6 
    19     19     25      4      3      8 
    20     20      9      7      6      5 
    21     21     23      1      2      3 
    22     22     14      9      7      6 
    23     23     41     38     37     11 
    24     24     33     17     18     21 
    25     25     31     16     15     14 
    26     26     30     16     15      6 
    27     27     37     11     10      9 
    28     28     25      4      5      6 
    29     29     35     21     18     20 
    30     30     32     17     16     15 
    31     31     16     15     14     13 
    32     32     34     20     18     19 
    33     33     32     17     18     19 
    34     34      8      3      2      1 
    35     35     13     14      9      7 
    36     36     14      9     10     11 
    37     37     33     17     16     15 
    38     38     10      9      7      8 
    39     39     36     12     13     29 
    40     40     30     16     17     18 
    41     41     27      8      7      9 
    42     42     26      5      6     15 
    43     43     33     17     18     20 
    44     44     32     17     18     21 
    45     45     13     14     15      6 
    46     46     17     16     15     14 
    47     47     21     18     17     16 
    48     48      7      8      3      4 
    49     49      6      7      8      3 
    50     50     16     15      6      7 
    51     51     20     18     17     16 
    52     52     37     11     12     13 
    53     53     27      8      7      6 
    54     54     29     13     12     11 
    55     55     26      5      4      3 
    56     56     15      6      7      9 
    57     57     14     15      6      5 
    58     58      8      7      6      5 
    59     59     24      1      2      3 
    60     60     14     13     12     11 
    61     61     35     21     18     19 
    62     62     16     15     14      9 
    63     63     28     10      9     14 
    64     64      7      8      3      2 
    65     65     27      8      3      4 
    66     66     33     17     16     31 
    67     67     14      9      7      8 
    68     68     15     14      9     10 
    69     69     28     10      9      7 
    70     70      9      7      8      3 
    71     71     33     17     18     19 
    72     72     32     17     18     20 
    73     73      9     14     15      6 
    74     74     15     14     13     12 
    75     75     37     11     10     28 
    76     76     15     14      9      7 
    77     77     28     10     11     12 
    78     78     33     17     16     30 
    79     79     32     17     16     31 
    80     80     40     38     37     11 
    81     81     12     13     14      9 
    82     82     31     16     17     18 
    83     83     29     13     14     15 
    84     84     29     13     14      9 
    85     85     15      6      5      4 
    86     86     30     16     15     14 
    87     87     27      8      3      2 
    88     88     32     17     16     30 
    89     89      8      3      4      5 
    90     90     34     20     18     21 
    91     91     15      6      7      8 
    92     92     25      4      3      2 
    93     93     36     12     11     10 
    94     94     13     14      9     10 
    95     95     16     15      6      5 
    96     96     14     15      6      7 
    97     97     36     12     13     14 
    98     98     26      5      4     25 
    99     99     37     11     12     36 
   100    100     26      5      6      7 

Impropers

     1      1      3      2      4      8 
     2      2      7      9      6      8 
     3      3      9     10     14      7 
     4      4      6      7      5     15 
     5      5     15     14      6     16 
     6      6     18     17     19     20 
     7      7     18     17     19     21 
     8      8      1      2     22     23 
     9      9      1      2     22     24 
    10     10      4     25      3      5 
    11     11      5     26      4      6 
    12     12      8     27      3      7 
    13     13     10      9     11     28 
    14     14     13     12     29     14 
    15     15     16     17     30     15 
    16     16     16     17     15     31 
    17     17     17     18     16     32 
    18     18     17     33     18     16 
    19     19     12     11     36     13 
    20     20     11     10     12     37 
    21     21     38     37     39     40 
    22     22     38     41     37     39 
    23     23     14      9     13     15 

