# ITO/SAM DFT reference point: ads-meo-2pacz-phys (smoke mode)
# Generated by nio_md_prep.ito.vasp; tag set follows the InterfaceForge NiO(110)+phosphonate
# relaxation template (InterfaceForge@4501e34081a6); deviations are listed in docs/ito/vasp-smoke.md
SYSTEM = ads-meo-2pacz-phys

# Electronic structure
GGA     = PE
ENCUT   = 520
PREC    = Accurate
EDIFF   = 1E-5
NELM    = 150
NELMIN  = 6
ALGO    = Normal
LREAL   = Auto
LASPH   = .TRUE.

# Occupations
ISMEAR = 0
SIGMA  = 0.05

# Closed shell: In2O3, ionically compensated 2Sn_In+O_i, and the neutral acids are nonmagnetic
ISPIN = 1
ISYM  = 0

# No DFT+U: In 4d is a filled semicore shell (In_d PAW), not a correlated open shell
# Grimme D3 with Becke-Johnson damping
IVDW = 12

# Fixed-cell ionic relaxation (smoke: 3 ionic steps; step 1 is a single point on geometry.extxyz)
IBRION = 2
ISIF   = 2
NSW    = 3
EDIFFG = -0.03
POTIM  = 0.3

# Dipole correction along the normal; DIPOL puts the correction plane at the vacuum midpoint
LDIPOL = .TRUE.
IDIPOL = 3
DIPOL  = 0.5 0.5 0.306791
AMIN   = 0.01

# Output
LWAVE  = .FALSE.
LCHARG = .FALSE.
NWRITE = 1

# Parallelization
NCORE = 4
