ads-meo-2pacz-phys In O P N C H
1.0
  14.3075986105  0.0000000000  0.0000000000
  0.0000000000  24.7814877277  0.0000000000
  0.0000000000  0.0000000000  30.0000000000
  In  O  P  N  C  H
  64  107  1  1  16  30
Selective dynamics
Cartesian
  0.00000000  0.00000000  2.03152990   F   F   F
  3.57689965  2.06512398  4.95205624   T   T   T
  0.00000000  20.65123977  4.95205624   T   T   T
  10.73069896  2.06512398  4.95205624   T   T   T
  3.33581662  24.64229837  1.83468643   F   F   F
  0.24108304  18.72530515  2.22837338   F   F   F
  0.24108304  2.20431333  5.14889971   T   T   T
  12.76023182  2.95849661  1.83468643   F   F   F
  5.12426644  3.23687532  2.22837338   F   F   F
  12.27806575  23.88811510  5.14889971   T   T   T
  12.51914878  21.96218047  1.83468643   F   F   F
  8.94224913  2.81930725  2.22837338   F   F   F
  1.78844983  23.47054703  5.14889971   T   T   T
  3.81798269  20.79042913  5.14889971   T   T   T
  6.91271627  1.92593462  4.75521276   T   T   T
  10.97178199  0.13918936  2.22837338   F   F   F
  1.54736679  5.30199930  5.14889971   T   T   T
  9.18333217  5.02362059  4.75521276   T   T   T
  1.54736679  21.82299112  2.22837338   F   F   F
  8.94224913  23.47054703  5.14889971   T   T   T
  12.51914878  17.83193252  4.75521276   T   T   T
  1.78844983  2.81930725  2.22837338   F   F   F
  7.15379931  12.39074386  2.03152990   F   F   F
  10.73069896  14.45586784  4.95205624   T   T   T
  7.15379931  8.26049591  4.95205624   T   T   T
  3.57689965  14.45586784  4.95205624   T   T   T
  10.48961592  12.25155451  1.83468643   F   F   F
  7.39488234  6.33456129  2.22837338   F   F   F
  7.39488234  14.59505720  5.14889971   T   T   T
  5.60643252  15.34924047  1.83468643   F   F   F
  12.27806575  15.62761919  2.22837338   F   F   F
  5.12426644  11.49737123  5.14889971   T   T   T
  5.36534948  9.57143661  1.83468643   F   F   F
  1.78844983  15.21005112  2.22837338   F   F   F
  8.94224913  11.07980316  5.14889971   T   T   T
  10.97178199  8.39968527  5.14889971   T   T   T
  14.06651557  14.31667849  4.75521276   T   T   T
  3.81798269  12.52993322  2.22837338   F   F   F
  8.70116609  17.69274316  5.14889971   T   T   T
  2.02953286  17.41436445  4.75521276   T   T   T
  8.70116609  9.43224725  2.22837338   F   F   F
  1.78844983  11.07980316  5.14889971   T   T   T
  5.36534948  5.44118866  4.75521276   T   T   T
  8.94224913  15.21005112  2.22837338   F   F   F
  10.73069896  6.19537193  2.03152990   F   F   F
  0.00000000  12.39074386  2.03152990   F   F   F
  3.57689965  6.19537193  2.03152990   F   F   F
  0.00000000  8.26049591  4.95205624   T   T   T
  3.33581662  8.12130655  4.75521276   T   T   T
  12.76023182  11.21899252  4.75521276   T   T   T
  12.51914878  5.44118866  4.75521276   T   T   T
  14.06651557  6.05618258  1.83468643   F   F   F
  2.02953286  9.15386854  1.83468643   F   F   F
  12.51914878  9.57143661  1.83468643   F   F   F
  3.57689965  18.58611580  2.03152990   F   F   F
  7.15379931  24.78148773  2.03152990   F   F   F
  10.73069896  18.58611580  2.03152990   F   F   F
  7.15379931  20.65123977  4.95205624   T   T   T
  10.48961592  20.51205042  4.75521276   T   T   T
  5.60643252  23.60973638  4.75521276   T   T   T
  5.36534948  17.83193252  4.75521276   T   T   T
  6.91271627  18.44692644  1.83468643   F   F   F
  9.18333217  21.54461241  1.83468643   F   F   F
  5.36534948  21.96218047  1.83468643   F   F   F
  1.68400436  23.90504911  3.06305980   F   F   F
  13.97137004  4.22854786  5.74059835   T   T   T
  14.22461454  1.89660986  3.06305980   F   F   F
  10.81368303  22.37603132  5.74059835   T   T   T
  12.70657833  23.76131648  3.06305980   F   F   F
  3.83014415  22.95839628  5.74059835   T   T   T
  1.89289530  0.80044205  5.43452719   T   T   T
  13.97137004  20.74953967  2.82007201   F   F   F
  11.06692753  4.10794462  5.57003961   T   T   T
  12.66794781  1.23907439  5.43452719   T   T   T
  3.65988372  1.72479155  2.82007201   F   F   F
  12.37034976  19.92101193  5.57003961   T   T   T
  14.05435412  22.74197129  5.43452719   T   T   T
  10.98394345  2.30715651  2.82007201   F   F   F
  5.17791994  0.75253118  5.57003961   T   T   T
  5.26090401  3.32980590  4.46958529   T   T   T
  10.39447039  0.02230334  4.33407287   T   T   T
  8.79345011  2.89117357  4.46958529   T   T   T
  1.93724885  21.38146761  4.33407287   T   T   T
  0.25324450  18.56050826  4.46958529   T   T   T
  1.97587937  3.37771678  4.33407287   T   T   T
  12.62359425  0.87643862  1.00000000   F   F   F
  0.08298407  22.88487787  1.00000000   F   F   F
  1.60102028  1.02017124  1.00000000   F   F   F
  8.83780366  11.51430525  3.06305980   F   F   F
  6.81757074  16.61929172  5.74059835   T   T   T
  7.07081523  14.28735372  3.06305980   F   F   F
  3.65988372  9.98528746  5.74059835   T   T   T
  5.55277902  11.37057262  3.06305980   F   F   F
  10.98394345  10.56765242  5.74059835   T   T   T
  9.04669460  13.19118592  5.43452719   T   T   T
  6.81757074  8.35879581  2.82007201   F   F   F
  3.91312822  16.49868848  5.57003961   T   T   T
  5.51414850  13.62981825  5.43452719   T   T   T
  10.81368303  14.11553541  2.82007201   F   F   F
  5.21655045  7.53026807  5.57003961   T   T   T
  6.90055481  10.35122742  5.43452719   T   T   T
  3.83014415  14.69790037  2.82007201   F   F   F
  12.33171924  13.14327504  5.57003961   T   T   T
  12.41470331  15.72054976  4.46958529   T   T   T
  3.24067109  12.41304720  4.33407287   T   T   T
  1.63965080  15.28191743  4.46958529   T   T   T
  9.09104816  8.99072375  4.33407287   T   T   T
  7.40704380  6.16976439  4.46958529   T   T   T
  9.12967867  15.76846064  4.33407287   T   T   T
  5.46979495  13.26718248  1.00000000   F   F   F
  7.23678338  10.49413400  1.00000000   F   F   F
  8.75481959  13.41091511  1.00000000   F   F   F
  9.04669460  4.93069001  2.51400085   F   F   F
  3.91312822  8.23819257  2.64951327   F   F   F
  5.51414850  5.36932234  2.51400085   F   F   F
  12.37034976  11.66051603  2.64951327   F   F   F
  14.05435412  14.48147538  2.51400085   F   F   F
  12.33171924  4.88277913  2.64951327   F   F   F
  1.68400436  7.38405729  5.98358614   T   T   T
  14.22461454  10.15710577  5.98358614   T   T   T
  12.70657833  7.24032466  5.98358614   T   T   T
  12.62359425  9.13693453  3.92052634   T   T   T
  0.33622857  4.03194805  1.24298779   F   F   F
  0.08298407  6.36388605  3.92052634   T   T   T
  3.49391558  10.66595232  1.24298779   F   F   F
  1.60102028  9.28066715  3.92052634   T   T   T
  10.47745446  10.08358736  1.24298779   F   F   F
  12.41470331  7.46005386  1.54905895   F   F   F
  0.33622857  12.29244396  4.16351413   T   T   T
  3.24067109  4.15255129  1.41354653   F   F   F
  1.63965080  7.02142152  1.54905895   F   F   F
  10.64771489  6.53570436  4.16351413   T   T   T
  1.93724885  13.12097170  1.41354653   F   F   F
  0.25324450  10.30001235  1.54905895   F   F   F
  3.32365516  5.95333940  4.16351413   T   T   T
  9.12967867  7.50796473  1.41354653   F   F   F
  1.89289530  17.32143387  2.51400085   F   F   F
  11.06692753  20.62893643  2.64951327   F   F   F
  12.66794781  17.76006620  2.51400085   F   F   F
  5.21655045  24.05125989  2.64951327   F   F   F
  6.90055481  2.09073151  2.51400085   F   F   F
  5.17791994  17.27352300  2.64951327   F   F   F
  8.83780366  19.77480116  5.98358614   T   T   T
  7.07081523  22.54784963  5.98358614   T   T   T
  5.55277902  19.63106853  5.98358614   T   T   T
  5.46979495  21.52767839  3.92052634   T   T   T
  7.49002787  16.42269192  1.24298779   F   F   F
  7.23678338  18.75462991  3.92052634   T   T   T
  10.64771489  23.05669618  1.24298779   F   F   F
  8.75481959  21.67141102  3.92052634   T   T   T
  3.32365516  22.47433122  1.24298779   F   F   F
  5.26090401  19.85079772  1.54905895   F   F   F
  7.49002787  24.68318783  4.16351413   T   T   T
  10.39447039  16.54329516  1.41354653   F   F   F
  8.79345011  19.41216539  1.54905895   F   F   F
  3.49391558  18.92644823  4.16351413   T   T   T
  9.09104816  0.73022784  1.41354653   F   F   F
  7.40704380  22.69075621  1.54905895   F   F   F
  10.47745446  18.34408327  4.16351413   T   T   T
  1.97587937  19.89870860  1.41354653   F   F   F
  1.30483660  17.73881251  6.69931893   T   T   T
  8.45863591  5.34806864  6.69931893   T   T   T
  2.47333118  4.54574791  6.87536251   T   T   T
  9.62713048  16.93649177  6.87536251   T   T   T
  9.13419985  24.65058140  6.87536251   T   T   T
  1.98040055  12.25983754  6.87536251   T   T   T
  3.72222267  20.33128388  13.97123214   T   T   T
  13.70385989  19.69334503  9.30755471   T   T   T
  0.77500751  17.64831363  10.13746550   T   T   T
  13.59750663  17.30310289  8.16447167   T   T   T
  13.89567153  13.64889523  15.96716217   T   T   T
  13.71658961  18.22083400  9.48358614   T   T   T
  13.12513104  18.08812596  12.77055326   T   T   T
  4.61213382  19.65602975  14.84299989   T   T   T
  2.51317313  19.74875842  13.70745311   T   T   T
  1.68414931  20.47928658  12.83097390   T   T   T
  0.42590332  20.02151584  12.46698195   T   T   T
  14.30068409  18.80004699  12.99808273   T   T   T
  0.81914007  18.06040124  13.87865783   T   T   T
  2.08532130  18.53354190  14.23345116   T   T   T
  0.08482964  16.87127042  14.23706468   T   T   T
  0.38209355  15.77807519  15.06337300   T   T   T
  13.74032474  14.77013810  15.19813134   T   T   T
  12.50891361  14.85347937  14.51556655   T   T   T
  12.20663144  15.92945662  13.69729855   T   T   T
  13.15564488  16.94269016  13.55887692   T   T   T
  12.11860361  18.36937625  11.76628052   T   T   T
  12.32383056  17.58436842  10.45622455   T   T   T
  0.80064871  13.49308018  16.68271116   T   T   T
  1.13427085  17.81517516  7.65114668   T   T   T
  4.19410023  16.42062555  6.49516712   T   T   T
  8.28807015  5.42443129  7.65114668   T   T   T
  11.34789954  4.02988168  6.49516712   T   T   T
  2.69737998  4.36276331  7.80122361   T   T   T
  13.59566647  4.12124486  6.62842316   T   T   T
  9.85117928  16.75350718  7.80122361   T   T   T
  6.44186717  16.51198872  6.62842316   T   T   T
  9.18064476  0.15461793  7.80122361   T   T   T
  11.09446194  22.10431398  6.62842316   T   T   T
  2.02684546  12.54536179  7.80122361   T   T   T
  3.94066263  9.71357012  6.62842316   T   T   T
  4.89891622  18.67439177  14.44656637   T   T   T
  5.49761308  20.28576835  14.91287943   T   T   T
  4.17896534  19.52762258  15.84239679   T   T   T
  2.06131720  21.41971799  12.44620202   T   T   T
  14.13761880  20.58391979  11.75867705   T   T   T
  2.70799824  17.95456101  14.90318987   T   T   T
  1.33454798  15.73668768  15.57556687   T   T   T
  11.25233930  15.96908754  13.18236915   T   T   T
  12.11288947  19.44144454  11.56711578   T   T   T
  11.14095441  18.12044973  12.18623556   T   T   T
  11.43657506  17.68447288  9.82380440   T   T   T
  12.47675785  16.52230195  10.65589760   T   T   T
  1.27844011  17.07966214  9.53504430   T   T   T
  13.42192891  17.79052045  7.35015317   T   T   T
  11.80282642  14.04248669  14.65205668   T   T   T
  1.66476044  13.45111565  16.00867454   T   T   T
  0.94879920  14.30291205  17.40744839   T   T   T
  0.71495064  12.54613938  17.21352454   T   T   T
