ITO extension slab ito-111-oh generated by nio_md_prep.ito.substrate

4055 atoms

5 atom types

0.00000000 57.23039444 xlo xhi
0.00000000 49.56297546 ylo yhi
-5.00000000 200.00000000 zlo zhi

Masses

1 114.818 # In
2 118.71 # Sn
3 15.999 # O
4 15.999 # Oh
5 1.008 # Hh

Atoms # full

1 0 1 1.575000 0.000000 0.000000 1.657107
2 0 1 1.575000 10.730699 22.716364 7.498159
3 0 1 1.575000 0.000000 4.130248 7.498159
4 0 1 1.575000 3.576900 22.716364 7.498159
5 0 1 1.575000 0.000000 24.781488 10.418686
6 0 1 1.575000 3.576900 2.065124 4.577633
7 0 2 2.100000 0.000000 20.651240 4.577633
8 0 1 1.575000 10.730699 2.065124 4.577633
9 0 1 1.575000 3.335817 24.642298 1.460263
10 0 1 1.575000 0.241083 18.725305 1.853950
11 0 1 1.575000 0.241083 2.204313 4.774476
12 0 1 1.575000 3.335817 24.642298 10.221842
13 0 1 1.575000 12.760232 2.958497 1.460263
14 0 1 1.575000 5.124266 3.236875 1.853950
15 0 1 1.575000 12.278066 23.888115 4.774476
16 0 1 1.575000 12.760232 2.958497 10.221842
17 0 1 1.575000 12.519149 21.962180 1.460263
18 0 1 1.575000 8.942249 2.819307 1.853950
19 0 2 2.100000 1.788450 23.470547 4.774476
20 0 1 1.575000 12.519149 21.962180 10.221842
21 0 1 1.575000 3.817983 20.790429 4.774476
22 0 1 1.575000 6.912716 1.925935 4.380790
23 0 1 1.575000 14.066516 22.577174 7.301316
24 0 1 1.575000 10.971782 0.139189 1.853950
25 0 1 1.575000 1.547367 5.301999 4.774476
26 0 1 1.575000 9.183332 5.023621 4.380790
27 0 1 1.575000 2.029533 0.893373 7.301316
28 0 1 1.575000 1.547367 21.822991 1.853950
29 0 1 1.575000 8.942249 23.470547 4.774476
30 0 1 1.575000 12.519149 17.831933 4.380790
31 0 1 1.575000 12.519149 1.310941 7.301316
32 0 1 1.575000 1.788450 2.819307 1.853950
33 0 3 -1.050000 1.684004 23.905049 2.688637
34 0 3 -1.050000 9.046695 21.451682 7.980630
35 0 3 -1.050000 13.971370 4.228548 5.366175
36 0 3 -1.050000 3.913128 24.759184 8.116143
37 0 3 -1.050000 14.224615 1.896610 2.688637
38 0 3 -1.050000 5.514149 21.890314 7.980630
39 0 3 -1.050000 10.813683 22.376031 5.366175
40 0 3 -1.050000 12.370350 3.400020 8.116143
41 0 3 -1.050000 12.706578 23.761316 2.688637
42 0 3 -1.050000 14.054354 6.220979 7.980630
43 0 3 -1.050000 3.830144 22.958396 5.366175
44 0 3 -1.050000 12.331719 21.403771 8.116143
45 0 3 -1.050000 1.684004 23.905049 11.450216
46 0 3 -1.050000 1.892895 0.800442 5.060104
47 0 3 -1.050000 13.971370 20.749540 2.445649
48 0 3 -1.050000 11.066928 4.107945 5.195616
49 0 3 -1.050000 14.224615 1.896610 11.450216
50 0 3 -1.050000 12.667948 1.239074 5.060104
51 0 3 -1.050000 3.659884 1.724792 2.445649
52 0 3 -1.050000 12.370350 19.921012 5.195616
53 0 3 -1.050000 12.706578 23.761316 11.450216
54 0 3 -1.050000 14.054354 22.741971 5.060104
55 0 3 -1.050000 10.983943 2.307157 2.445649
56 0 3 -1.050000 5.177920 0.752531 5.195616
57 0 3 -1.050000 12.623594 0.876439 9.387156
58 0 3 -1.050000 5.260904 3.329806 4.095162
59 0 3 -1.050000 0.336229 20.552940 6.709617
60 0 3 -1.050000 10.394470 0.022303 3.959650
61 0 3 -1.050000 0.082984 22.884878 9.387156
62 0 3 -1.050000 8.793450 2.891174 4.095162
63 0 3 -1.050000 3.493916 2.405456 6.709617
64 0 3 -1.050000 1.937249 21.381468 3.959650
65 0 3 -1.050000 1.601020 1.020171 9.387156
66 0 3 -1.050000 0.253244 18.560508 4.095162
67 0 3 -1.050000 10.477454 1.823091 6.709617
68 0 3 -1.050000 1.975879 3.377717 3.959650
69 0 3 -1.050000 12.623594 0.876439 0.625577
70 0 3 -1.050000 12.414703 23.981046 7.015688
71 0 3 -1.050000 0.336229 4.031948 9.630144
72 0 3 -1.050000 3.240671 20.673543 6.880176
73 0 3 -1.050000 0.082984 22.884878 0.625577
74 0 3 -1.050000 1.639651 23.542413 7.015688
75 0 3 -1.050000 10.647715 23.056696 9.630144
76 0 3 -1.050000 1.937249 4.860476 6.880176
77 0 3 -1.050000 1.601020 1.020171 0.625577
78 0 3 -1.050000 0.253244 2.039516 7.015688
79 0 3 -1.050000 3.323655 22.474331 9.630144
80 0 3 -1.050000 9.129679 24.028957 6.880176
81 0 1 1.575000 7.153799 12.390744 1.657107
82 0 1 1.575000 3.576900 10.325620 7.498159
83 0 1 1.575000 7.153799 16.520992 7.498159
84 0 2 2.100000 10.730699 10.325620 7.498159
85 0 1 1.575000 7.153799 12.390744 10.418686
86 0 1 1.575000 10.730699 14.455868 4.577633
87 0 2 2.100000 7.153799 8.260496 4.577633
88 0 2 2.100000 3.576900 14.455868 4.577633
89 0 1 1.575000 10.489616 12.251555 1.460263
90 0 1 1.575000 7.394882 6.334561 1.853950
91 0 2 2.100000 7.394882 14.595057 4.774476
92 0 1 1.575000 10.489616 12.251555 10.221842
93 0 1 1.575000 5.606433 15.349240 1.460263
94 0 1 1.575000 12.278066 15.627619 1.853950
95 0 1 1.575000 5.124266 11.497371 4.774476
96 0 1 1.575000 5.606433 15.349240 10.221842
97 0 2 2.100000 5.365349 9.571437 1.460263
98 0 1 1.575000 1.788450 15.210051 1.853950
99 0 1 1.575000 8.942249 11.079803 4.774476
100 0 1 1.575000 5.365349 9.571437 10.221842
101 0 1 1.575000 10.971782 8.399685 4.774476
102 0 1 1.575000 14.066516 14.316678 4.380790
103 0 1 1.575000 6.912716 10.186431 7.301316
104 0 1 1.575000 3.817983 12.529933 1.853950
105 0 1 1.575000 8.701166 17.692743 4.774476
106 0 2 2.100000 2.029533 17.414364 4.380790
107 0 1 1.575000 9.183332 13.284116 7.301316
108 0 1 1.575000 8.701166 9.432247 1.853950
109 0 1 1.575000 1.788450 11.079803 4.774476
110 0 1 1.575000 5.365349 5.441189 4.380790
111 0 1 1.575000 5.365349 13.701685 7.301316
112 0 1 1.575000 8.942249 15.210051 1.853950
113 0 3 -1.050000 8.837804 11.514305 2.688637
114 0 3 -1.050000 1.892895 9.060938 7.980630
115 0 3 -1.050000 6.817571 16.619292 5.366175
116 0 3 -1.050000 11.066928 12.368441 8.116143
117 0 3 -1.050000 7.070815 14.287354 2.688637
118 0 3 -1.050000 12.667948 9.499570 7.980630
119 0 3 -1.050000 3.659884 9.985287 5.366175
120 0 3 -1.050000 5.216550 15.790764 8.116143
121 0 3 -1.050000 5.552779 11.370573 2.688637
122 0 3 -1.050000 6.900555 18.611723 7.980630
123 0 3 -1.050000 10.983943 10.567652 5.366175
124 0 3 -1.050000 5.177920 9.013027 8.116143
125 0 3 -1.050000 8.837804 11.514305 11.450216
126 0 3 -1.050000 9.046695 13.191186 5.060104
127 0 3 -1.050000 6.817571 8.358796 2.445649
128 0 3 -1.050000 3.913128 16.498688 5.195616
129 0 3 -1.050000 7.070815 14.287354 11.450216
130 0 3 -1.050000 5.514149 13.629818 5.060104
131 0 3 -1.050000 10.813683 14.115535 2.445649
132 0 3 -1.050000 5.216550 7.530268 5.195616
133 0 3 -1.050000 5.552779 11.370573 11.450216
134 0 3 -1.050000 6.900555 10.351227 5.060104
135 0 3 -1.050000 3.830144 14.697900 2.445649
136 0 3 -1.050000 12.331719 13.143275 5.195616
137 0 3 -1.050000 5.469795 13.267182 9.387156
138 0 3 -1.050000 12.414703 15.720550 4.095162
139 0 3 -1.050000 7.490028 8.162196 6.709617
140 0 3 -1.050000 3.240671 12.413047 3.959650
141 0 3 -1.050000 7.236783 10.494134 9.387156
142 0 3 -1.050000 1.639651 15.281917 4.095162
143 0 3 -1.050000 10.647715 14.796200 6.709617
144 0 3 -1.050000 9.091048 8.990724 3.959650
145 0 3 -1.050000 8.754820 13.410915 9.387156
146 0 3 -1.050000 7.407044 6.169764 4.095162
147 0 3 -1.050000 3.323655 14.213835 6.709617
148 0 3 -1.050000 9.129679 15.768461 3.959650
149 0 3 -1.050000 5.469795 13.267182 0.625577
150 0 3 -1.050000 5.260904 11.590302 7.015688
151 0 3 -1.050000 7.490028 16.422692 9.630144
152 0 3 -1.050000 10.394470 8.282799 6.880176
153 0 3 -1.050000 7.236783 10.494134 0.625577
154 0 3 -1.050000 8.793450 11.151669 7.015688
155 0 3 -1.050000 3.493916 10.665952 9.630144
156 0 3 -1.050000 9.091048 17.251220 6.880176
157 0 3 -1.050000 8.754820 13.410915 0.625577
158 0 3 -1.050000 7.407044 14.430260 7.015688
159 0 3 -1.050000 10.477454 10.083587 9.630144
160 0 3 -1.050000 1.975879 11.638213 6.880176
161 0 1 1.575000 7.153799 4.130248 7.498159
162 0 1 1.575000 3.576900 2.065124 13.339212
163 0 1 1.575000 7.153799 8.260496 13.339212
164 0 2 2.100000 10.730699 2.065124 13.339212
165 0 1 1.575000 10.730699 6.195372 10.418686
166 0 1 1.575000 7.153799 24.781488 10.418686
167 0 1 1.575000 3.576900 6.195372 10.418686
168 0 1 1.575000 10.489616 3.991059 7.301316
169 0 1 1.575000 7.394882 22.855553 7.695003
170 0 1 1.575000 7.394882 6.334561 10.615529
171 0 1 1.575000 5.606433 7.088745 7.301316
172 0 1 1.575000 12.278066 7.367123 7.695003
173 0 1 1.575000 5.124266 3.236875 10.615529
174 0 1 1.575000 5.365349 1.310941 7.301316
175 0 1 1.575000 1.788450 6.949555 7.695003
176 0 1 1.575000 8.942249 2.819307 10.615529
177 0 1 1.575000 10.971782 0.139189 10.615529
178 0 1 1.575000 14.066516 6.056183 10.221842
179 0 1 1.575000 6.912716 1.925935 13.142369
180 0 1 1.575000 3.817983 4.269437 7.695003
181 0 1 1.575000 8.701166 9.432247 10.615529
182 0 1 1.575000 2.029533 9.153869 10.221842
183 0 1 1.575000 9.183332 5.023621 13.142369
184 0 1 1.575000 8.701166 1.171751 7.695003
185 0 1 1.575000 1.788450 2.819307 10.615529
186 0 1 1.575000 5.365349 21.962180 10.221842
187 0 1 1.575000 5.365349 5.441189 13.142369
188 0 1 1.575000 8.942249 6.949555 7.695003
189 0 3 -1.050000 8.837804 3.253809 8.529689
190 0 3 -1.050000 1.892895 0.800442 13.821683
191 0 3 -1.050000 6.817571 8.358796 11.207228
192 0 3 -1.050000 11.066928 4.107945 13.957195
193 0 3 -1.050000 7.070815 6.026858 8.529689
194 0 3 -1.050000 12.667948 1.239074 13.821683
195 0 3 -1.050000 3.659884 1.724792 11.207228
196 0 3 -1.050000 5.216550 7.530268 13.957195
197 0 3 -1.050000 5.552779 3.110077 8.529689
198 0 3 -1.050000 6.900555 10.351227 13.821683
199 0 3 -1.050000 10.983943 2.307157 11.207228
200 0 3 -1.050000 5.177920 0.752531 13.957195
201 0 3 -1.050000 9.046695 4.930690 10.901157
202 0 3 -1.050000 6.817571 0.098300 8.286701
203 0 3 -1.050000 3.913128 8.238193 11.036669
204 0 3 -1.050000 5.514149 5.369322 10.901157
205 0 3 -1.050000 10.813683 5.855040 8.286701
206 0 3 -1.050000 5.216550 24.051260 11.036669
207 0 3 -1.050000 6.900555 2.090732 10.901157
208 0 3 -1.050000 3.830144 6.437404 8.286701
209 0 3 -1.050000 12.331719 4.882779 11.036669
210 0 3 -1.050000 12.414703 7.460054 9.936215
211 0 3 -1.050000 7.490028 24.683188 12.550670
212 0 3 -1.050000 3.240671 4.152551 9.800702
213 0 3 -1.050000 1.639651 7.021422 9.936215
214 0 3 -1.050000 10.647715 6.535704 12.550670
215 0 3 -1.050000 9.091048 0.730228 9.800702
216 0 3 -1.050000 7.407044 22.690756 9.936215
217 0 3 -1.050000 3.323655 5.953339 12.550670
218 0 3 -1.050000 9.129679 7.507965 9.800702
219 0 3 -1.050000 5.469795 5.006687 6.466629
220 0 3 -1.050000 5.260904 3.329806 12.856741
221 0 3 -1.050000 10.394470 0.022303 12.721229
222 0 3 -1.050000 7.236783 2.233638 6.466629
223 0 3 -1.050000 8.793450 2.891174 12.856741
224 0 3 -1.050000 9.091048 8.990724 12.721229
225 0 3 -1.050000 8.754820 5.150419 6.466629
226 0 3 -1.050000 7.407044 6.169764 12.856741
227 0 3 -1.050000 1.975879 3.377717 12.721229
228 0 1 1.575000 0.000000 16.520992 7.498159
229 0 1 1.575000 10.730699 14.455868 13.339212
230 0 2 2.100000 0.000000 20.651240 13.339212
231 0 1 1.575000 3.576900 14.455868 13.339212
232 0 1 1.575000 3.576900 18.586116 10.418686
233 0 1 1.575000 0.000000 12.390744 10.418686
234 0 1 1.575000 10.730699 18.586116 10.418686
235 0 1 1.575000 3.335817 16.381802 7.301316
236 0 1 1.575000 0.241083 10.464809 7.695003
237 0 1 1.575000 0.241083 18.725305 10.615529
238 0 1 1.575000 12.760232 19.479488 7.301316
239 0 1 1.575000 5.124266 19.757867 7.695003
240 0 1 1.575000 12.278066 15.627619 10.615529
241 0 1 1.575000 12.519149 13.701685 7.301316
242 0 1 1.575000 8.942249 19.340299 7.695003
243 0 1 1.575000 1.788450 15.210051 10.615529
244 0 1 1.575000 3.817983 12.529933 10.615529
245 0 1 1.575000 6.912716 18.446926 10.221842
246 0 1 1.575000 14.066516 14.316678 13.142369
247 0 1 1.575000 10.971782 16.660181 7.695003
248 0 1 1.575000 1.547367 21.822991 10.615529
249 0 1 1.575000 9.183332 21.544612 10.221842
250 0 1 1.575000 2.029533 17.414364 13.142369
251 0 1 1.575000 1.547367 13.562495 7.695003
252 0 1 1.575000 8.942249 15.210051 10.615529
253 0 1 1.575000 12.519149 9.571437 10.221842
254 0 1 1.575000 12.519149 17.831933 13.142369
255 0 1 1.575000 1.788450 19.340299 7.695003
256 0 3 -1.050000 1.684004 15.644553 8.529689
257 0 3 -1.050000 9.046695 13.191186 13.821683
258 0 3 -1.050000 13.971370 20.749540 11.207228
259 0 3 -1.050000 3.913128 16.498688 13.957195
260 0 3 -1.050000 14.224615 18.417602 8.529689
261 0 3 -1.050000 5.514149 13.629818 13.821683
262 0 3 -1.050000 10.813683 14.115535 11.207228
263 0 3 -1.050000 12.370350 19.921012 13.957195
264 0 3 -1.050000 12.706578 15.500821 8.529689
265 0 3 -1.050000 14.054354 22.741971 13.821683
266 0 3 -1.050000 3.830144 14.697900 11.207228
267 0 3 -1.050000 12.331719 13.143275 13.957195
268 0 3 -1.050000 1.892895 17.321434 10.901157
269 0 3 -1.050000 13.971370 12.489044 8.286701
270 0 3 -1.050000 11.066928 20.628936 11.036669
271 0 3 -1.050000 12.667948 17.760066 10.901157
272 0 3 -1.050000 3.659884 18.245783 8.286701
273 0 3 -1.050000 12.370350 11.660516 11.036669
274 0 3 -1.050000 14.054354 14.481475 10.901157
275 0 3 -1.050000 10.983943 18.828148 8.286701
276 0 3 -1.050000 5.177920 17.273523 11.036669
277 0 3 -1.050000 5.260904 19.850798 9.936215
278 0 3 -1.050000 0.336229 12.292444 12.550670
279 0 3 -1.050000 10.394470 16.543295 9.800702
280 0 3 -1.050000 8.793450 19.412165 9.936215
281 0 3 -1.050000 3.493916 18.926448 12.550670
282 0 3 -1.050000 1.937249 13.120972 9.800702
283 0 3 -1.050000 0.253244 10.300012 9.936215
284 0 3 -1.050000 10.477454 18.344083 12.550670
285 0 3 -1.050000 1.975879 19.898709 9.800702
286 0 3 -1.050000 12.623594 17.397430 6.466629
287 0 3 -1.050000 12.414703 15.720550 12.856741
288 0 3 -1.050000 3.240671 12.413047 12.721229
289 0 3 -1.050000 0.082984 14.624382 6.466629
290 0 3 -1.050000 1.639651 15.281917 12.856741
291 0 3 -1.050000 1.937249 21.381468 12.721229
292 0 3 -1.050000 1.601020 17.541163 6.466629
293 0 3 -1.050000 0.253244 18.560508 12.856741
294 0 3 -1.050000 9.129679 15.768461 12.721229
295 0 1 1.575000 0.000000 8.260496 13.339212
296 0 1 1.575000 10.730699 6.195372 1.657107
297 0 1 1.575000 0.000000 12.390744 1.657107
298 0 1 1.575000 3.576900 6.195372 1.657107
299 0 1 1.575000 0.000000 8.260496 4.577633
300 0 1 1.575000 3.335817 8.121307 13.142369
301 0 1 1.575000 0.241083 2.204313 13.536055
302 0 1 1.575000 3.335817 8.121307 4.380790
303 0 1 1.575000 12.760232 11.218993 13.142369
304 0 1 1.575000 5.124266 11.497371 13.536055
305 0 1 1.575000 12.760232 11.218993 4.380790
306 0 1 1.575000 12.519149 5.441189 13.142369
307 0 1 1.575000 8.942249 11.079803 13.536055
308 0 1 1.575000 12.519149 5.441189 4.380790
309 0 1 1.575000 14.066516 6.056183 1.460263
310 0 1 1.575000 10.971782 8.399685 13.536055
311 0 1 1.575000 2.029533 9.153869 1.460263
312 0 1 1.575000 1.547367 5.301999 13.536055
313 0 1 1.575000 12.519149 9.571437 1.460263
314 0 1 1.575000 1.788450 11.079803 13.536055
315 0 3 -1.050000 1.684004 7.384057 14.370742
316 0 3 -1.050000 9.046695 4.930690 2.139578
317 0 3 -1.050000 3.913128 8.238193 2.275090
318 0 3 -1.050000 14.224615 10.157106 14.370742
319 0 3 -1.050000 5.514149 5.369322 2.139578
320 0 3 -1.050000 12.370350 11.660516 2.275090
321 0 3 -1.050000 12.706578 7.240325 14.370742
322 0 3 -1.050000 14.054354 14.481475 2.139578
323 0 3 -1.050000 12.331719 4.882779 2.275090
324 0 3 -1.050000 1.684004 7.384057 5.609163
325 0 3 -1.050000 13.971370 4.228548 14.127754
326 0 3 -1.050000 14.224615 10.157106 5.609163
327 0 3 -1.050000 3.659884 9.985287 14.127754
328 0 3 -1.050000 12.706578 7.240325 5.609163
329 0 3 -1.050000 10.983943 10.567652 14.127754
330 0 3 -1.050000 12.623594 9.136935 3.546103
331 0 3 -1.050000 0.336229 4.031948 0.868565
332 0 3 -1.050000 0.082984 6.363886 3.546103
333 0 3 -1.050000 3.493916 10.665952 0.868565
334 0 3 -1.050000 1.601020 9.280667 3.546103
335 0 3 -1.050000 10.477454 10.083587 0.868565
336 0 3 -1.050000 12.623594 9.136935 12.307682
337 0 3 -1.050000 12.414703 7.460054 1.174636
338 0 3 -1.050000 0.336229 12.292444 3.789091
339 0 3 -1.050000 3.240671 4.152551 1.039123
340 0 3 -1.050000 0.082984 6.363886 12.307682
341 0 3 -1.050000 1.639651 7.021422 1.174636
342 0 3 -1.050000 10.647715 6.535704 3.789091
343 0 3 -1.050000 1.937249 13.120972 1.039123
344 0 3 -1.050000 1.601020 9.280667 12.307682
345 0 3 -1.050000 0.253244 10.300012 1.174636
346 0 3 -1.050000 3.323655 5.953339 3.789091
347 0 3 -1.050000 9.129679 7.507965 1.039123
348 0 1 1.575000 7.153799 20.651240 13.339212
349 0 1 1.575000 3.576900 18.586116 1.657107
350 0 1 1.575000 7.153799 24.781488 1.657107
351 0 1 1.575000 10.730699 18.586116 1.657107
352 0 1 1.575000 7.153799 20.651240 4.577633
353 0 1 1.575000 10.489616 20.512050 13.142369
354 0 1 1.575000 7.394882 14.595057 13.536055
355 0 1 1.575000 10.489616 20.512050 4.380790
356 0 1 1.575000 5.606433 23.609736 13.142369
357 0 1 1.575000 12.278066 23.888115 13.536055
358 0 1 1.575000 5.606433 23.609736 4.380790
359 0 1 1.575000 5.365349 17.831933 13.142369
360 0 2 2.100000 1.788450 23.470547 13.536055
361 0 1 1.575000 5.365349 17.831933 4.380790
362 0 1 1.575000 6.912716 18.446926 1.460263
363 0 1 1.575000 3.817983 20.790429 13.536055
364 0 1 1.575000 9.183332 21.544612 1.460263
365 0 1 1.575000 8.701166 17.692743 13.536055
366 0 1 1.575000 5.365349 21.962180 1.460263
367 0 1 1.575000 8.942249 23.470547 13.536055
368 0 3 -1.050000 8.837804 19.774801 14.370742
369 0 3 -1.050000 1.892895 17.321434 2.139578
370 0 3 -1.050000 11.066928 20.628936 2.275090
371 0 3 -1.050000 7.070815 22.547850 14.370742
372 0 3 -1.050000 12.667948 17.760066 2.139578
373 0 3 -1.050000 5.216550 24.051260 2.275090
374 0 3 -1.050000 5.552779 19.631069 14.370742
375 0 3 -1.050000 6.900555 2.090732 2.139578
376 0 3 -1.050000 5.177920 17.273523 2.275090
377 0 3 -1.050000 8.837804 19.774801 5.609163
378 0 3 -1.050000 6.817571 16.619292 14.127754
379 0 3 -1.050000 7.070815 22.547850 5.609163
380 0 3 -1.050000 10.813683 22.376031 14.127754
381 0 3 -1.050000 5.552779 19.631069 5.609163
382 0 3 -1.050000 3.830144 22.958396 14.127754
383 0 3 -1.050000 5.469795 21.527678 3.546103
384 0 3 -1.050000 7.490028 16.422692 0.868565
385 0 3 -1.050000 7.236783 18.754630 3.546103
386 0 3 -1.050000 10.647715 23.056696 0.868565
387 0 3 -1.050000 8.754820 21.671411 3.546103
388 0 3 -1.050000 3.323655 22.474331 0.868565
389 0 3 -1.050000 5.469795 21.527678 12.307682
390 0 3 -1.050000 5.260904 19.850798 1.174636
391 0 3 -1.050000 7.490028 24.683188 3.789091
392 0 3 -1.050000 10.394470 16.543295 1.039123
393 0 3 -1.050000 7.236783 18.754630 12.307682
394 0 3 -1.050000 8.793450 19.412165 1.174636
395 0 3 -1.050000 3.493916 18.926448 3.789091
396 0 3 -1.050000 9.091048 0.730228 1.039123
397 0 3 -1.050000 8.754820 21.671411 12.307682
398 0 3 -1.050000 7.407044 22.690756 1.174636
399 0 3 -1.050000 10.477454 18.344083 3.789091
400 0 3 -1.050000 1.975879 19.898709 1.039123
401 0 1 1.575000 7.153799 4.130248 16.259738
402 0 1 1.575000 10.489616 3.991059 16.062895
403 0 1 1.575000 5.606433 7.088745 16.062895
404 0 1 1.575000 5.365349 1.310941 16.062895
405 0 3 -1.050000 8.837804 3.253809 17.291268
406 0 3 -1.050000 7.070815 6.026858 17.291268
407 0 3 -1.050000 5.552779 3.110077 17.291268
408 0 3 -1.050000 5.469795 5.006687 15.228208
409 0 3 -1.050000 7.236783 2.233638 15.228208
410 0 3 -1.050000 8.754820 5.150419 15.228208
411 0 3 -1.050000 7.490028 8.162196 15.471196
412 0 3 -1.050000 3.493916 2.405456 15.471196
413 0 3 -1.050000 10.477454 1.823091 15.471196
414 0 1 1.575000 0.000000 16.520992 16.259738
415 0 1 1.575000 3.335817 16.381802 16.062895
416 0 1 1.575000 12.760232 19.479488 16.062895
417 0 1 1.575000 12.519149 13.701685 16.062895
418 0 3 -1.050000 1.684004 15.644553 17.291268
419 0 3 -1.050000 14.224615 18.417602 17.291268
420 0 3 -1.050000 12.706578 15.500821 17.291268
421 0 3 -1.050000 12.623594 17.397430 15.228208
422 0 3 -1.050000 0.082984 14.624382 15.228208
423 0 3 -1.050000 1.601020 17.541163 15.228208
424 0 3 -1.050000 0.336229 20.552940 15.471196
425 0 3 -1.050000 10.647715 14.796200 15.471196
426 0 3 -1.050000 3.323655 14.213835 15.471196
427 0 1 1.575000 3.576900 10.325620 16.259738
428 0 1 1.575000 0.000000 4.130248 16.259738
429 0 1 1.575000 10.730699 10.325620 16.259738
430 0 1 1.575000 0.241083 10.464809 16.456582
431 0 1 1.575000 12.278066 7.367123 16.456582
432 0 1 1.575000 1.788450 6.949555 16.456582
433 0 1 1.575000 3.817983 4.269437 16.456582
434 0 1 1.575000 6.912716 10.186431 16.062895
435 0 1 1.575000 1.547367 13.562495 16.456582
436 0 1 1.575000 9.183332 13.284116 16.062895
437 0 1 1.575000 8.942249 6.949555 16.456582
438 0 1 1.575000 12.519149 1.310941 16.062895
439 0 4 -0.950000 13.971370 12.489044 17.048280
440 0 4 -0.950000 10.813683 5.855040 17.048280
441 0 3 -1.050000 3.830144 6.437404 17.048280
442 0 4 -0.950000 1.892895 9.060938 16.742209
443 0 4 -0.950000 11.066928 12.368441 16.877722
444 0 3 -1.050000 12.667948 9.499570 16.742209
445 0 4 -0.950000 12.370350 3.400020 16.877722
446 0 3 -1.050000 14.054354 6.220979 16.742209
447 0 3 -1.050000 5.177920 9.013027 16.877722
448 0 3 -1.050000 5.260904 11.590302 15.777267
449 0 3 -1.050000 10.394470 8.282799 15.641755
450 0 3 -1.050000 8.793450 11.151669 15.777267
451 0 3 -1.050000 1.937249 4.860476 15.641755
452 0 3 -1.050000 0.253244 2.039516 15.777267
453 0 3 -1.050000 1.975879 11.638213 15.641755
454 0 1 1.575000 10.730699 22.716364 16.259738
455 0 1 1.575000 7.153799 16.520992 16.259738
456 0 1 1.575000 3.576900 22.716364 16.259738
457 0 1 1.575000 7.394882 22.855553 16.456582
458 0 1 1.575000 5.124266 19.757867 16.456582
459 0 1 1.575000 8.942249 19.340299 16.456582
460 0 1 1.575000 10.971782 16.660181 16.456582
461 0 1 1.575000 14.066516 22.577174 16.062895
462 0 1 1.575000 8.701166 1.171751 16.456582
463 0 1 1.575000 2.029533 0.893373 16.062895
464 0 1 1.575000 1.788450 19.340299 16.456582
465 0 1 1.575000 5.365349 13.701685 16.062895
466 0 3 -1.050000 6.817571 0.098300 17.048280
467 0 3 -1.050000 3.659884 18.245783 17.048280
468 0 3 -1.050000 10.983943 18.828148 17.048280
469 0 3 -1.050000 9.046695 21.451682 16.742209
470 0 4 -0.950000 3.913128 24.759184 16.877722
471 0 3 -1.050000 5.514149 21.890314 16.742209
472 0 3 -1.050000 5.216550 15.790764 16.877722
473 0 4 -0.950000 6.900555 18.611723 16.742209
474 0 4 -0.950000 12.331719 21.403771 16.877722
475 0 3 -1.050000 12.414703 23.981046 15.777267
476 0 3 -1.050000 3.240671 20.673543 15.641755
477 0 3 -1.050000 1.639651 23.542413 15.777267
478 0 3 -1.050000 9.091048 17.251220 15.641755
479 0 3 -1.050000 7.407044 14.430260 15.777267
480 0 3 -1.050000 9.129679 24.028957 15.641755
481 0 2 2.100000 0.000000 24.781488 1.657107
482 0 1 1.575000 10.730699 47.497851 7.498159
483 0 1 1.575000 0.000000 28.911736 7.498159
484 0 1 1.575000 3.576900 47.497851 7.498159
485 0 1 1.575000 0.000000 49.562975 10.418686
486 0 1 1.575000 3.576900 26.846612 4.577633
487 0 1 1.575000 0.000000 45.432728 4.577633
488 0 1 1.575000 10.730699 26.846612 4.577633
489 0 1 1.575000 3.335817 49.423786 1.460263
490 0 1 1.575000 0.241083 43.506793 1.853950
491 0 1 1.575000 0.241083 26.985801 4.774476
492 0 1 1.575000 3.335817 49.423786 10.221842
493 0 1 1.575000 12.760232 27.739984 1.460263
494 0 1 1.575000 5.124266 28.018363 1.853950
495 0 1 1.575000 12.278066 48.669603 4.774476
496 0 1 1.575000 12.760232 27.739984 10.221842
497 0 1 1.575000 12.519149 46.743668 1.460263
498 0 1 1.575000 8.942249 27.600795 1.853950
499 0 1 1.575000 1.788450 48.252035 4.774476
500 0 1 1.575000 12.519149 46.743668 10.221842
501 0 1 1.575000 3.817983 45.571917 4.774476
502 0 1 1.575000 6.912716 26.707422 4.380790
503 0 1 1.575000 14.066516 47.358662 7.301316
504 0 1 1.575000 10.971782 24.920677 1.853950
505 0 1 1.575000 1.547367 30.083487 4.774476
506 0 1 1.575000 9.183332 29.805108 4.380790
507 0 1 1.575000 2.029533 25.674860 7.301316
508 0 1 1.575000 1.547367 46.604479 1.853950
509 0 1 1.575000 8.942249 48.252035 4.774476
510 0 1 1.575000 12.519149 42.613420 4.380790
511 0 1 1.575000 12.519149 26.092428 7.301316
512 0 1 1.575000 1.788450 27.600795 1.853950
513 0 3 -1.050000 1.684004 48.686537 2.688637
514 0 3 -1.050000 9.046695 46.233170 7.980630
515 0 3 -1.050000 13.971370 29.010036 5.366175
516 0 3 -1.050000 3.913128 49.540672 8.116143
517 0 3 -1.050000 14.224615 26.678098 2.688637
518 0 3 -1.050000 5.514149 46.671802 7.980630
519 0 3 -1.050000 10.813683 47.157519 5.366175
520 0 3 -1.050000 12.370350 28.181508 8.116143
521 0 3 -1.050000 12.706578 48.542804 2.688637
522 0 3 -1.050000 14.054354 31.002467 7.980630
523 0 3 -1.050000 3.830144 47.739884 5.366175
524 0 3 -1.050000 12.331719 46.185259 8.116143
525 0 3 -1.050000 1.684004 48.686537 11.450216
526 0 3 -1.050000 1.892895 25.581930 5.060104
527 0 3 -1.050000 13.971370 45.531027 2.445649
528 0 3 -1.050000 11.066928 28.889432 5.195616
529 0 3 -1.050000 14.224615 26.678098 11.450216
530 0 3 -1.050000 12.667948 26.020562 5.060104
531 0 3 -1.050000 3.659884 26.506279 2.445649
532 0 3 -1.050000 12.370350 44.702500 5.195616
533 0 3 -1.050000 12.706578 48.542804 11.450216
534 0 3 -1.050000 14.054354 47.523459 5.060104
535 0 3 -1.050000 10.983943 27.088644 2.445649
536 0 3 -1.050000 5.177920 25.534019 5.195616
537 0 3 -1.050000 12.623594 25.657926 9.387156
538 0 3 -1.050000 5.260904 28.111294 4.095162
539 0 3 -1.050000 0.336229 45.334428 6.709617
540 0 3 -1.050000 10.394470 24.803791 3.959650
541 0 3 -1.050000 0.082984 47.666366 9.387156
542 0 3 -1.050000 8.793450 27.672661 4.095162
543 0 3 -1.050000 3.493916 27.186944 6.709617
544 0 3 -1.050000 1.937249 46.162955 3.959650
545 0 3 -1.050000 1.601020 25.801659 9.387156
546 0 3 -1.050000 0.253244 43.341996 4.095162
547 0 3 -1.050000 10.477454 26.604579 6.709617
548 0 3 -1.050000 1.975879 28.159205 3.959650
549 0 3 -1.050000 12.623594 25.657926 0.625577
550 0 3 -1.050000 12.414703 48.762533 7.015688
551 0 3 -1.050000 0.336229 28.813436 9.630144
552 0 3 -1.050000 3.240671 45.455031 6.880176
553 0 3 -1.050000 0.082984 47.666366 0.625577
554 0 3 -1.050000 1.639651 48.323901 7.015688
555 0 3 -1.050000 10.647715 47.838184 9.630144
556 0 3 -1.050000 1.937249 29.641964 6.880176
557 0 3 -1.050000 1.601020 25.801659 0.625577
558 0 3 -1.050000 0.253244 26.821004 7.015688
559 0 3 -1.050000 3.323655 47.255819 9.630144
560 0 3 -1.050000 9.129679 48.810444 6.880176
561 0 1 1.575000 7.153799 37.172232 1.657107
562 0 1 1.575000 3.576900 35.107108 7.498159
563 0 1 1.575000 7.153799 41.302480 7.498159
564 0 1 1.575000 10.730699 35.107108 7.498159
565 0 2 2.100000 7.153799 37.172232 10.418686
566 0 1 1.575000 10.730699 39.237356 4.577633
567 0 1 1.575000 7.153799 33.041984 4.577633
568 0 2 2.100000 3.576900 39.237356 4.577633
569 0 1 1.575000 10.489616 37.033042 1.460263
570 0 1 1.575000 7.394882 31.116049 1.853950
571 0 1 1.575000 7.394882 39.376545 4.774476
572 0 1 1.575000 10.489616 37.033042 10.221842
573 0 1 1.575000 5.606433 40.130728 1.460263
574 0 1 1.575000 12.278066 40.409107 1.853950
575 0 1 1.575000 5.124266 36.278859 4.774476
576 0 1 1.575000 5.606433 40.130728 10.221842
577 0 1 1.575000 5.365349 34.352924 1.460263
578 0 1 1.575000 1.788450 39.991539 1.853950
579 0 1 1.575000 8.942249 35.861291 4.774476
580 0 1 1.575000 5.365349 34.352924 10.221842
581 0 1 1.575000 10.971782 33.181173 4.774476
582 0 1 1.575000 14.066516 39.098166 4.380790
583 0 1 1.575000 6.912716 34.967918 7.301316
584 0 1 1.575000 3.817983 37.311421 1.853950
585 0 1 1.575000 8.701166 42.474231 4.774476
586 0 1 1.575000 2.029533 42.195852 4.380790
587 0 2 2.100000 9.183332 38.065604 7.301316
588 0 1 1.575000 8.701166 34.213735 1.853950
589 0 1 1.575000 1.788450 35.861291 4.774476
590 0 1 1.575000 5.365349 30.222676 4.380790
591 0 1 1.575000 5.365349 38.483172 7.301316
592 0 1 1.575000 8.942249 39.991539 1.853950
593 0 3 -1.050000 8.837804 36.295793 2.688637
594 0 3 -1.050000 1.892895 33.842426 7.980630
595 0 3 -1.050000 6.817571 41.400779 5.366175
596 0 3 -1.050000 11.066928 37.149928 8.116143
597 0 3 -1.050000 7.070815 39.068841 2.688637
598 0 3 -1.050000 12.667948 34.281058 7.980630
599 0 3 -1.050000 3.659884 34.766775 5.366175
600 0 3 -1.050000 5.216550 40.572252 8.116143
601 0 3 -1.050000 5.552779 36.152060 2.688637
602 0 3 -1.050000 6.900555 43.393211 7.980630
603 0 3 -1.050000 10.983943 35.349140 5.366175
604 0 3 -1.050000 5.177920 33.794515 8.116143
605 0 3 -1.050000 8.837804 36.295793 11.450216
606 0 3 -1.050000 9.046695 37.972674 5.060104
607 0 3 -1.050000 6.817571 33.140284 2.445649
608 0 3 -1.050000 3.913128 41.280176 5.195616
609 0 3 -1.050000 7.070815 39.068841 11.450216
610 0 3 -1.050000 5.514149 38.411306 5.060104
611 0 3 -1.050000 10.813683 38.897023 2.445649
612 0 3 -1.050000 5.216550 32.311756 5.195616
613 0 3 -1.050000 5.552779 36.152060 11.450216
614 0 3 -1.050000 6.900555 35.132715 5.060104
615 0 3 -1.050000 3.830144 39.479388 2.445649
616 0 3 -1.050000 12.331719 37.924763 5.195616
617 0 3 -1.050000 5.469795 38.048670 9.387156
618 0 3 -1.050000 12.414703 40.502037 4.095162
619 0 3 -1.050000 7.490028 32.943684 6.709617
620 0 3 -1.050000 3.240671 37.194535 3.959650
621 0 3 -1.050000 7.236783 35.275622 9.387156
622 0 3 -1.050000 1.639651 40.063405 4.095162
623 0 3 -1.050000 10.647715 39.577688 6.709617
624 0 3 -1.050000 9.091048 33.772211 3.959650
625 0 3 -1.050000 8.754820 38.192403 9.387156
626 0 3 -1.050000 7.407044 30.951252 4.095162
627 0 3 -1.050000 3.323655 38.995323 6.709617
628 0 3 -1.050000 9.129679 40.549948 3.959650
629 0 3 -1.050000 5.469795 38.048670 0.625577
630 0 3 -1.050000 5.260904 36.371790 7.015688
631 0 3 -1.050000 7.490028 41.204180 9.630144
632 0 3 -1.050000 10.394470 33.064287 6.880176
633 0 3 -1.050000 7.236783 35.275622 0.625577
634 0 3 -1.050000 8.793450 35.933157 7.015688
635 0 3 -1.050000 3.493916 35.447440 9.630144
636 0 3 -1.050000 9.091048 42.032707 6.880176
637 0 3 -1.050000 8.754820 38.192403 0.625577
638 0 3 -1.050000 7.407044 39.211748 7.015688
639 0 3 -1.050000 10.477454 34.865075 9.630144
640 0 3 -1.050000 1.975879 36.419700 6.880176
641 0 1 1.575000 7.153799 28.911736 7.498159
642 0 2 2.100000 3.576900 26.846612 13.339212
643 0 2 2.100000 7.153799 33.041984 13.339212
644 0 1 1.575000 10.730699 26.846612 13.339212
645 0 2 2.100000 10.730699 30.976860 10.418686
646 0 1 1.575000 7.153799 0.000000 10.418686
647 0 2 2.100000 3.576900 30.976860 10.418686
648 0 1 1.575000 10.489616 28.772546 7.301316
649 0 1 1.575000 7.394882 47.637041 7.695003
650 0 1 1.575000 7.394882 31.116049 10.615529
651 0 1 1.575000 5.606433 31.870232 7.301316
652 0 1 1.575000 12.278066 32.148611 7.695003
653 0 1 1.575000 5.124266 28.018363 10.615529
654 0 1 1.575000 5.365349 26.092428 7.301316
655 0 1 1.575000 1.788450 31.731043 7.695003
656 0 2 2.100000 8.942249 27.600795 10.615529
657 0 1 1.575000 10.971782 24.920677 10.615529
658 0 1 1.575000 14.066516 30.837670 10.221842
659 0 1 1.575000 6.912716 26.707422 13.142369
660 0 1 1.575000 3.817983 29.050925 7.695003
661 0 1 1.575000 8.701166 34.213735 10.615529
662 0 1 1.575000 2.029533 33.935356 10.221842
663 0 1 1.575000 9.183332 29.805108 13.142369
664 0 1 1.575000 8.701166 25.953239 7.695003
665 0 1 1.575000 1.788450 27.600795 10.615529
666 0 1 1.575000 5.365349 46.743668 10.221842
667 0 2 2.100000 5.365349 30.222676 13.142369
668 0 1 1.575000 8.942249 31.731043 7.695003
669 0 3 -1.050000 8.837804 28.035297 8.529689
670 0 3 -1.050000 1.892895 25.581930 13.821683
671 0 3 -1.050000 6.817571 33.140284 11.207228
672 0 3 -1.050000 11.066928 28.889432 13.957195
673 0 3 -1.050000 7.070815 30.808346 8.529689
674 0 3 -1.050000 12.667948 26.020562 13.821683
675 0 3 -1.050000 3.659884 26.506279 11.207228
676 0 3 -1.050000 5.216550 32.311756 13.957195
677 0 3 -1.050000 5.552779 27.891564 8.529689
678 0 3 -1.050000 6.900555 35.132715 13.821683
679 0 3 -1.050000 10.983943 27.088644 11.207228
680 0 3 -1.050000 5.177920 25.534019 13.957195
681 0 3 -1.050000 9.046695 29.712178 10.901157
682 0 3 -1.050000 6.817571 24.879788 8.286701
683 0 3 -1.050000 3.913128 33.019680 11.036669
684 0 3 -1.050000 5.514149 30.150810 10.901157
685 0 3 -1.050000 10.813683 30.636527 8.286701
686 0 3 -1.050000 5.216550 48.832748 11.036669
687 0 3 -1.050000 6.900555 26.872219 10.901157
688 0 3 -1.050000 3.830144 31.218892 8.286701
689 0 3 -1.050000 12.331719 29.664267 11.036669
690 0 3 -1.050000 12.414703 32.241542 9.936215
691 0 3 -1.050000 7.490028 49.464676 12.550670
692 0 3 -1.050000 3.240671 28.934039 9.800702
693 0 3 -1.050000 1.639651 31.802909 9.936215
694 0 3 -1.050000 10.647715 31.317192 12.550670
695 0 3 -1.050000 9.091048 25.511716 9.800702
696 0 3 -1.050000 7.407044 47.472244 9.936215
697 0 3 -1.050000 3.323655 30.734827 12.550670
698 0 3 -1.050000 9.129679 32.289452 9.800702
699 0 3 -1.050000 5.469795 29.788174 6.466629
700 0 3 -1.050000 5.260904 28.111294 12.856741
701 0 3 -1.050000 10.394470 24.803791 12.721229
702 0 3 -1.050000 7.236783 27.015126 6.466629
703 0 3 -1.050000 8.793450 27.672661 12.856741
704 0 3 -1.050000 9.091048 33.772211 12.721229
705 0 3 -1.050000 8.754820 29.931907 6.466629
706 0 3 -1.050000 7.407044 30.951252 12.856741
707 0 3 -1.050000 1.975879 28.159205 12.721229
708 0 1 1.575000 0.000000 41.302480 7.498159
709 0 1 1.575000 10.730699 39.237356 13.339212
710 0 2 2.100000 0.000000 45.432728 13.339212
711 0 1 1.575000 3.576900 39.237356 13.339212
712 0 1 1.575000 3.576900 43.367604 10.418686
713 0 1 1.575000 0.000000 37.172232 10.418686
714 0 2 2.100000 10.730699 43.367604 10.418686
715 0 1 1.575000 3.335817 41.163290 7.301316
716 0 1 1.575000 0.241083 35.246297 7.695003
717 0 1 1.575000 0.241083 43.506793 10.615529
718 0 1 1.575000 12.760232 44.260976 7.301316
719 0 1 1.575000 5.124266 44.539355 7.695003
720 0 1 1.575000 12.278066 40.409107 10.615529
721 0 1 1.575000 12.519149 38.483172 7.301316
722 0 2 2.100000 8.942249 44.121787 7.695003
723 0 1 1.575000 1.788450 39.991539 10.615529
724 0 1 1.575000 3.817983 37.311421 10.615529
725 0 1 1.575000 6.912716 43.228414 10.221842
726 0 1 1.575000 14.066516 39.098166 13.142369
727 0 1 1.575000 10.971782 41.441669 7.695003
728 0 1 1.575000 1.547367 46.604479 10.615529
729 0 1 1.575000 9.183332 46.326100 10.221842
730 0 1 1.575000 2.029533 42.195852 13.142369
731 0 1 1.575000 1.547367 38.343983 7.695003
732 0 1 1.575000 8.942249 39.991539 10.615529
733 0 1 1.575000 12.519149 34.352924 10.221842
734 0 1 1.575000 12.519149 42.613420 13.142369
735 0 1 1.575000 1.788450 44.121787 7.695003
736 0 3 -1.050000 1.684004 40.426041 8.529689
737 0 3 -1.050000 9.046695 37.972674 13.821683
738 0 3 -1.050000 13.971370 45.531027 11.207228
739 0 3 -1.050000 3.913128 41.280176 13.957195
740 0 3 -1.050000 14.224615 43.199089 8.529689
741 0 3 -1.050000 5.514149 38.411306 13.821683
742 0 3 -1.050000 10.813683 38.897023 11.207228
743 0 3 -1.050000 12.370350 44.702500 13.957195
744 0 3 -1.050000 12.706578 40.282308 8.529689
745 0 3 -1.050000 14.054354 47.523459 13.821683
746 0 3 -1.050000 3.830144 39.479388 11.207228
747 0 3 -1.050000 12.331719 37.924763 13.957195
748 0 3 -1.050000 1.892895 42.102922 10.901157
749 0 3 -1.050000 13.971370 37.270531 8.286701
750 0 3 -1.050000 11.066928 45.410424 11.036669
751 0 3 -1.050000 12.667948 42.541554 10.901157
752 0 3 -1.050000 3.659884 43.027271 8.286701
753 0 3 -1.050000 12.370350 36.442004 11.036669
754 0 3 -1.050000 14.054354 39.262963 10.901157
755 0 3 -1.050000 10.983943 43.609636 8.286701
756 0 3 -1.050000 5.177920 42.055011 11.036669
757 0 3 -1.050000 5.260904 44.632285 9.936215
758 0 3 -1.050000 0.336229 37.073932 12.550670
759 0 3 -1.050000 10.394470 41.324783 9.800702
760 0 3 -1.050000 8.793450 44.193653 9.936215
761 0 3 -1.050000 3.493916 43.707936 12.550670
762 0 3 -1.050000 1.937249 37.902459 9.800702
763 0 3 -1.050000 0.253244 35.081500 9.936215
764 0 3 -1.050000 10.477454 43.125571 12.550670
765 0 3 -1.050000 1.975879 44.680196 9.800702
766 0 3 -1.050000 12.623594 42.178918 6.466629
767 0 3 -1.050000 12.414703 40.502037 12.856741
768 0 3 -1.050000 3.240671 37.194535 12.721229
769 0 3 -1.050000 0.082984 39.405870 6.466629
770 0 3 -1.050000 1.639651 40.063405 12.856741
771 0 3 -1.050000 1.937249 46.162955 12.721229
772 0 3 -1.050000 1.601020 42.322651 6.466629
773 0 3 -1.050000 0.253244 43.341996 12.856741
774 0 3 -1.050000 9.129679 40.549948 12.721229
775 0 1 1.575000 0.000000 33.041984 13.339212
776 0 1 1.575000 10.730699 30.976860 1.657107
777 0 1 1.575000 0.000000 37.172232 1.657107
778 0 1 1.575000 3.576900 30.976860 1.657107
779 0 1 1.575000 0.000000 33.041984 4.577633
780 0 1 1.575000 3.335817 32.902794 13.142369
781 0 1 1.575000 0.241083 26.985801 13.536055
782 0 1 1.575000 3.335817 32.902794 4.380790
783 0 1 1.575000 12.760232 36.000480 13.142369
784 0 2 2.100000 5.124266 36.278859 13.536055
785 0 1 1.575000 12.760232 36.000480 4.380790
786 0 1 1.575000 12.519149 30.222676 13.142369
787 0 1 1.575000 8.942249 35.861291 13.536055
788 0 1 1.575000 12.519149 30.222676 4.380790
789 0 1 1.575000 14.066516 30.837670 1.460263
790 0 1 1.575000 10.971782 33.181173 13.536055
791 0 1 1.575000 2.029533 33.935356 1.460263
792 0 1 1.575000 1.547367 30.083487 13.536055
793 0 1 1.575000 12.519149 34.352924 1.460263
794 0 1 1.575000 1.788450 35.861291 13.536055
795 0 3 -1.050000 1.684004 32.165545 14.370742
796 0 3 -1.050000 9.046695 29.712178 2.139578
797 0 3 -1.050000 3.913128 33.019680 2.275090
798 0 3 -1.050000 14.224615 34.938593 14.370742
799 0 3 -1.050000 5.514149 30.150810 2.139578
800 0 3 -1.050000 12.370350 36.442004 2.275090
801 0 3 -1.050000 12.706578 32.021812 14.370742
802 0 3 -1.050000 14.054354 39.262963 2.139578
803 0 3 -1.050000 12.331719 29.664267 2.275090
804 0 3 -1.050000 1.684004 32.165545 5.609163
805 0 3 -1.050000 13.971370 29.010036 14.127754
806 0 3 -1.050000 14.224615 34.938593 5.609163
807 0 3 -1.050000 3.659884 34.766775 14.127754
808 0 3 -1.050000 12.706578 32.021812 5.609163
809 0 3 -1.050000 10.983943 35.349140 14.127754
810 0 3 -1.050000 12.623594 33.918422 3.546103
811 0 3 -1.050000 0.336229 28.813436 0.868565
812 0 3 -1.050000 0.082984 31.145374 3.546103
813 0 3 -1.050000 3.493916 35.447440 0.868565
814 0 3 -1.050000 1.601020 34.062155 3.546103
815 0 3 -1.050000 10.477454 34.865075 0.868565
816 0 3 -1.050000 12.623594 33.918422 12.307682
817 0 3 -1.050000 12.414703 32.241542 1.174636
818 0 3 -1.050000 0.336229 37.073932 3.789091
819 0 3 -1.050000 3.240671 28.934039 1.039123
820 0 3 -1.050000 0.082984 31.145374 12.307682
821 0 3 -1.050000 1.639651 31.802909 1.174636
822 0 3 -1.050000 10.647715 31.317192 3.789091
823 0 3 -1.050000 1.937249 37.902459 1.039123
824 0 3 -1.050000 1.601020 34.062155 12.307682
825 0 3 -1.050000 0.253244 35.081500 1.174636
826 0 3 -1.050000 3.323655 30.734827 3.789091
827 0 3 -1.050000 9.129679 32.289452 1.039123
828 0 1 1.575000 7.153799 45.432728 13.339212
829 0 1 1.575000 3.576900 43.367604 1.657107
830 0 1 1.575000 7.153799 49.562975 1.657107
831 0 1 1.575000 10.730699 43.367604 1.657107
832 0 2 2.100000 7.153799 45.432728 4.577633
833 0 1 1.575000 10.489616 45.293538 13.142369
834 0 1 1.575000 7.394882 39.376545 13.536055
835 0 1 1.575000 10.489616 45.293538 4.380790
836 0 1 1.575000 5.606433 48.391224 13.142369
837 0 1 1.575000 12.278066 48.669603 13.536055
838 0 1 1.575000 5.606433 48.391224 4.380790
839 0 1 1.575000 5.365349 42.613420 13.142369
840 0 1 1.575000 1.788450 48.252035 13.536055
841 0 1 1.575000 5.365349 42.613420 4.380790
842 0 1 1.575000 6.912716 43.228414 1.460263
843 0 1 1.575000 3.817983 45.571917 13.536055
844 0 1 1.575000 9.183332 46.326100 1.460263
845 0 1 1.575000 8.701166 42.474231 13.536055
846 0 1 1.575000 5.365349 46.743668 1.460263
847 0 2 2.100000 8.942249 48.252035 13.536055
848 0 3 -1.050000 8.837804 44.556289 14.370742
849 0 3 -1.050000 1.892895 42.102922 2.139578
850 0 3 -1.050000 11.066928 45.410424 2.275090
851 0 3 -1.050000 7.070815 47.329337 14.370742
852 0 3 -1.050000 12.667948 42.541554 2.139578
853 0 3 -1.050000 5.216550 48.832748 2.275090
854 0 3 -1.050000 5.552779 44.412556 14.370742
855 0 3 -1.050000 6.900555 26.872219 2.139578
856 0 3 -1.050000 5.177920 42.055011 2.275090
857 0 3 -1.050000 8.837804 44.556289 5.609163
858 0 3 -1.050000 6.817571 41.400779 14.127754
859 0 3 -1.050000 7.070815 47.329337 5.609163
860 0 3 -1.050000 10.813683 47.157519 14.127754
861 0 3 -1.050000 5.552779 44.412556 5.609163
862 0 3 -1.050000 3.830144 47.739884 14.127754
863 0 3 -1.050000 5.469795 46.309166 3.546103
864 0 3 -1.050000 7.490028 41.204180 0.868565
865 0 3 -1.050000 7.236783 43.536118 3.546103
866 0 3 -1.050000 10.647715 47.838184 0.868565
867 0 3 -1.050000 8.754820 46.452899 3.546103
868 0 3 -1.050000 3.323655 47.255819 0.868565
869 0 3 -1.050000 5.469795 46.309166 12.307682
870 0 3 -1.050000 5.260904 44.632285 1.174636
871 0 3 -1.050000 7.490028 49.464676 3.789091
872 0 3 -1.050000 10.394470 41.324783 1.039123
873 0 3 -1.050000 7.236783 43.536118 12.307682
874 0 3 -1.050000 8.793450 44.193653 1.174636
875 0 3 -1.050000 3.493916 43.707936 3.789091
876 0 3 -1.050000 9.091048 25.511716 1.039123
877 0 3 -1.050000 8.754820 46.452899 12.307682
878 0 3 -1.050000 7.407044 47.472244 1.174636
879 0 3 -1.050000 10.477454 43.125571 3.789091
880 0 3 -1.050000 1.975879 44.680196 1.039123
881 0 2 2.100000 7.153799 28.911736 16.259738
882 0 1 1.575000 10.489616 28.772546 16.062895
883 0 1 1.575000 5.606433 31.870232 16.062895
884 0 1 1.575000 5.365349 26.092428 16.062895
885 0 3 -1.050000 8.837804 28.035297 17.291268
886 0 3 -1.050000 7.070815 30.808346 17.291268
887 0 3 -1.050000 5.552779 27.891564 17.291268
888 0 3 -1.050000 5.469795 29.788174 15.228208
889 0 3 -1.050000 7.236783 27.015126 15.228208
890 0 3 -1.050000 8.754820 29.931907 15.228208
891 0 3 -1.050000 7.490028 32.943684 15.471196
892 0 3 -1.050000 3.493916 27.186944 15.471196
893 0 3 -1.050000 10.477454 26.604579 15.471196
894 0 1 1.575000 0.000000 41.302480 16.259738
895 0 1 1.575000 3.335817 41.163290 16.062895
896 0 1 1.575000 12.760232 44.260976 16.062895
897 0 1 1.575000 12.519149 38.483172 16.062895
898 0 3 -1.050000 1.684004 40.426041 17.291268
899 0 3 -1.050000 14.224615 43.199089 17.291268
900 0 3 -1.050000 12.706578 40.282308 17.291268
901 0 3 -1.050000 12.623594 42.178918 15.228208
902 0 3 -1.050000 0.082984 39.405870 15.228208
903 0 3 -1.050000 1.601020 42.322651 15.228208
904 0 3 -1.050000 0.336229 45.334428 15.471196
905 0 3 -1.050000 10.647715 39.577688 15.471196
906 0 3 -1.050000 3.323655 38.995323 15.471196
907 0 1 1.575000 3.576900 35.107108 16.259738
908 0 1 1.575000 0.000000 28.911736 16.259738
909 0 1 1.575000 10.730699 35.107108 16.259738
910 0 1 1.575000 0.241083 35.246297 16.456582
911 0 1 1.575000 12.278066 32.148611 16.456582
912 0 1 1.575000 1.788450 31.731043 16.456582
913 0 1 1.575000 3.817983 29.050925 16.456582
914 0 1 1.575000 6.912716 34.967918 16.062895
915 0 1 1.575000 1.547367 38.343983 16.456582
916 0 1 1.575000 9.183332 38.065604 16.062895
917 0 1 1.575000 8.942249 31.731043 16.456582
918 0 1 1.575000 12.519149 26.092428 16.062895
919 0 4 -0.950000 13.971370 37.270531 17.048280
920 0 3 -1.050000 10.813683 30.636527 17.048280
921 0 3 -1.050000 3.830144 31.218892 17.048280
922 0 4 -0.950000 1.892895 33.842426 16.742209
923 0 4 -0.950000 11.066928 37.149928 16.877722
924 0 3 -1.050000 12.667948 34.281058 16.742209
925 0 3 -1.050000 12.370350 28.181508 16.877722
926 0 3 -1.050000 14.054354 31.002467 16.742209
927 0 3 -1.050000 5.177920 33.794515 16.877722
928 0 3 -1.050000 5.260904 36.371790 15.777267
929 0 3 -1.050000 10.394470 33.064287 15.641755
930 0 3 -1.050000 8.793450 35.933157 15.777267
931 0 3 -1.050000 1.937249 29.641964 15.641755
932 0 3 -1.050000 0.253244 26.821004 15.777267
933 0 3 -1.050000 1.975879 36.419700 15.641755
934 0 1 1.575000 10.730699 47.497851 16.259738
935 0 1 1.575000 7.153799 41.302480 16.259738
936 0 1 1.575000 3.576900 47.497851 16.259738
937 0 1 1.575000 7.394882 47.637041 16.456582
938 0 1 1.575000 5.124266 44.539355 16.456582
939 0 1 1.575000 8.942249 44.121787 16.456582
940 0 1 1.575000 10.971782 41.441669 16.456582
941 0 1 1.575000 14.066516 47.358662 16.062895
942 0 1 1.575000 8.701166 25.953239 16.456582
943 0 1 1.575000 2.029533 25.674860 16.062895
944 0 1 1.575000 1.788450 44.121787 16.456582
945 0 1 1.575000 5.365349 38.483172 16.062895
946 0 4 -0.950000 6.817571 24.879788 17.048280
947 0 3 -1.050000 3.659884 43.027271 17.048280
948 0 3 -1.050000 10.983943 43.609636 17.048280
949 0 3 -1.050000 9.046695 46.233170 16.742209
950 0 3 -1.050000 3.913128 49.540672 16.877722
951 0 3 -1.050000 5.514149 46.671802 16.742209
952 0 3 -1.050000 5.216550 40.572252 16.877722
953 0 4 -0.950000 6.900555 43.393211 16.742209
954 0 3 -1.050000 12.331719 46.185259 16.877722
955 0 3 -1.050000 12.414703 48.762533 15.777267
956 0 3 -1.050000 3.240671 45.455031 15.641755
957 0 3 -1.050000 1.639651 48.323901 15.777267
958 0 3 -1.050000 9.091048 42.032707 15.641755
959 0 3 -1.050000 7.407044 39.211748 15.777267
960 0 3 -1.050000 9.129679 48.810444 15.641755
961 0 1 1.575000 14.307599 0.000000 1.657107
962 0 1 1.575000 25.038298 22.716364 7.498159
963 0 1 1.575000 14.307599 4.130248 7.498159
964 0 2 2.100000 17.884498 22.716364 7.498159
965 0 2 2.100000 14.307599 24.781488 10.418686
966 0 1 1.575000 17.884498 2.065124 4.577633
967 0 1 1.575000 14.307599 20.651240 4.577633
968 0 2 2.100000 25.038298 2.065124 4.577633
969 0 1 1.575000 17.643415 24.642298 1.460263
970 0 1 1.575000 14.548682 18.725305 1.853950
971 0 1 1.575000 14.548682 2.204313 4.774476
972 0 1 1.575000 17.643415 24.642298 10.221842
973 0 1 1.575000 27.067830 2.958497 1.460263
974 0 1 1.575000 19.431865 3.236875 1.853950
975 0 1 1.575000 26.585664 23.888115 4.774476
976 0 1 1.575000 27.067830 2.958497 10.221842
977 0 1 1.575000 26.826747 21.962180 1.460263
978 0 1 1.575000 23.249848 2.819307 1.853950
979 0 1 1.575000 16.096048 23.470547 4.774476
980 0 1 1.575000 26.826747 21.962180 10.221842
981 0 1 1.575000 18.125581 20.790429 4.774476
982 0 1 1.575000 21.220315 1.925935 4.380790
983 0 1 1.575000 28.374114 22.577174 7.301316
984 0 1 1.575000 25.279381 0.139189 1.853950
985 0 1 1.575000 15.854965 5.301999 4.774476
986 0 1 1.575000 23.490931 5.023621 4.380790
987 0 1 1.575000 16.337131 0.893373 7.301316
988 0 1 1.575000 15.854965 21.822991 1.853950
989 0 1 1.575000 23.249848 23.470547 4.774476
990 0 1 1.575000 26.826747 17.831933 4.380790
991 0 1 1.575000 26.826747 1.310941 7.301316
992 0 1 1.575000 16.096048 2.819307 1.853950
993 0 3 -1.050000 15.991603 23.905049 2.688637
994 0 3 -1.050000 23.354293 21.451682 7.980630
995 0 3 -1.050000 28.278969 4.228548 5.366175
996 0 3 -1.050000 18.220727 24.759184 8.116143
997 0 3 -1.050000 28.532213 1.896610 2.688637
998 0 3 -1.050000 19.821747 21.890314 7.980630
999 0 3 -1.050000 25.121282 22.376031 5.366175
1000 0 3 -1.050000 26.677948 3.400020 8.116143
1001 0 3 -1.050000 27.014177 23.761316 2.688637
1002 0 3 -1.050000 28.361953 6.220979 7.980630
1003 0 3 -1.050000 18.137743 22.958396 5.366175
1004 0 3 -1.050000 26.639318 21.403771 8.116143
1005 0 3 -1.050000 15.991603 23.905049 11.450216
1006 0 3 -1.050000 16.200494 0.800442 5.060104
1007 0 3 -1.050000 28.278969 20.749540 2.445649
1008 0 3 -1.050000 25.374526 4.107945 5.195616
1009 0 3 -1.050000 28.532213 1.896610 11.450216
1010 0 3 -1.050000 26.975546 1.239074 5.060104
1011 0 3 -1.050000 17.967482 1.724792 2.445649
1012 0 3 -1.050000 26.677948 19.921012 5.195616
1013 0 3 -1.050000 27.014177 23.761316 11.450216
1014 0 3 -1.050000 28.361953 22.741971 5.060104
1015 0 3 -1.050000 25.291542 2.307157 2.445649
1016 0 3 -1.050000 19.485519 0.752531 5.195616
1017 0 3 -1.050000 26.931193 0.876439 9.387156
1018 0 3 -1.050000 19.568503 3.329806 4.095162
1019 0 3 -1.050000 14.643827 20.552940 6.709617
1020 0 3 -1.050000 24.702069 0.022303 3.959650
1021 0 3 -1.050000 14.390583 22.884878 9.387156
1022 0 3 -1.050000 23.101049 2.891174 4.095162
1023 0 3 -1.050000 17.801514 2.405456 6.709617
1024 0 3 -1.050000 16.244847 21.381468 3.959650
1025 0 3 -1.050000 15.908619 1.020171 9.387156
1026 0 3 -1.050000 14.560843 18.560508 4.095162
1027 0 3 -1.050000 24.785053 1.823091 6.709617
1028 0 3 -1.050000 16.283478 3.377717 3.959650
1029 0 3 -1.050000 26.931193 0.876439 0.625577
1030 0 3 -1.050000 26.722302 23.981046 7.015688
1031 0 3 -1.050000 14.643827 4.031948 9.630144
1032 0 3 -1.050000 17.548270 20.673543 6.880176
1033 0 3 -1.050000 14.390583 22.884878 0.625577
1034 0 3 -1.050000 15.947249 23.542413 7.015688
1035 0 3 -1.050000 24.955313 23.056696 9.630144
1036 0 3 -1.050000 16.244847 4.860476 6.880176
1037 0 3 -1.050000 15.908619 1.020171 0.625577
1038 0 3 -1.050000 14.560843 2.039516 7.015688
1039 0 3 -1.050000 17.631254 22.474331 9.630144
1040 0 3 -1.050000 23.437277 24.028957 6.880176
1041 0 1 1.575000 21.461398 12.390744 1.657107
1042 0 1 1.575000 17.884498 10.325620 7.498159
1043 0 1 1.575000 21.461398 16.520992 7.498159
1044 0 1 1.575000 25.038298 10.325620 7.498159
1045 0 1 1.575000 21.461398 12.390744 10.418686
1046 0 2 2.100000 25.038298 14.455868 4.577633
1047 0 1 1.575000 21.461398 8.260496 4.577633
1048 0 1 1.575000 17.884498 14.455868 4.577633
1049 0 1 1.575000 24.797215 12.251555 1.460263
1050 0 1 1.575000 21.702481 6.334561 1.853950
1051 0 1 1.575000 21.702481 14.595057 4.774476
1052 0 1 1.575000 24.797215 12.251555 10.221842
1053 0 1 1.575000 19.914031 15.349240 1.460263
1054 0 1 1.575000 26.585664 15.627619 1.853950
1055 0 1 1.575000 19.431865 11.497371 4.774476
1056 0 1 1.575000 19.914031 15.349240 10.221842
1057 0 1 1.575000 19.672948 9.571437 1.460263
1058 0 1 1.575000 16.096048 15.210051 1.853950
1059 0 2 2.100000 23.249848 11.079803 4.774476
1060 0 1 1.575000 19.672948 9.571437 10.221842
1061 0 1 1.575000 25.279381 8.399685 4.774476
1062 0 1 1.575000 28.374114 14.316678 4.380790
1063 0 1 1.575000 21.220315 10.186431 7.301316
1064 0 1 1.575000 18.125581 12.529933 1.853950
1065 0 1 1.575000 23.008765 17.692743 4.774476
1066 0 1 1.575000 16.337131 17.414364 4.380790
1067 0 1 1.575000 23.490931 13.284116 7.301316
1068 0 1 1.575000 23.008765 9.432247 1.853950
1069 0 1 1.575000 16.096048 11.079803 4.774476
1070 0 1 1.575000 19.672948 5.441189 4.380790
1071 0 1 1.575000 19.672948 13.701685 7.301316
1072 0 1 1.575000 23.249848 15.210051 1.853950
1073 0 3 -1.050000 23.145402 11.514305 2.688637
1074 0 3 -1.050000 16.200494 9.060938 7.980630
1075 0 3 -1.050000 21.125169 16.619292 5.366175
1076 0 3 -1.050000 25.374526 12.368441 8.116143
1077 0 3 -1.050000 21.378414 14.287354 2.688637
1078 0 3 -1.050000 26.975546 9.499570 7.980630
1079 0 3 -1.050000 17.967482 9.985287 5.366175
1080 0 3 -1.050000 19.524149 15.790764 8.116143
1081 0 3 -1.050000 19.860378 11.370573 2.688637
1082 0 3 -1.050000 21.208153 18.611723 7.980630
1083 0 3 -1.050000 25.291542 10.567652 5.366175
1084 0 3 -1.050000 19.485519 9.013027 8.116143
1085 0 3 -1.050000 23.145402 11.514305 11.450216
1086 0 3 -1.050000 23.354293 13.191186 5.060104
1087 0 3 -1.050000 21.125169 8.358796 2.445649
1088 0 3 -1.050000 18.220727 16.498688 5.195616
1089 0 3 -1.050000 21.378414 14.287354 11.450216
1090 0 3 -1.050000 19.821747 13.629818 5.060104
1091 0 3 -1.050000 25.121282 14.115535 2.445649
1092 0 3 -1.050000 19.524149 7.530268 5.195616
1093 0 3 -1.050000 19.860378 11.370573 11.450216
1094 0 3 -1.050000 21.208153 10.351227 5.060104
1095 0 3 -1.050000 18.137743 14.697900 2.445649
1096 0 3 -1.050000 26.639318 13.143275 5.195616
1097 0 3 -1.050000 19.777394 13.267182 9.387156
1098 0 3 -1.050000 26.722302 15.720550 4.095162
1099 0 3 -1.050000 21.797626 8.162196 6.709617
1100 0 3 -1.050000 17.548270 12.413047 3.959650
1101 0 3 -1.050000 21.544382 10.494134 9.387156
1102 0 3 -1.050000 15.947249 15.281917 4.095162
1103 0 3 -1.050000 24.955313 14.796200 6.709617
1104 0 3 -1.050000 23.398647 8.990724 3.959650
1105 0 3 -1.050000 23.062418 13.410915 9.387156
1106 0 3 -1.050000 21.714642 6.169764 4.095162
1107 0 3 -1.050000 17.631254 14.213835 6.709617
1108 0 3 -1.050000 23.437277 15.768461 3.959650
1109 0 3 -1.050000 19.777394 13.267182 0.625577
1110 0 3 -1.050000 19.568503 11.590302 7.015688
1111 0 3 -1.050000 21.797626 16.422692 9.630144
1112 0 3 -1.050000 24.702069 8.282799 6.880176
1113 0 3 -1.050000 21.544382 10.494134 0.625577
1114 0 3 -1.050000 23.101049 11.151669 7.015688
1115 0 3 -1.050000 17.801514 10.665952 9.630144
1116 0 3 -1.050000 23.398647 17.251220 6.880176
1117 0 3 -1.050000 23.062418 13.410915 0.625577
1118 0 3 -1.050000 21.714642 14.430260 7.015688
1119 0 3 -1.050000 24.785053 10.083587 9.630144
1120 0 3 -1.050000 16.283478 11.638213 6.880176
1121 0 1 1.575000 21.461398 4.130248 7.498159
1122 0 1 1.575000 17.884498 2.065124 13.339212
1123 0 1 1.575000 21.461398 8.260496 13.339212
1124 0 1 1.575000 25.038298 2.065124 13.339212
1125 0 1 1.575000 25.038298 6.195372 10.418686
1126 0 1 1.575000 21.461398 24.781488 10.418686
1127 0 1 1.575000 17.884498 6.195372 10.418686
1128 0 1 1.575000 24.797215 3.991059 7.301316
1129 0 2 2.100000 21.702481 22.855553 7.695003
1130 0 1 1.575000 21.702481 6.334561 10.615529
1131 0 1 1.575000 19.914031 7.088745 7.301316
1132 0 1 1.575000 26.585664 7.367123 7.695003
1133 0 1 1.575000 19.431865 3.236875 10.615529
1134 0 1 1.575000 19.672948 1.310941 7.301316
1135 0 1 1.575000 16.096048 6.949555 7.695003
1136 0 1 1.575000 23.249848 2.819307 10.615529
1137 0 1 1.575000 25.279381 0.139189 10.615529
1138 0 1 1.575000 28.374114 6.056183 10.221842
1139 0 1 1.575000 21.220315 1.925935 13.142369
1140 0 1 1.575000 18.125581 4.269437 7.695003
1141 0 1 1.575000 23.008765 9.432247 10.615529
1142 0 2 2.100000 16.337131 9.153869 10.221842
1143 0 1 1.575000 23.490931 5.023621 13.142369
1144 0 1 1.575000 23.008765 1.171751 7.695003
1145 0 1 1.575000 16.096048 2.819307 10.615529
1146 0 1 1.575000 19.672948 21.962180 10.221842
1147 0 1 1.575000 19.672948 5.441189 13.142369
1148 0 1 1.575000 23.249848 6.949555 7.695003
1149 0 3 -1.050000 23.145402 3.253809 8.529689
1150 0 3 -1.050000 16.200494 0.800442 13.821683
1151 0 3 -1.050000 21.125169 8.358796 11.207228
1152 0 3 -1.050000 25.374526 4.107945 13.957195
1153 0 3 -1.050000 21.378414 6.026858 8.529689
1154 0 3 -1.050000 26.975546 1.239074 13.821683
1155 0 3 -1.050000 17.967482 1.724792 11.207228
1156 0 3 -1.050000 19.524149 7.530268 13.957195
1157 0 3 -1.050000 19.860378 3.110077 8.529689
1158 0 3 -1.050000 21.208153 10.351227 13.821683
1159 0 3 -1.050000 25.291542 2.307157 11.207228
1160 0 3 -1.050000 19.485519 0.752531 13.957195
1161 0 3 -1.050000 23.354293 4.930690 10.901157
1162 0 3 -1.050000 21.125169 0.098300 8.286701
1163 0 3 -1.050000 18.220727 8.238193 11.036669
1164 0 3 -1.050000 19.821747 5.369322 10.901157
1165 0 3 -1.050000 25.121282 5.855040 8.286701
1166 0 3 -1.050000 19.524149 24.051260 11.036669
1167 0 3 -1.050000 21.208153 2.090732 10.901157
1168 0 3 -1.050000 18.137743 6.437404 8.286701
1169 0 3 -1.050000 26.639318 4.882779 11.036669
1170 0 3 -1.050000 26.722302 7.460054 9.936215
1171 0 3 -1.050000 21.797626 24.683188 12.550670
1172 0 3 -1.050000 17.548270 4.152551 9.800702
1173 0 3 -1.050000 15.947249 7.021422 9.936215
1174 0 3 -1.050000 24.955313 6.535704 12.550670
1175 0 3 -1.050000 23.398647 0.730228 9.800702
1176 0 3 -1.050000 21.714642 22.690756 9.936215
1177 0 3 -1.050000 17.631254 5.953339 12.550670
1178 0 3 -1.050000 23.437277 7.507965 9.800702
1179 0 3 -1.050000 19.777394 5.006687 6.466629
1180 0 3 -1.050000 19.568503 3.329806 12.856741
1181 0 3 -1.050000 24.702069 0.022303 12.721229
1182 0 3 -1.050000 21.544382 2.233638 6.466629
1183 0 3 -1.050000 23.101049 2.891174 12.856741
1184 0 3 -1.050000 23.398647 8.990724 12.721229
1185 0 3 -1.050000 23.062418 5.150419 6.466629
1186 0 3 -1.050000 21.714642 6.169764 12.856741
1187 0 3 -1.050000 16.283478 3.377717 12.721229
1188 0 1 1.575000 14.307599 16.520992 7.498159
1189 0 2 2.100000 25.038298 14.455868 13.339212
1190 0 1 1.575000 14.307599 20.651240 13.339212
1191 0 1 1.575000 17.884498 14.455868 13.339212
1192 0 1 1.575000 17.884498 18.586116 10.418686
1193 0 1 1.575000 14.307599 12.390744 10.418686
1194 0 1 1.575000 25.038298 18.586116 10.418686
1195 0 1 1.575000 17.643415 16.381802 7.301316
1196 0 2 2.100000 14.548682 10.464809 7.695003
1197 0 1 1.575000 14.548682 18.725305 10.615529
1198 0 1 1.575000 27.067830 19.479488 7.301316
1199 0 1 1.575000 19.431865 19.757867 7.695003
1200 0 1 1.575000 26.585664 15.627619 10.615529
1201 0 1 1.575000 26.826747 13.701685 7.301316
1202 0 1 1.575000 23.249848 19.340299 7.695003
1203 0 1 1.575000 16.096048 15.210051 10.615529
1204 0 1 1.575000 18.125581 12.529933 10.615529
1205 0 1 1.575000 21.220315 18.446926 10.221842
1206 0 1 1.575000 28.374114 14.316678 13.142369
1207 0 1 1.575000 25.279381 16.660181 7.695003
1208 0 1 1.575000 15.854965 21.822991 10.615529
1209 0 1 1.575000 23.490931 21.544612 10.221842
1210 0 1 1.575000 16.337131 17.414364 13.142369
1211 0 1 1.575000 15.854965 13.562495 7.695003
1212 0 1 1.575000 23.249848 15.210051 10.615529
1213 0 1 1.575000 26.826747 9.571437 10.221842
1214 0 2 2.100000 26.826747 17.831933 13.142369
1215 0 1 1.575000 16.096048 19.340299 7.695003
1216 0 3 -1.050000 15.991603 15.644553 8.529689
1217 0 3 -1.050000 23.354293 13.191186 13.821683
1218 0 3 -1.050000 28.278969 20.749540 11.207228
1219 0 3 -1.050000 18.220727 16.498688 13.957195
1220 0 3 -1.050000 28.532213 18.417602 8.529689
1221 0 3 -1.050000 19.821747 13.629818 13.821683
1222 0 3 -1.050000 25.121282 14.115535 11.207228
1223 0 3 -1.050000 26.677948 19.921012 13.957195
1224 0 3 -1.050000 27.014177 15.500821 8.529689
1225 0 3 -1.050000 28.361953 22.741971 13.821683
1226 0 3 -1.050000 18.137743 14.697900 11.207228
1227 0 3 -1.050000 26.639318 13.143275 13.957195
1228 0 3 -1.050000 16.200494 17.321434 10.901157
1229 0 3 -1.050000 28.278969 12.489044 8.286701
1230 0 3 -1.050000 25.374526 20.628936 11.036669
1231 0 3 -1.050000 26.975546 17.760066 10.901157
1232 0 3 -1.050000 17.967482 18.245783 8.286701
1233 0 3 -1.050000 26.677948 11.660516 11.036669
1234 0 3 -1.050000 28.361953 14.481475 10.901157
1235 0 3 -1.050000 25.291542 18.828148 8.286701
1236 0 3 -1.050000 19.485519 17.273523 11.036669
1237 0 3 -1.050000 19.568503 19.850798 9.936215
1238 0 3 -1.050000 14.643827 12.292444 12.550670
1239 0 3 -1.050000 24.702069 16.543295 9.800702
1240 0 3 -1.050000 23.101049 19.412165 9.936215
1241 0 3 -1.050000 17.801514 18.926448 12.550670
1242 0 3 -1.050000 16.244847 13.120972 9.800702
1243 0 3 -1.050000 14.560843 10.300012 9.936215
1244 0 3 -1.050000 24.785053 18.344083 12.550670
1245 0 3 -1.050000 16.283478 19.898709 9.800702
1246 0 3 -1.050000 26.931193 17.397430 6.466629
1247 0 3 -1.050000 26.722302 15.720550 12.856741
1248 0 3 -1.050000 17.548270 12.413047 12.721229
1249 0 3 -1.050000 14.390583 14.624382 6.466629
1250 0 3 -1.050000 15.947249 15.281917 12.856741
1251 0 3 -1.050000 16.244847 21.381468 12.721229
1252 0 3 -1.050000 15.908619 17.541163 6.466629
1253 0 3 -1.050000 14.560843 18.560508 12.856741
1254 0 3 -1.050000 23.437277 15.768461 12.721229
1255 0 2 2.100000 14.307599 8.260496 13.339212
1256 0 1 1.575000 25.038298 6.195372 1.657107
1257 0 1 1.575000 14.307599 12.390744 1.657107
1258 0 1 1.575000 17.884498 6.195372 1.657107
1259 0 1 1.575000 14.307599 8.260496 4.577633
1260 0 1 1.575000 17.643415 8.121307 13.142369
1261 0 2 2.100000 14.548682 2.204313 13.536055
1262 0 1 1.575000 17.643415 8.121307 4.380790
1263 0 1 1.575000 27.067830 11.218993 13.142369
1264 0 1 1.575000 19.431865 11.497371 13.536055
1265 0 1 1.575000 27.067830 11.218993 4.380790
1266 0 1 1.575000 26.826747 5.441189 13.142369
1267 0 1 1.575000 23.249848 11.079803 13.536055
1268 0 2 2.100000 26.826747 5.441189 4.380790
1269 0 1 1.575000 28.374114 6.056183 1.460263
1270 0 1 1.575000 25.279381 8.399685 13.536055
1271 0 1 1.575000 16.337131 9.153869 1.460263
1272 0 1 1.575000 15.854965 5.301999 13.536055
1273 0 1 1.575000 26.826747 9.571437 1.460263
1274 0 1 1.575000 16.096048 11.079803 13.536055
1275 0 3 -1.050000 15.991603 7.384057 14.370742
1276 0 3 -1.050000 23.354293 4.930690 2.139578
1277 0 3 -1.050000 18.220727 8.238193 2.275090
1278 0 3 -1.050000 28.532213 10.157106 14.370742
1279 0 3 -1.050000 19.821747 5.369322 2.139578
1280 0 3 -1.050000 26.677948 11.660516 2.275090
1281 0 3 -1.050000 27.014177 7.240325 14.370742
1282 0 3 -1.050000 28.361953 14.481475 2.139578
1283 0 3 -1.050000 26.639318 4.882779 2.275090
1284 0 3 -1.050000 15.991603 7.384057 5.609163
1285 0 3 -1.050000 28.278969 4.228548 14.127754
1286 0 3 -1.050000 28.532213 10.157106 5.609163
1287 0 3 -1.050000 17.967482 9.985287 14.127754
1288 0 3 -1.050000 27.014177 7.240325 5.609163
1289 0 3 -1.050000 25.291542 10.567652 14.127754
1290 0 3 -1.050000 26.931193 9.136935 3.546103
1291 0 3 -1.050000 14.643827 4.031948 0.868565
1292 0 3 -1.050000 14.390583 6.363886 3.546103
1293 0 3 -1.050000 17.801514 10.665952 0.868565
1294 0 3 -1.050000 15.908619 9.280667 3.546103
1295 0 3 -1.050000 24.785053 10.083587 0.868565
1296 0 3 -1.050000 26.931193 9.136935 12.307682
1297 0 3 -1.050000 26.722302 7.460054 1.174636
1298 0 3 -1.050000 14.643827 12.292444 3.789091
1299 0 3 -1.050000 17.548270 4.152551 1.039123
1300 0 3 -1.050000 14.390583 6.363886 12.307682
1301 0 3 -1.050000 15.947249 7.021422 1.174636
1302 0 3 -1.050000 24.955313 6.535704 3.789091
1303 0 3 -1.050000 16.244847 13.120972 1.039123
1304 0 3 -1.050000 15.908619 9.280667 12.307682
1305 0 3 -1.050000 14.560843 10.300012 1.174636
1306 0 3 -1.050000 17.631254 5.953339 3.789091
1307 0 3 -1.050000 23.437277 7.507965 1.039123
1308 0 1 1.575000 21.461398 20.651240 13.339212
1309 0 1 1.575000 17.884498 18.586116 1.657107
1310 0 1 1.575000 21.461398 24.781488 1.657107
1311 0 1 1.575000 25.038298 18.586116 1.657107
1312 0 1 1.575000 21.461398 20.651240 4.577633
1313 0 1 1.575000 24.797215 20.512050 13.142369
1314 0 1 1.575000 21.702481 14.595057 13.536055
1315 0 2 2.100000 24.797215 20.512050 4.380790
1316 0 1 1.575000 19.914031 23.609736 13.142369
1317 0 1 1.575000 26.585664 23.888115 13.536055
1318 0 1 1.575000 19.914031 23.609736 4.380790
1319 0 1 1.575000 19.672948 17.831933 13.142369
1320 0 2 2.100000 16.096048 23.470547 13.536055
1321 0 1 1.575000 19.672948 17.831933 4.380790
1322 0 1 1.575000 21.220315 18.446926 1.460263
1323 0 1 1.575000 18.125581 20.790429 13.536055
1324 0 1 1.575000 23.490931 21.544612 1.460263
1325 0 1 1.575000 23.008765 17.692743 13.536055
1326 0 1 1.575000 19.672948 21.962180 1.460263
1327 0 1 1.575000 23.249848 23.470547 13.536055
1328 0 3 -1.050000 23.145402 19.774801 14.370742
1329 0 3 -1.050000 16.200494 17.321434 2.139578
1330 0 3 -1.050000 25.374526 20.628936 2.275090
1331 0 3 -1.050000 21.378414 22.547850 14.370742
1332 0 3 -1.050000 26.975546 17.760066 2.139578
1333 0 3 -1.050000 19.524149 24.051260 2.275090
1334 0 3 -1.050000 19.860378 19.631069 14.370742
1335 0 3 -1.050000 21.208153 2.090732 2.139578
1336 0 3 -1.050000 19.485519 17.273523 2.275090
1337 0 3 -1.050000 23.145402 19.774801 5.609163
1338 0 3 -1.050000 21.125169 16.619292 14.127754
1339 0 3 -1.050000 21.378414 22.547850 5.609163
1340 0 3 -1.050000 25.121282 22.376031 14.127754
1341 0 3 -1.050000 19.860378 19.631069 5.609163
1342 0 3 -1.050000 18.137743 22.958396 14.127754
1343 0 3 -1.050000 19.777394 21.527678 3.546103
1344 0 3 -1.050000 21.797626 16.422692 0.868565
1345 0 3 -1.050000 21.544382 18.754630 3.546103
1346 0 3 -1.050000 24.955313 23.056696 0.868565
1347 0 3 -1.050000 23.062418 21.671411 3.546103
1348 0 3 -1.050000 17.631254 22.474331 0.868565
1349 0 3 -1.050000 19.777394 21.527678 12.307682
1350 0 3 -1.050000 19.568503 19.850798 1.174636
1351 0 3 -1.050000 21.797626 24.683188 3.789091
1352 0 3 -1.050000 24.702069 16.543295 1.039123
1353 0 3 -1.050000 21.544382 18.754630 12.307682
1354 0 3 -1.050000 23.101049 19.412165 1.174636
1355 0 3 -1.050000 17.801514 18.926448 3.789091
1356 0 3 -1.050000 23.398647 0.730228 1.039123
1357 0 3 -1.050000 23.062418 21.671411 12.307682
1358 0 3 -1.050000 21.714642 22.690756 1.174636
1359 0 3 -1.050000 24.785053 18.344083 3.789091
1360 0 3 -1.050000 16.283478 19.898709 1.039123
1361 0 1 1.575000 21.461398 4.130248 16.259738
1362 0 1 1.575000 24.797215 3.991059 16.062895
1363 0 1 1.575000 19.914031 7.088745 16.062895
1364 0 1 1.575000 19.672948 1.310941 16.062895
1365 0 3 -1.050000 23.145402 3.253809 17.291268
1366 0 3 -1.050000 21.378414 6.026858 17.291268
1367 0 3 -1.050000 19.860378 3.110077 17.291268
1368 0 3 -1.050000 19.777394 5.006687 15.228208
1369 0 3 -1.050000 21.544382 2.233638 15.228208
1370 0 3 -1.050000 23.062418 5.150419 15.228208
1371 0 3 -1.050000 21.797626 8.162196 15.471196
1372 0 3 -1.050000 17.801514 2.405456 15.471196
1373 0 3 -1.050000 24.785053 1.823091 15.471196
1374 0 1 1.575000 14.307599 16.520992 16.259738
1375 0 1 1.575000 17.643415 16.381802 16.062895
1376 0 1 1.575000 27.067830 19.479488 16.062895
1377 0 1 1.575000 26.826747 13.701685 16.062895
1378 0 3 -1.050000 15.991603 15.644553 17.291268
1379 0 3 -1.050000 28.532213 18.417602 17.291268
1380 0 3 -1.050000 27.014177 15.500821 17.291268
1381 0 3 -1.050000 26.931193 17.397430 15.228208
1382 0 3 -1.050000 14.390583 14.624382 15.228208
1383 0 3 -1.050000 15.908619 17.541163 15.228208
1384 0 3 -1.050000 14.643827 20.552940 15.471196
1385 0 3 -1.050000 24.955313 14.796200 15.471196
1386 0 3 -1.050000 17.631254 14.213835 15.471196
1387 0 1 1.575000 17.884498 10.325620 16.259738
1388 0 1 1.575000 14.307599 4.130248 16.259738
1389 0 1 1.575000 25.038298 10.325620 16.259738
1390 0 1 1.575000 14.548682 10.464809 16.456582
1391 0 1 1.575000 26.585664 7.367123 16.456582
1392 0 1 1.575000 16.096048 6.949555 16.456582
1393 0 1 1.575000 18.125581 4.269437 16.456582
1394 0 1 1.575000 21.220315 10.186431 16.062895
1395 0 1 1.575000 15.854965 13.562495 16.456582
1396 0 1 1.575000 23.490931 13.284116 16.062895
1397 0 1 1.575000 23.249848 6.949555 16.456582
1398 0 1 1.575000 26.826747 1.310941 16.062895
1399 0 4 -0.950000 28.278969 12.489044 17.048280
1400 0 3 -1.050000 25.121282 5.855040 17.048280
1401 0 3 -1.050000 18.137743 6.437404 17.048280
1402 0 4 -0.950000 16.200494 9.060938 16.742209
1403 0 4 -0.950000 25.374526 12.368441 16.877722
1404 0 3 -1.050000 26.975546 9.499570 16.742209
1405 0 3 -1.050000 26.677948 3.400020 16.877722
1406 0 3 -1.050000 28.361953 6.220979 16.742209
1407 0 3 -1.050000 19.485519 9.013027 16.877722
1408 0 3 -1.050000 19.568503 11.590302 15.777267
1409 0 3 -1.050000 24.702069 8.282799 15.641755
1410 0 3 -1.050000 23.101049 11.151669 15.777267
1411 0 3 -1.050000 16.244847 4.860476 15.641755
1412 0 3 -1.050000 14.560843 2.039516 15.777267
1413 0 3 -1.050000 16.283478 11.638213 15.641755
1414 0 1 1.575000 25.038298 22.716364 16.259738
1415 0 1 1.575000 21.461398 16.520992 16.259738
1416 0 1 1.575000 17.884498 22.716364 16.259738
1417 0 1 1.575000 21.702481 22.855553 16.456582
1418 0 1 1.575000 19.431865 19.757867 16.456582
1419 0 1 1.575000 23.249848 19.340299 16.456582
1420 0 1 1.575000 25.279381 16.660181 16.456582
1421 0 1 1.575000 28.374114 22.577174 16.062895
1422 0 1 1.575000 23.008765 1.171751 16.456582
1423 0 1 1.575000 16.337131 0.893373 16.062895
1424 0 1 1.575000 16.096048 19.340299 16.456582
1425 0 1 1.575000 19.672948 13.701685 16.062895
1426 0 4 -0.950000 21.125169 0.098300 17.048280
1427 0 3 -1.050000 17.967482 18.245783 17.048280
1428 0 3 -1.050000 25.291542 18.828148 17.048280
1429 0 3 -1.050000 23.354293 21.451682 16.742209
1430 0 3 -1.050000 18.220727 24.759184 16.877722
1431 0 3 -1.050000 19.821747 21.890314 16.742209
1432 0 3 -1.050000 19.524149 15.790764 16.877722
1433 0 4 -0.950000 21.208153 18.611723 16.742209
1434 0 4 -0.950000 26.639318 21.403771 16.877722
1435 0 3 -1.050000 26.722302 23.981046 15.777267
1436 0 3 -1.050000 17.548270 20.673543 15.641755
1437 0 3 -1.050000 15.947249 23.542413 15.777267
1438 0 3 -1.050000 23.398647 17.251220 15.641755
1439 0 3 -1.050000 21.714642 14.430260 15.777267
1440 0 3 -1.050000 23.437277 24.028957 15.641755
1441 0 1 1.575000 14.307599 24.781488 1.657107
1442 0 2 2.100000 25.038298 47.497851 7.498159
1443 0 1 1.575000 14.307599 28.911736 7.498159
1444 0 1 1.575000 17.884498 47.497851 7.498159
1445 0 2 2.100000 14.307599 49.562975 10.418686
1446 0 1 1.575000 17.884498 26.846612 4.577633
1447 0 2 2.100000 14.307599 45.432728 4.577633
1448 0 2 2.100000 25.038298 26.846612 4.577633
1449 0 1 1.575000 17.643415 49.423786 1.460263
1450 0 1 1.575000 14.548682 43.506793 1.853950
1451 0 1 1.575000 14.548682 26.985801 4.774476
1452 0 2 2.100000 17.643415 49.423786 10.221842
1453 0 1 1.575000 27.067830 27.739984 1.460263
1454 0 1 1.575000 19.431865 28.018363 1.853950
1455 0 1 1.575000 26.585664 48.669603 4.774476
1456 0 1 1.575000 27.067830 27.739984 10.221842
1457 0 1 1.575000 26.826747 46.743668 1.460263
1458 0 1 1.575000 23.249848 27.600795 1.853950
1459 0 1 1.575000 16.096048 48.252035 4.774476
1460 0 1 1.575000 26.826747 46.743668 10.221842
1461 0 1 1.575000 18.125581 45.571917 4.774476
1462 0 1 1.575000 21.220315 26.707422 4.380790
1463 0 1 1.575000 28.374114 47.358662 7.301316
1464 0 1 1.575000 25.279381 24.920677 1.853950
1465 0 1 1.575000 15.854965 30.083487 4.774476
1466 0 1 1.575000 23.490931 29.805108 4.380790
1467 0 1 1.575000 16.337131 25.674860 7.301316
1468 0 1 1.575000 15.854965 46.604479 1.853950
1469 0 1 1.575000 23.249848 48.252035 4.774476
1470 0 1 1.575000 26.826747 42.613420 4.380790
1471 0 1 1.575000 26.826747 26.092428 7.301316
1472 0 1 1.575000 16.096048 27.600795 1.853950
1473 0 3 -1.050000 15.991603 48.686537 2.688637
1474 0 3 -1.050000 23.354293 46.233170 7.980630
1475 0 3 -1.050000 28.278969 29.010036 5.366175
1476 0 3 -1.050000 18.220727 49.540672 8.116143
1477 0 3 -1.050000 28.532213 26.678098 2.688637
1478 0 3 -1.050000 19.821747 46.671802 7.980630
1479 0 3 -1.050000 25.121282 47.157519 5.366175
1480 0 3 -1.050000 26.677948 28.181508 8.116143
1481 0 3 -1.050000 27.014177 48.542804 2.688637
1482 0 3 -1.050000 28.361953 31.002467 7.980630
1483 0 3 -1.050000 18.137743 47.739884 5.366175
1484 0 3 -1.050000 26.639318 46.185259 8.116143
1485 0 3 -1.050000 15.991603 48.686537 11.450216
1486 0 3 -1.050000 16.200494 25.581930 5.060104
1487 0 3 -1.050000 28.278969 45.531027 2.445649
1488 0 3 -1.050000 25.374526 28.889432 5.195616
1489 0 3 -1.050000 28.532213 26.678098 11.450216
1490 0 3 -1.050000 26.975546 26.020562 5.060104
1491 0 3 -1.050000 17.967482 26.506279 2.445649
1492 0 3 -1.050000 26.677948 44.702500 5.195616
1493 0 3 -1.050000 27.014177 48.542804 11.450216
1494 0 3 -1.050000 28.361953 47.523459 5.060104
1495 0 3 -1.050000 25.291542 27.088644 2.445649
1496 0 3 -1.050000 19.485519 25.534019 5.195616
1497 0 3 -1.050000 26.931193 25.657926 9.387156
1498 0 3 -1.050000 19.568503 28.111294 4.095162
1499 0 3 -1.050000 14.643827 45.334428 6.709617
1500 0 3 -1.050000 24.702069 24.803791 3.959650
1501 0 3 -1.050000 14.390583 47.666366 9.387156
1502 0 3 -1.050000 23.101049 27.672661 4.095162
1503 0 3 -1.050000 17.801514 27.186944 6.709617
1504 0 3 -1.050000 16.244847 46.162955 3.959650
1505 0 3 -1.050000 15.908619 25.801659 9.387156
1506 0 3 -1.050000 14.560843 43.341996 4.095162
1507 0 3 -1.050000 24.785053 26.604579 6.709617
1508 0 3 -1.050000 16.283478 28.159205 3.959650
1509 0 3 -1.050000 26.931193 25.657926 0.625577
1510 0 3 -1.050000 26.722302 48.762533 7.015688
1511 0 3 -1.050000 14.643827 28.813436 9.630144
1512 0 3 -1.050000 17.548270 45.455031 6.880176
1513 0 3 -1.050000 14.390583 47.666366 0.625577
1514 0 3 -1.050000 15.947249 48.323901 7.015688
1515 0 3 -1.050000 24.955313 47.838184 9.630144
1516 0 3 -1.050000 16.244847 29.641964 6.880176
1517 0 3 -1.050000 15.908619 25.801659 0.625577
1518 0 3 -1.050000 14.560843 26.821004 7.015688
1519 0 3 -1.050000 17.631254 47.255819 9.630144
1520 0 3 -1.050000 23.437277 48.810444 6.880176
1521 0 1 1.575000 21.461398 37.172232 1.657107
1522 0 1 1.575000 17.884498 35.107108 7.498159
1523 0 1 1.575000 21.461398 41.302480 7.498159
1524 0 2 2.100000 25.038298 35.107108 7.498159
1525 0 1 1.575000 21.461398 37.172232 10.418686
1526 0 1 1.575000 25.038298 39.237356 4.577633
1527 0 2 2.100000 21.461398 33.041984 4.577633
1528 0 1 1.575000 17.884498 39.237356 4.577633
1529 0 1 1.575000 24.797215 37.033042 1.460263
1530 0 1 1.575000 21.702481 31.116049 1.853950
1531 0 1 1.575000 21.702481 39.376545 4.774476
1532 0 1 1.575000 24.797215 37.033042 10.221842
1533 0 1 1.575000 19.914031 40.130728 1.460263
1534 0 1 1.575000 26.585664 40.409107 1.853950
1535 0 1 1.575000 19.431865 36.278859 4.774476
1536 0 2 2.100000 19.914031 40.130728 10.221842
1537 0 2 2.100000 19.672948 34.352924 1.460263
1538 0 1 1.575000 16.096048 39.991539 1.853950
1539 0 1 1.575000 23.249848 35.861291 4.774476
1540 0 1 1.575000 19.672948 34.352924 10.221842
1541 0 1 1.575000 25.279381 33.181173 4.774476
1542 0 1 1.575000 28.374114 39.098166 4.380790
1543 0 1 1.575000 21.220315 34.967918 7.301316
1544 0 1 1.575000 18.125581 37.311421 1.853950
1545 0 1 1.575000 23.008765 42.474231 4.774476
1546 0 2 2.100000 16.337131 42.195852 4.380790
1547 0 1 1.575000 23.490931 38.065604 7.301316
1548 0 1 1.575000 23.008765 34.213735 1.853950
1549 0 1 1.575000 16.096048 35.861291 4.774476
1550 0 1 1.575000 19.672948 30.222676 4.380790
1551 0 1 1.575000 19.672948 38.483172 7.301316
1552 0 1 1.575000 23.249848 39.991539 1.853950
1553 0 3 -1.050000 23.145402 36.295793 2.688637
1554 0 3 -1.050000 16.200494 33.842426 7.980630
1555 0 3 -1.050000 21.125169 41.400779 5.366175
1556 0 3 -1.050000 25.374526 37.149928 8.116143
1557 0 3 -1.050000 21.378414 39.068841 2.688637
1558 0 3 -1.050000 26.975546 34.281058 7.980630
1559 0 3 -1.050000 17.967482 34.766775 5.366175
1560 0 3 -1.050000 19.524149 40.572252 8.116143
1561 0 3 -1.050000 19.860378 36.152060 2.688637
1562 0 3 -1.050000 21.208153 43.393211 7.980630
1563 0 3 -1.050000 25.291542 35.349140 5.366175
1564 0 3 -1.050000 19.485519 33.794515 8.116143
1565 0 3 -1.050000 23.145402 36.295793 11.450216
1566 0 3 -1.050000 23.354293 37.972674 5.060104
1567 0 3 -1.050000 21.125169 33.140284 2.445649
1568 0 3 -1.050000 18.220727 41.280176 5.195616
1569 0 3 -1.050000 21.378414 39.068841 11.450216
1570 0 3 -1.050000 19.821747 38.411306 5.060104
1571 0 3 -1.050000 25.121282 38.897023 2.445649
1572 0 3 -1.050000 19.524149 32.311756 5.195616
1573 0 3 -1.050000 19.860378 36.152060 11.450216
1574 0 3 -1.050000 21.208153 35.132715 5.060104
1575 0 3 -1.050000 18.137743 39.479388 2.445649
1576 0 3 -1.050000 26.639318 37.924763 5.195616
1577 0 3 -1.050000 19.777394 38.048670 9.387156
1578 0 3 -1.050000 26.722302 40.502037 4.095162
1579 0 3 -1.050000 21.797626 32.943684 6.709617
1580 0 3 -1.050000 17.548270 37.194535 3.959650
1581 0 3 -1.050000 21.544382 35.275622 9.387156
1582 0 3 -1.050000 15.947249 40.063405 4.095162
1583 0 3 -1.050000 24.955313 39.577688 6.709617
1584 0 3 -1.050000 23.398647 33.772211 3.959650
1585 0 3 -1.050000 23.062418 38.192403 9.387156
1586 0 3 -1.050000 21.714642 30.951252 4.095162
1587 0 3 -1.050000 17.631254 38.995323 6.709617
1588 0 3 -1.050000 23.437277 40.549948 3.959650
1589 0 3 -1.050000 19.777394 38.048670 0.625577
1590 0 3 -1.050000 19.568503 36.371790 7.015688
1591 0 3 -1.050000 21.797626 41.204180 9.630144
1592 0 3 -1.050000 24.702069 33.064287 6.880176
1593 0 3 -1.050000 21.544382 35.275622 0.625577
1594 0 3 -1.050000 23.101049 35.933157 7.015688
1595 0 3 -1.050000 17.801514 35.447440 9.630144
1596 0 3 -1.050000 23.398647 42.032707 6.880176
1597 0 3 -1.050000 23.062418 38.192403 0.625577
1598 0 3 -1.050000 21.714642 39.211748 7.015688
1599 0 3 -1.050000 24.785053 34.865075 9.630144
1600 0 3 -1.050000 16.283478 36.419700 6.880176
1601 0 1 1.575000 21.461398 28.911736 7.498159
1602 0 1 1.575000 17.884498 26.846612 13.339212
1603 0 1 1.575000 21.461398 33.041984 13.339212
1604 0 1 1.575000 25.038298 26.846612 13.339212
1605 0 2 2.100000 25.038298 30.976860 10.418686
1606 0 2 2.100000 21.461398 0.000000 10.418686
1607 0 1 1.575000 17.884498 30.976860 10.418686
1608 0 1 1.575000 24.797215 28.772546 7.301316
1609 0 1 1.575000 21.702481 47.637041 7.695003
1610 0 1 1.575000 21.702481 31.116049 10.615529
1611 0 1 1.575000 19.914031 31.870232 7.301316
1612 0 1 1.575000 26.585664 32.148611 7.695003
1613 0 1 1.575000 19.431865 28.018363 10.615529
1614 0 1 1.575000 19.672948 26.092428 7.301316
1615 0 1 1.575000 16.096048 31.731043 7.695003
1616 0 1 1.575000 23.249848 27.600795 10.615529
1617 0 1 1.575000 25.279381 24.920677 10.615529
1618 0 1 1.575000 28.374114 30.837670 10.221842
1619 0 1 1.575000 21.220315 26.707422 13.142369
1620 0 1 1.575000 18.125581 29.050925 7.695003
1621 0 1 1.575000 23.008765 34.213735 10.615529
1622 0 1 1.575000 16.337131 33.935356 10.221842
1623 0 1 1.575000 23.490931 29.805108 13.142369
1624 0 1 1.575000 23.008765 25.953239 7.695003
1625 0 1 1.575000 16.096048 27.600795 10.615529
1626 0 1 1.575000 19.672948 46.743668 10.221842
1627 0 1 1.575000 19.672948 30.222676 13.142369
1628 0 1 1.575000 23.249848 31.731043 7.695003
1629 0 3 -1.050000 23.145402 28.035297 8.529689
1630 0 3 -1.050000 16.200494 25.581930 13.821683
1631 0 3 -1.050000 21.125169 33.140284 11.207228
1632 0 3 -1.050000 25.374526 28.889432 13.957195
1633 0 3 -1.050000 21.378414 30.808346 8.529689
1634 0 3 -1.050000 26.975546 26.020562 13.821683
1635 0 3 -1.050000 17.967482 26.506279 11.207228
1636 0 3 -1.050000 19.524149 32.311756 13.957195
1637 0 3 -1.050000 19.860378 27.891564 8.529689
1638 0 3 -1.050000 21.208153 35.132715 13.821683
1639 0 3 -1.050000 25.291542 27.088644 11.207228
1640 0 3 -1.050000 19.485519 25.534019 13.957195
1641 0 3 -1.050000 23.354293 29.712178 10.901157
1642 0 3 -1.050000 21.125169 24.879788 8.286701
1643 0 3 -1.050000 18.220727 33.019680 11.036669
1644 0 3 -1.050000 19.821747 30.150810 10.901157
1645 0 3 -1.050000 25.121282 30.636527 8.286701
1646 0 3 -1.050000 19.524149 48.832748 11.036669
1647 0 3 -1.050000 21.208153 26.872219 10.901157
1648 0 3 -1.050000 18.137743 31.218892 8.286701
1649 0 3 -1.050000 26.639318 29.664267 11.036669
1650 0 3 -1.050000 26.722302 32.241542 9.936215
1651 0 3 -1.050000 21.797626 49.464676 12.550670
1652 0 3 -1.050000 17.548270 28.934039 9.800702
1653 0 3 -1.050000 15.947249 31.802909 9.936215
1654 0 3 -1.050000 24.955313 31.317192 12.550670
1655 0 3 -1.050000 23.398647 25.511716 9.800702
1656 0 3 -1.050000 21.714642 47.472244 9.936215
1657 0 3 -1.050000 17.631254 30.734827 12.550670
1658 0 3 -1.050000 23.437277 32.289452 9.800702
1659 0 3 -1.050000 19.777394 29.788174 6.466629
1660 0 3 -1.050000 19.568503 28.111294 12.856741
1661 0 3 -1.050000 24.702069 24.803791 12.721229
1662 0 3 -1.050000 21.544382 27.015126 6.466629
1663 0 3 -1.050000 23.101049 27.672661 12.856741
1664 0 3 -1.050000 23.398647 33.772211 12.721229
1665 0 3 -1.050000 23.062418 29.931907 6.466629
1666 0 3 -1.050000 21.714642 30.951252 12.856741
1667 0 3 -1.050000 16.283478 28.159205 12.721229
1668 0 1 1.575000 14.307599 41.302480 7.498159
1669 0 1 1.575000 25.038298 39.237356 13.339212
1670 0 1 1.575000 14.307599 45.432728 13.339212
1671 0 2 2.100000 17.884498 39.237356 13.339212
1672 0 1 1.575000 17.884498 43.367604 10.418686
1673 0 1 1.575000 14.307599 37.172232 10.418686
1674 0 1 1.575000 25.038298 43.367604 10.418686
1675 0 1 1.575000 17.643415 41.163290 7.301316
1676 0 1 1.575000 14.548682 35.246297 7.695003
1677 0 2 2.100000 14.548682 43.506793 10.615529
1678 0 1 1.575000 27.067830 44.260976 7.301316
1679 0 1 1.575000 19.431865 44.539355 7.695003
1680 0 1 1.575000 26.585664 40.409107 10.615529
1681 0 1 1.575000 26.826747 38.483172 7.301316
1682 0 1 1.575000 23.249848 44.121787 7.695003
1683 0 1 1.575000 16.096048 39.991539 10.615529
1684 0 1 1.575000 18.125581 37.311421 10.615529
1685 0 1 1.575000 21.220315 43.228414 10.221842
1686 0 1 1.575000 28.374114 39.098166 13.142369
1687 0 1 1.575000 25.279381 41.441669 7.695003
1688 0 1 1.575000 15.854965 46.604479 10.615529
1689 0 1 1.575000 23.490931 46.326100 10.221842
1690 0 1 1.575000 16.337131 42.195852 13.142369
1691 0 1 1.575000 15.854965 38.343983 7.695003
1692 0 1 1.575000 23.249848 39.991539 10.615529
1693 0 2 2.100000 26.826747 34.352924 10.221842
1694 0 2 2.100000 26.826747 42.613420 13.142369
1695 0 1 1.575000 16.096048 44.121787 7.695003
1696 0 3 -1.050000 15.991603 40.426041 8.529689
1697 0 3 -1.050000 23.354293 37.972674 13.821683
1698 0 3 -1.050000 28.278969 45.531027 11.207228
1699 0 3 -1.050000 18.220727 41.280176 13.957195
1700 0 3 -1.050000 28.532213 43.199089 8.529689
1701 0 3 -1.050000 19.821747 38.411306 13.821683
1702 0 3 -1.050000 25.121282 38.897023 11.207228
1703 0 3 -1.050000 26.677948 44.702500 13.957195
1704 0 3 -1.050000 27.014177 40.282308 8.529689
1705 0 3 -1.050000 28.361953 47.523459 13.821683
1706 0 3 -1.050000 18.137743 39.479388 11.207228
1707 0 3 -1.050000 26.639318 37.924763 13.957195
1708 0 3 -1.050000 16.200494 42.102922 10.901157
1709 0 3 -1.050000 28.278969 37.270531 8.286701
1710 0 3 -1.050000 25.374526 45.410424 11.036669
1711 0 3 -1.050000 26.975546 42.541554 10.901157
1712 0 3 -1.050000 17.967482 43.027271 8.286701
1713 0 3 -1.050000 26.677948 36.442004 11.036669
1714 0 3 -1.050000 28.361953 39.262963 10.901157
1715 0 3 -1.050000 25.291542 43.609636 8.286701
1716 0 3 -1.050000 19.485519 42.055011 11.036669
1717 0 3 -1.050000 19.568503 44.632285 9.936215
1718 0 3 -1.050000 14.643827 37.073932 12.550670
1719 0 3 -1.050000 24.702069 41.324783 9.800702
1720 0 3 -1.050000 23.101049 44.193653 9.936215
1721 0 3 -1.050000 17.801514 43.707936 12.550670
1722 0 3 -1.050000 16.244847 37.902459 9.800702
1723 0 3 -1.050000 14.560843 35.081500 9.936215
1724 0 3 -1.050000 24.785053 43.125571 12.550670
1725 0 3 -1.050000 16.283478 44.680196 9.800702
1726 0 3 -1.050000 26.931193 42.178918 6.466629
1727 0 3 -1.050000 26.722302 40.502037 12.856741
1728 0 3 -1.050000 17.548270 37.194535 12.721229
1729 0 3 -1.050000 14.390583 39.405870 6.466629
1730 0 3 -1.050000 15.947249 40.063405 12.856741
1731 0 3 -1.050000 16.244847 46.162955 12.721229
1732 0 3 -1.050000 15.908619 42.322651 6.466629
1733 0 3 -1.050000 14.560843 43.341996 12.856741
1734 0 3 -1.050000 23.437277 40.549948 12.721229
1735 0 1 1.575000 14.307599 33.041984 13.339212
1736 0 1 1.575000 25.038298 30.976860 1.657107
1737 0 1 1.575000 14.307599 37.172232 1.657107
1738 0 1 1.575000 17.884498 30.976860 1.657107
1739 0 1 1.575000 14.307599 33.041984 4.577633
1740 0 1 1.575000 17.643415 32.902794 13.142369
1741 0 1 1.575000 14.548682 26.985801 13.536055
1742 0 1 1.575000 17.643415 32.902794 4.380790
1743 0 1 1.575000 27.067830 36.000480 13.142369
1744 0 1 1.575000 19.431865 36.278859 13.536055
1745 0 1 1.575000 27.067830 36.000480 4.380790
1746 0 1 1.575000 26.826747 30.222676 13.142369
1747 0 1 1.575000 23.249848 35.861291 13.536055
1748 0 1 1.575000 26.826747 30.222676 4.380790
1749 0 1 1.575000 28.374114 30.837670 1.460263
1750 0 1 1.575000 25.279381 33.181173 13.536055
1751 0 1 1.575000 16.337131 33.935356 1.460263
1752 0 1 1.575000 15.854965 30.083487 13.536055
1753 0 1 1.575000 26.826747 34.352924 1.460263
1754 0 1 1.575000 16.096048 35.861291 13.536055
1755 0 3 -1.050000 15.991603 32.165545 14.370742
1756 0 3 -1.050000 23.354293 29.712178 2.139578
1757 0 3 -1.050000 18.220727 33.019680 2.275090
1758 0 3 -1.050000 28.532213 34.938593 14.370742
1759 0 3 -1.050000 19.821747 30.150810 2.139578
1760 0 3 -1.050000 26.677948 36.442004 2.275090
1761 0 3 -1.050000 27.014177 32.021812 14.370742
1762 0 3 -1.050000 28.361953 39.262963 2.139578
1763 0 3 -1.050000 26.639318 29.664267 2.275090
1764 0 3 -1.050000 15.991603 32.165545 5.609163
1765 0 3 -1.050000 28.278969 29.010036 14.127754
1766 0 3 -1.050000 28.532213 34.938593 5.609163
1767 0 3 -1.050000 17.967482 34.766775 14.127754
1768 0 3 -1.050000 27.014177 32.021812 5.609163
1769 0 3 -1.050000 25.291542 35.349140 14.127754
1770 0 3 -1.050000 26.931193 33.918422 3.546103
1771 0 3 -1.050000 14.643827 28.813436 0.868565
1772 0 3 -1.050000 14.390583 31.145374 3.546103
1773 0 3 -1.050000 17.801514 35.447440 0.868565
1774 0 3 -1.050000 15.908619 34.062155 3.546103
1775 0 3 -1.050000 24.785053 34.865075 0.868565
1776 0 3 -1.050000 26.931193 33.918422 12.307682
1777 0 3 -1.050000 26.722302 32.241542 1.174636
1778 0 3 -1.050000 14.643827 37.073932 3.789091
1779 0 3 -1.050000 17.548270 28.934039 1.039123
1780 0 3 -1.050000 14.390583 31.145374 12.307682
1781 0 3 -1.050000 15.947249 31.802909 1.174636
1782 0 3 -1.050000 24.955313 31.317192 3.789091
1783 0 3 -1.050000 16.244847 37.902459 1.039123
1784 0 3 -1.050000 15.908619 34.062155 12.307682
1785 0 3 -1.050000 14.560843 35.081500 1.174636
1786 0 3 -1.050000 17.631254 30.734827 3.789091
1787 0 3 -1.050000 23.437277 32.289452 1.039123
1788 0 1 1.575000 21.461398 45.432728 13.339212
1789 0 1 1.575000 17.884498 43.367604 1.657107
1790 0 1 1.575000 21.461398 49.562975 1.657107
1791 0 1 1.575000 25.038298 43.367604 1.657107
1792 0 1 1.575000 21.461398 45.432728 4.577633
1793 0 1 1.575000 24.797215 45.293538 13.142369
1794 0 1 1.575000 21.702481 39.376545 13.536055
1795 0 2 2.100000 24.797215 45.293538 4.380790
1796 0 1 1.575000 19.914031 48.391224 13.142369
1797 0 1 1.575000 26.585664 48.669603 13.536055
1798 0 1 1.575000 19.914031 48.391224 4.380790
1799 0 1 1.575000 19.672948 42.613420 13.142369
1800 0 1 1.575000 16.096048 48.252035 13.536055
1801 0 1 1.575000 19.672948 42.613420 4.380790
1802 0 1 1.575000 21.220315 43.228414 1.460263
1803 0 1 1.575000 18.125581 45.571917 13.536055
1804 0 1 1.575000 23.490931 46.326100 1.460263
1805 0 1 1.575000 23.008765 42.474231 13.536055
1806 0 1 1.575000 19.672948 46.743668 1.460263
1807 0 1 1.575000 23.249848 48.252035 13.536055
1808 0 3 -1.050000 23.145402 44.556289 14.370742
1809 0 3 -1.050000 16.200494 42.102922 2.139578
1810 0 3 -1.050000 25.374526 45.410424 2.275090
1811 0 3 -1.050000 21.378414 47.329337 14.370742
1812 0 3 -1.050000 26.975546 42.541554 2.139578
1813 0 3 -1.050000 19.524149 48.832748 2.275090
1814 0 3 -1.050000 19.860378 44.412556 14.370742
1815 0 3 -1.050000 21.208153 26.872219 2.139578
1816 0 3 -1.050000 19.485519 42.055011 2.275090
1817 0 3 -1.050000 23.145402 44.556289 5.609163
1818 0 3 -1.050000 21.125169 41.400779 14.127754
1819 0 3 -1.050000 21.378414 47.329337 5.609163
1820 0 3 -1.050000 25.121282 47.157519 14.127754
1821 0 3 -1.050000 19.860378 44.412556 5.609163
1822 0 3 -1.050000 18.137743 47.739884 14.127754
1823 0 3 -1.050000 19.777394 46.309166 3.546103
1824 0 3 -1.050000 21.797626 41.204180 0.868565
1825 0 3 -1.050000 21.544382 43.536118 3.546103
1826 0 3 -1.050000 24.955313 47.838184 0.868565
1827 0 3 -1.050000 23.062418 46.452899 3.546103
1828 0 3 -1.050000 17.631254 47.255819 0.868565
1829 0 3 -1.050000 19.777394 46.309166 12.307682
1830 0 3 -1.050000 19.568503 44.632285 1.174636
1831 0 3 -1.050000 21.797626 49.464676 3.789091
1832 0 3 -1.050000 24.702069 41.324783 1.039123
1833 0 3 -1.050000 21.544382 43.536118 12.307682
1834 0 3 -1.050000 23.101049 44.193653 1.174636
1835 0 3 -1.050000 17.801514 43.707936 3.789091
1836 0 3 -1.050000 23.398647 25.511716 1.039123
1837 0 3 -1.050000 23.062418 46.452899 12.307682
1838 0 3 -1.050000 21.714642 47.472244 1.174636
1839 0 3 -1.050000 24.785053 43.125571 3.789091
1840 0 3 -1.050000 16.283478 44.680196 1.039123
1841 0 1 1.575000 21.461398 28.911736 16.259738
1842 0 1 1.575000 24.797215 28.772546 16.062895
1843 0 1 1.575000 19.914031 31.870232 16.062895
1844 0 1 1.575000 19.672948 26.092428 16.062895
1845 0 3 -1.050000 23.145402 28.035297 17.291268
1846 0 3 -1.050000 21.378414 30.808346 17.291268
1847 0 3 -1.050000 19.860378 27.891564 17.291268
1848 0 3 -1.050000 19.777394 29.788174 15.228208
1849 0 3 -1.050000 21.544382 27.015126 15.228208
1850 0 3 -1.050000 23.062418 29.931907 15.228208
1851 0 3 -1.050000 21.797626 32.943684 15.471196
1852 0 3 -1.050000 17.801514 27.186944 15.471196
1853 0 3 -1.050000 24.785053 26.604579 15.471196
1854 0 1 1.575000 14.307599 41.302480 16.259738
1855 0 1 1.575000 17.643415 41.163290 16.062895
1856 0 1 1.575000 27.067830 44.260976 16.062895
1857 0 1 1.575000 26.826747 38.483172 16.062895
1858 0 3 -1.050000 15.991603 40.426041 17.291268
1859 0 3 -1.050000 28.532213 43.199089 17.291268
1860 0 3 -1.050000 27.014177 40.282308 17.291268
1861 0 3 -1.050000 26.931193 42.178918 15.228208
1862 0 3 -1.050000 14.390583 39.405870 15.228208
1863 0 3 -1.050000 15.908619 42.322651 15.228208
1864 0 3 -1.050000 14.643827 45.334428 15.471196
1865 0 3 -1.050000 24.955313 39.577688 15.471196
1866 0 3 -1.050000 17.631254 38.995323 15.471196
1867 0 1 1.575000 17.884498 35.107108 16.259738
1868 0 1 1.575000 14.307599 28.911736 16.259738
1869 0 1 1.575000 25.038298 35.107108 16.259738
1870 0 1 1.575000 14.548682 35.246297 16.456582
1871 0 1 1.575000 26.585664 32.148611 16.456582
1872 0 1 1.575000 16.096048 31.731043 16.456582
1873 0 1 1.575000 18.125581 29.050925 16.456582
1874 0 1 1.575000 21.220315 34.967918 16.062895
1875 0 1 1.575000 15.854965 38.343983 16.456582
1876 0 1 1.575000 23.490931 38.065604 16.062895
1877 0 1 1.575000 23.249848 31.731043 16.456582
1878 0 1 1.575000 26.826747 26.092428 16.062895
1879 0 4 -0.950000 28.278969 37.270531 17.048280
1880 0 3 -1.050000 25.121282 30.636527 17.048280
1881 0 3 -1.050000 18.137743 31.218892 17.048280
1882 0 4 -0.950000 16.200494 33.842426 16.742209
1883 0 4 -0.950000 25.374526 37.149928 16.877722
1884 0 3 -1.050000 26.975546 34.281058 16.742209
1885 0 3 -1.050000 26.677948 28.181508 16.877722
1886 0 3 -1.050000 28.361953 31.002467 16.742209
1887 0 3 -1.050000 19.485519 33.794515 16.877722
1888 0 3 -1.050000 19.568503 36.371790 15.777267
1889 0 3 -1.050000 24.702069 33.064287 15.641755
1890 0 3 -1.050000 23.101049 35.933157 15.777267
1891 0 3 -1.050000 16.244847 29.641964 15.641755
1892 0 3 -1.050000 14.560843 26.821004 15.777267
1893 0 3 -1.050000 16.283478 36.419700 15.641755
1894 0 1 1.575000 25.038298 47.497851 16.259738
1895 0 1 1.575000 21.461398 41.302480 16.259738
1896 0 1 1.575000 17.884498 47.497851 16.259738
1897 0 1 1.575000 21.702481 47.637041 16.456582
1898 0 1 1.575000 19.431865 44.539355 16.456582
1899 0 1 1.575000 23.249848 44.121787 16.456582
1900 0 1 1.575000 25.279381 41.441669 16.456582
1901 0 1 1.575000 28.374114 47.358662 16.062895
1902 0 1 1.575000 23.008765 25.953239 16.456582
1903 0 1 1.575000 16.337131 25.674860 16.062895
1904 0 1 1.575000 16.096048 44.121787 16.456582
1905 0 1 1.575000 19.672948 38.483172 16.062895
1906 0 4 -0.950000 21.125169 24.879788 17.048280
1907 0 3 -1.050000 17.967482 43.027271 17.048280
1908 0 3 -1.050000 25.291542 43.609636 17.048280
1909 0 3 -1.050000 23.354293 46.233170 16.742209
1910 0 3 -1.050000 18.220727 49.540672 16.877722
1911 0 3 -1.050000 19.821747 46.671802 16.742209
1912 0 3 -1.050000 19.524149 40.572252 16.877722
1913 0 4 -0.950000 21.208153 43.393211 16.742209
1914 0 4 -0.950000 26.639318 46.185259 16.877722
1915 0 3 -1.050000 26.722302 48.762533 15.777267
1916 0 3 -1.050000 17.548270 45.455031 15.641755
1917 0 3 -1.050000 15.947249 48.323901 15.777267
1918 0 3 -1.050000 23.398647 42.032707 15.641755
1919 0 3 -1.050000 21.714642 39.211748 15.777267
1920 0 3 -1.050000 23.437277 48.810444 15.641755
1921 0 1 1.575000 28.615197 0.000000 1.657107
1922 0 2 2.100000 39.345896 22.716364 7.498159
1923 0 1 1.575000 28.615197 4.130248 7.498159
1924 0 1 1.575000 32.192097 22.716364 7.498159
1925 0 1 1.575000 28.615197 24.781488 10.418686
1926 0 1 1.575000 32.192097 2.065124 4.577633
1927 0 2 2.100000 28.615197 20.651240 4.577633
1928 0 2 2.100000 39.345896 2.065124 4.577633
1929 0 1 1.575000 31.951014 24.642298 1.460263
1930 0 1 1.575000 28.856280 18.725305 1.853950
1931 0 1 1.575000 28.856280 2.204313 4.774476
1932 0 1 1.575000 31.951014 24.642298 10.221842
1933 0 1 1.575000 41.375429 2.958497 1.460263
1934 0 1 1.575000 33.739464 3.236875 1.853950
1935 0 1 1.575000 40.893263 23.888115 4.774476
1936 0 1 1.575000 41.375429 2.958497 10.221842
1937 0 1 1.575000 41.134346 21.962180 1.460263
1938 0 1 1.575000 37.557446 2.819307 1.853950
1939 0 1 1.575000 30.403647 23.470547 4.774476
1940 0 1 1.575000 41.134346 21.962180 10.221842
1941 0 1 1.575000 32.433180 20.790429 4.774476
1942 0 1 1.575000 35.527913 1.925935 4.380790
1943 0 1 1.575000 42.681713 22.577174 7.301316
1944 0 1 1.575000 39.586979 0.139189 1.853950
1945 0 1 1.575000 30.162564 5.301999 4.774476
1946 0 1 1.575000 37.798529 5.023621 4.380790
1947 0 1 1.575000 30.644730 0.893373 7.301316
1948 0 1 1.575000 30.162564 21.822991 1.853950
1949 0 1 1.575000 37.557446 23.470547 4.774476
1950 0 1 1.575000 41.134346 17.831933 4.380790
1951 0 1 1.575000 41.134346 1.310941 7.301316
1952 0 1 1.575000 30.403647 2.819307 1.853950
1953 0 3 -1.050000 30.299202 23.905049 2.688637
1954 0 3 -1.050000 37.661892 21.451682 7.980630
1955 0 3 -1.050000 42.586567 4.228548 5.366175
1956 0 3 -1.050000 32.528325 24.759184 8.116143
1957 0 3 -1.050000 42.839812 1.896610 2.688637
1958 0 3 -1.050000 34.129346 21.890314 7.980630
1959 0 3 -1.050000 39.428880 22.376031 5.366175
1960 0 3 -1.050000 40.985547 3.400020 8.116143
1961 0 3 -1.050000 41.321776 23.761316 2.688637
1962 0 3 -1.050000 42.669551 6.220979 7.980630
1963 0 3 -1.050000 32.445341 22.958396 5.366175
1964 0 3 -1.050000 40.946916 21.403771 8.116143
1965 0 3 -1.050000 30.299202 23.905049 11.450216
1966 0 3 -1.050000 30.508093 0.800442 5.060104
1967 0 3 -1.050000 42.586567 20.749540 2.445649
1968 0 3 -1.050000 39.682125 4.107945 5.195616
1969 0 3 -1.050000 42.839812 1.896610 11.450216
1970 0 3 -1.050000 41.283145 1.239074 5.060104
1971 0 3 -1.050000 32.275081 1.724792 2.445649
1972 0 3 -1.050000 40.985547 19.921012 5.195616
1973 0 3 -1.050000 41.321776 23.761316 11.450216
1974 0 3 -1.050000 42.669551 22.741971 5.060104
1975 0 3 -1.050000 39.599141 2.307157 2.445649
1976 0 3 -1.050000 33.793117 0.752531 5.195616
1977 0 3 -1.050000 41.238791 0.876439 9.387156
1978 0 3 -1.050000 33.876101 3.329806 4.095162
1979 0 3 -1.050000 28.951426 20.552940 6.709617
1980 0 3 -1.050000 39.009668 0.022303 3.959650
1981 0 3 -1.050000 28.698181 22.884878 9.387156
1982 0 3 -1.050000 37.408647 2.891174 4.095162
1983 0 3 -1.050000 32.109113 2.405456 6.709617
1984 0 3 -1.050000 30.552446 21.381468 3.959650
1985 0 3 -1.050000 30.216218 1.020171 9.387156
1986 0 3 -1.050000 28.868442 18.560508 4.095162
1987 0 3 -1.050000 39.092652 1.823091 6.709617
1988 0 3 -1.050000 30.591077 3.377717 3.959650
1989 0 3 -1.050000 41.238791 0.876439 0.625577
1990 0 3 -1.050000 41.029901 23.981046 7.015688
1991 0 3 -1.050000 28.951426 4.031948 9.630144
1992 0 3 -1.050000 31.855868 20.673543 6.880176
1993 0 3 -1.050000 28.698181 22.884878 0.625577
1994 0 3 -1.050000 30.254848 23.542413 7.015688
1995 0 3 -1.050000 39.262912 23.056696 9.630144
1996 0 3 -1.050000 30.552446 4.860476 6.880176
1997 0 3 -1.050000 30.216218 1.020171 0.625577
1998 0 3 -1.050000 28.868442 2.039516 7.015688
1999 0 3 -1.050000 31.938852 22.474331 9.630144
2000 0 3 -1.050000 37.744876 24.028957 6.880176
2001 0 1 1.575000 35.768997 12.390744 1.657107
2002 0 2 2.100000 32.192097 10.325620 7.498159
2003 0 1 1.575000 35.768997 16.520992 7.498159
2004 0 2 2.100000 39.345896 10.325620 7.498159
2005 0 1 1.575000 35.768997 12.390744 10.418686
2006 0 1 1.575000 39.345896 14.455868 4.577633
2007 0 2 2.100000 35.768997 8.260496 4.577633
2008 0 1 1.575000 32.192097 14.455868 4.577633
2009 0 1 1.575000 39.104813 12.251555 1.460263
2010 0 1 1.575000 36.010080 6.334561 1.853950
2011 0 1 1.575000 36.010080 14.595057 4.774476
2012 0 1 1.575000 39.104813 12.251555 10.221842
2013 0 1 1.575000 34.221630 15.349240 1.460263
2014 0 1 1.575000 40.893263 15.627619 1.853950
2015 0 1 1.575000 33.739464 11.497371 4.774476
2016 0 1 1.575000 34.221630 15.349240 10.221842
2017 0 1 1.575000 33.980547 9.571437 1.460263
2018 0 1 1.575000 30.403647 15.210051 1.853950
2019 0 1 1.575000 37.557446 11.079803 4.774476
2020 0 1 1.575000 33.980547 9.571437 10.221842
2021 0 1 1.575000 39.586979 8.399685 4.774476
2022 0 1 1.575000 42.681713 14.316678 4.380790
2023 0 1 1.575000 35.527913 10.186431 7.301316
2024 0 1 1.575000 32.433180 12.529933 1.853950
2025 0 1 1.575000 37.316363 17.692743 4.774476
2026 0 1 1.575000 30.644730 17.414364 4.380790
2027 0 1 1.575000 37.798529 13.284116 7.301316
2028 0 1 1.575000 37.316363 9.432247 1.853950
2029 0 1 1.575000 30.403647 11.079803 4.774476
2030 0 2 2.100000 33.980547 5.441189 4.380790
2031 0 1 1.575000 33.980547 13.701685 7.301316
2032 0 1 1.575000 37.557446 15.210051 1.853950
2033 0 3 -1.050000 37.453001 11.514305 2.688637
2034 0 3 -1.050000 30.508093 9.060938 7.980630
2035 0 3 -1.050000 35.432768 16.619292 5.366175
2036 0 3 -1.050000 39.682125 12.368441 8.116143
2037 0 3 -1.050000 35.686012 14.287354 2.688637
2038 0 3 -1.050000 41.283145 9.499570 7.980630
2039 0 3 -1.050000 32.275081 9.985287 5.366175
2040 0 3 -1.050000 33.831748 15.790764 8.116143
2041 0 3 -1.050000 34.167976 11.370573 2.688637
2042 0 3 -1.050000 35.515752 18.611723 7.980630
2043 0 3 -1.050000 39.599141 10.567652 5.366175
2044 0 3 -1.050000 33.793117 9.013027 8.116143
2045 0 3 -1.050000 37.453001 11.514305 11.450216
2046 0 3 -1.050000 37.661892 13.191186 5.060104
2047 0 3 -1.050000 35.432768 8.358796 2.445649
2048 0 3 -1.050000 32.528325 16.498688 5.195616
2049 0 3 -1.050000 35.686012 14.287354 11.450216
2050 0 3 -1.050000 34.129346 13.629818 5.060104
2051 0 3 -1.050000 39.428880 14.115535 2.445649
2052 0 3 -1.050000 33.831748 7.530268 5.195616
2053 0 3 -1.050000 34.167976 11.370573 11.450216
2054 0 3 -1.050000 35.515752 10.351227 5.060104
2055 0 3 -1.050000 32.445341 14.697900 2.445649
2056 0 3 -1.050000 40.946916 13.143275 5.195616
2057 0 3 -1.050000 34.084992 13.267182 9.387156
2058 0 3 -1.050000 41.029901 15.720550 4.095162
2059 0 3 -1.050000 36.105225 8.162196 6.709617
2060 0 3 -1.050000 31.855868 12.413047 3.959650
2061 0 3 -1.050000 35.851981 10.494134 9.387156
2062 0 3 -1.050000 30.254848 15.281917 4.095162
2063 0 3 -1.050000 39.262912 14.796200 6.709617
2064 0 3 -1.050000 37.706245 8.990724 3.959650
2065 0 3 -1.050000 37.370017 13.410915 9.387156
2066 0 3 -1.050000 36.022241 6.169764 4.095162
2067 0 3 -1.050000 31.938852 14.213835 6.709617
2068 0 3 -1.050000 37.744876 15.768461 3.959650
2069 0 3 -1.050000 34.084992 13.267182 0.625577
2070 0 3 -1.050000 33.876101 11.590302 7.015688
2071 0 3 -1.050000 36.105225 16.422692 9.630144
2072 0 3 -1.050000 39.009668 8.282799 6.880176
2073 0 3 -1.050000 35.851981 10.494134 0.625577
2074 0 3 -1.050000 37.408647 11.151669 7.015688
2075 0 3 -1.050000 32.109113 10.665952 9.630144
2076 0 3 -1.050000 37.706245 17.251220 6.880176
2077 0 3 -1.050000 37.370017 13.410915 0.625577
2078 0 3 -1.050000 36.022241 14.430260 7.015688
2079 0 3 -1.050000 39.092652 10.083587 9.630144
2080 0 3 -1.050000 30.591077 11.638213 6.880176
2081 0 2 2.100000 35.768997 4.130248 7.498159
2082 0 1 1.575000 32.192097 2.065124 13.339212
2083 0 2 2.100000 35.768997 8.260496 13.339212
2084 0 1 1.575000 39.345896 2.065124 13.339212
2085 0 1 1.575000 39.345896 6.195372 10.418686
2086 0 2 2.100000 35.768997 24.781488 10.418686
2087 0 1 1.575000 32.192097 6.195372 10.418686
2088 0 1 1.575000 39.104813 3.991059 7.301316
2089 0 1 1.575000 36.010080 22.855553 7.695003
2090 0 1 1.575000 36.010080 6.334561 10.615529
2091 0 1 1.575000 34.221630 7.088745 7.301316
2092 0 1 1.575000 40.893263 7.367123 7.695003
2093 0 1 1.575000 33.739464 3.236875 10.615529
2094 0 1 1.575000 33.980547 1.310941 7.301316
2095 0 1 1.575000 30.403647 6.949555 7.695003
2096 0 1 1.575000 37.557446 2.819307 10.615529
2097 0 1 1.575000 39.586979 0.139189 10.615529
2098 0 1 1.575000 42.681713 6.056183 10.221842
2099 0 1 1.575000 35.527913 1.925935 13.142369
2100 0 1 1.575000 32.433180 4.269437 7.695003
2101 0 2 2.100000 37.316363 9.432247 10.615529
2102 0 2 2.100000 30.644730 9.153869 10.221842
2103 0 1 1.575000 37.798529 5.023621 13.142369
2104 0 1 1.575000 37.316363 1.171751 7.695003
2105 0 1 1.575000 30.403647 2.819307 10.615529
2106 0 1 1.575000 33.980547 21.962180 10.221842
2107 0 1 1.575000 33.980547 5.441189 13.142369
2108 0 1 1.575000 37.557446 6.949555 7.695003
2109 0 3 -1.050000 37.453001 3.253809 8.529689
2110 0 3 -1.050000 30.508093 0.800442 13.821683
2111 0 3 -1.050000 35.432768 8.358796 11.207228
2112 0 3 -1.050000 39.682125 4.107945 13.957195
2113 0 3 -1.050000 35.686012 6.026858 8.529689
2114 0 3 -1.050000 41.283145 1.239074 13.821683
2115 0 3 -1.050000 32.275081 1.724792 11.207228
2116 0 3 -1.050000 33.831748 7.530268 13.957195
2117 0 3 -1.050000 34.167976 3.110077 8.529689
2118 0 3 -1.050000 35.515752 10.351227 13.821683
2119 0 3 -1.050000 39.599141 2.307157 11.207228
2120 0 3 -1.050000 33.793117 0.752531 13.957195
2121 0 3 -1.050000 37.661892 4.930690 10.901157
2122 0 3 -1.050000 35.432768 0.098300 8.286701
2123 0 3 -1.050000 32.528325 8.238193 11.036669
2124 0 3 -1.050000 34.129346 5.369322 10.901157
2125 0 3 -1.050000 39.428880 5.855040 8.286701
2126 0 3 -1.050000 33.831748 24.051260 11.036669
2127 0 3 -1.050000 35.515752 2.090732 10.901157
2128 0 3 -1.050000 32.445341 6.437404 8.286701
2129 0 3 -1.050000 40.946916 4.882779 11.036669
2130 0 3 -1.050000 41.029901 7.460054 9.936215
2131 0 3 -1.050000 36.105225 24.683188 12.550670
2132 0 3 -1.050000 31.855868 4.152551 9.800702
2133 0 3 -1.050000 30.254848 7.021422 9.936215
2134 0 3 -1.050000 39.262912 6.535704 12.550670
2135 0 3 -1.050000 37.706245 0.730228 9.800702
2136 0 3 -1.050000 36.022241 22.690756 9.936215
2137 0 3 -1.050000 31.938852 5.953339 12.550670
2138 0 3 -1.050000 37.744876 7.507965 9.800702
2139 0 3 -1.050000 34.084992 5.006687 6.466629
2140 0 3 -1.050000 33.876101 3.329806 12.856741
2141 0 3 -1.050000 39.009668 0.022303 12.721229
2142 0 3 -1.050000 35.851981 2.233638 6.466629
2143 0 3 -1.050000 37.408647 2.891174 12.856741
2144 0 3 -1.050000 37.706245 8.990724 12.721229
2145 0 3 -1.050000 37.370017 5.150419 6.466629
2146 0 3 -1.050000 36.022241 6.169764 12.856741
2147 0 3 -1.050000 30.591077 3.377717 12.721229
2148 0 1 1.575000 28.615197 16.520992 7.498159
2149 0 1 1.575000 39.345896 14.455868 13.339212
2150 0 1 1.575000 28.615197 20.651240 13.339212
2151 0 1 1.575000 32.192097 14.455868 13.339212
2152 0 1 1.575000 32.192097 18.586116 10.418686
2153 0 1 1.575000 28.615197 12.390744 10.418686
2154 0 2 2.100000 39.345896 18.586116 10.418686
2155 0 1 1.575000 31.951014 16.381802 7.301316
2156 0 1 1.575000 28.856280 10.464809 7.695003
2157 0 1 1.575000 28.856280 18.725305 10.615529
2158 0 2 2.100000 41.375429 19.479488 7.301316
2159 0 1 1.575000 33.739464 19.757867 7.695003
2160 0 1 1.575000 40.893263 15.627619 10.615529
2161 0 1 1.575000 41.134346 13.701685 7.301316
2162 0 1 1.575000 37.557446 19.340299 7.695003
2163 0 1 1.575000 30.403647 15.210051 10.615529
2164 0 2 2.100000 32.433180 12.529933 10.615529
2165 0 2 2.100000 35.527913 18.446926 10.221842
2166 0 1 1.575000 42.681713 14.316678 13.142369
2167 0 1 1.575000 39.586979 16.660181 7.695003
2168 0 1 1.575000 30.162564 21.822991 10.615529
2169 0 1 1.575000 37.798529 21.544612 10.221842
2170 0 1 1.575000 30.644730 17.414364 13.142369
2171 0 1 1.575000 30.162564 13.562495 7.695003
2172 0 1 1.575000 37.557446 15.210051 10.615529
2173 0 1 1.575000 41.134346 9.571437 10.221842
2174 0 1 1.575000 41.134346 17.831933 13.142369
2175 0 1 1.575000 30.403647 19.340299 7.695003
2176 0 3 -1.050000 30.299202 15.644553 8.529689
2177 0 3 -1.050000 37.661892 13.191186 13.821683
2178 0 3 -1.050000 42.586567 20.749540 11.207228
2179 0 3 -1.050000 32.528325 16.498688 13.957195
2180 0 3 -1.050000 42.839812 18.417602 8.529689
2181 0 3 -1.050000 34.129346 13.629818 13.821683
2182 0 3 -1.050000 39.428880 14.115535 11.207228
2183 0 3 -1.050000 40.985547 19.921012 13.957195
2184 0 3 -1.050000 41.321776 15.500821 8.529689
2185 0 3 -1.050000 42.669551 22.741971 13.821683
2186 0 3 -1.050000 32.445341 14.697900 11.207228
2187 0 3 -1.050000 40.946916 13.143275 13.957195
2188 0 3 -1.050000 30.508093 17.321434 10.901157
2189 0 3 -1.050000 42.586567 12.489044 8.286701
2190 0 3 -1.050000 39.682125 20.628936 11.036669
2191 0 3 -1.050000 41.283145 17.760066 10.901157
2192 0 3 -1.050000 32.275081 18.245783 8.286701
2193 0 3 -1.050000 40.985547 11.660516 11.036669
2194 0 3 -1.050000 42.669551 14.481475 10.901157
2195 0 3 -1.050000 39.599141 18.828148 8.286701
2196 0 3 -1.050000 33.793117 17.273523 11.036669
2197 0 3 -1.050000 33.876101 19.850798 9.936215
2198 0 3 -1.050000 28.951426 12.292444 12.550670
2199 0 3 -1.050000 39.009668 16.543295 9.800702
2200 0 3 -1.050000 37.408647 19.412165 9.936215
2201 0 3 -1.050000 32.109113 18.926448 12.550670
2202 0 3 -1.050000 30.552446 13.120972 9.800702
2203 0 3 -1.050000 28.868442 10.300012 9.936215
2204 0 3 -1.050000 39.092652 18.344083 12.550670
2205 0 3 -1.050000 30.591077 19.898709 9.800702
2206 0 3 -1.050000 41.238791 17.397430 6.466629
2207 0 3 -1.050000 41.029901 15.720550 12.856741
2208 0 3 -1.050000 31.855868 12.413047 12.721229
2209 0 3 -1.050000 28.698181 14.624382 6.466629
2210 0 3 -1.050000 30.254848 15.281917 12.856741
2211 0 3 -1.050000 30.552446 21.381468 12.721229
2212 0 3 -1.050000 30.216218 17.541163 6.466629
2213 0 3 -1.050000 28.868442 18.560508 12.856741
2214 0 3 -1.050000 37.744876 15.768461 12.721229
2215 0 2 2.100000 28.615197 8.260496 13.339212
2216 0 1 1.575000 39.345896 6.195372 1.657107
2217 0 1 1.575000 28.615197 12.390744 1.657107
2218 0 1 1.575000 32.192097 6.195372 1.657107
2219 0 1 1.575000 28.615197 8.260496 4.577633
2220 0 1 1.575000 31.951014 8.121307 13.142369
2221 0 1 1.575000 28.856280 2.204313 13.536055
2222 0 2 2.100000 31.951014 8.121307 4.380790
2223 0 1 1.575000 41.375429 11.218993 13.142369
2224 0 2 2.100000 33.739464 11.497371 13.536055
2225 0 1 1.575000 41.375429 11.218993 4.380790
2226 0 1 1.575000 41.134346 5.441189 13.142369
2227 0 1 1.575000 37.557446 11.079803 13.536055
2228 0 1 1.575000 41.134346 5.441189 4.380790
2229 0 1 1.575000 42.681713 6.056183 1.460263
2230 0 1 1.575000 39.586979 8.399685 13.536055
2231 0 1 1.575000 30.644730 9.153869 1.460263
2232 0 1 1.575000 30.162564 5.301999 13.536055
2233 0 1 1.575000 41.134346 9.571437 1.460263
2234 0 1 1.575000 30.403647 11.079803 13.536055
2235 0 3 -1.050000 30.299202 7.384057 14.370742
2236 0 3 -1.050000 37.661892 4.930690 2.139578
2237 0 3 -1.050000 32.528325 8.238193 2.275090
2238 0 3 -1.050000 42.839812 10.157106 14.370742
2239 0 3 -1.050000 34.129346 5.369322 2.139578
2240 0 3 -1.050000 40.985547 11.660516 2.275090
2241 0 3 -1.050000 41.321776 7.240325 14.370742
2242 0 3 -1.050000 42.669551 14.481475 2.139578
2243 0 3 -1.050000 40.946916 4.882779 2.275090
2244 0 3 -1.050000 30.299202 7.384057 5.609163
2245 0 3 -1.050000 42.586567 4.228548 14.127754
2246 0 3 -1.050000 42.839812 10.157106 5.609163
2247 0 3 -1.050000 32.275081 9.985287 14.127754
2248 0 3 -1.050000 41.321776 7.240325 5.609163
2249 0 3 -1.050000 39.599141 10.567652 14.127754
2250 0 3 -1.050000 41.238791 9.136935 3.546103
2251 0 3 -1.050000 28.951426 4.031948 0.868565
2252 0 3 -1.050000 28.698181 6.363886 3.546103
2253 0 3 -1.050000 32.109113 10.665952 0.868565
2254 0 3 -1.050000 30.216218 9.280667 3.546103
2255 0 3 -1.050000 39.092652 10.083587 0.868565
2256 0 3 -1.050000 41.238791 9.136935 12.307682
2257 0 3 -1.050000 41.029901 7.460054 1.174636
2258 0 3 -1.050000 28.951426 12.292444 3.789091
2259 0 3 -1.050000 31.855868 4.152551 1.039123
2260 0 3 -1.050000 28.698181 6.363886 12.307682
2261 0 3 -1.050000 30.254848 7.021422 1.174636
2262 0 3 -1.050000 39.262912 6.535704 3.789091
2263 0 3 -1.050000 30.552446 13.120972 1.039123
2264 0 3 -1.050000 30.216218 9.280667 12.307682
2265 0 3 -1.050000 28.868442 10.300012 1.174636
2266 0 3 -1.050000 31.938852 5.953339 3.789091
2267 0 3 -1.050000 37.744876 7.507965 1.039123
2268 0 1 1.575000 35.768997 20.651240 13.339212
2269 0 1 1.575000 32.192097 18.586116 1.657107
2270 0 1 1.575000 35.768997 24.781488 1.657107
2271 0 1 1.575000 39.345896 18.586116 1.657107
2272 0 1 1.575000 35.768997 20.651240 4.577633
2273 0 1 1.575000 39.104813 20.512050 13.142369
2274 0 1 1.575000 36.010080 14.595057 13.536055
2275 0 1 1.575000 39.104813 20.512050 4.380790
2276 0 1 1.575000 34.221630 23.609736 13.142369
2277 0 1 1.575000 40.893263 23.888115 13.536055
2278 0 1 1.575000 34.221630 23.609736 4.380790
2279 0 1 1.575000 33.980547 17.831933 13.142369
2280 0 2 2.100000 30.403647 23.470547 13.536055
2281 0 1 1.575000 33.980547 17.831933 4.380790
2282 0 1 1.575000 35.527913 18.446926 1.460263
2283 0 1 1.575000 32.433180 20.790429 13.536055
2284 0 1 1.575000 37.798529 21.544612 1.460263
2285 0 1 1.575000 37.316363 17.692743 13.536055
2286 0 1 1.575000 33.980547 21.962180 1.460263
2287 0 1 1.575000 37.557446 23.470547 13.536055
2288 0 3 -1.050000 37.453001 19.774801 14.370742
2289 0 3 -1.050000 30.508093 17.321434 2.139578
2290 0 3 -1.050000 39.682125 20.628936 2.275090
2291 0 3 -1.050000 35.686012 22.547850 14.370742
2292 0 3 -1.050000 41.283145 17.760066 2.139578
2293 0 3 -1.050000 33.831748 24.051260 2.275090
2294 0 3 -1.050000 34.167976 19.631069 14.370742
2295 0 3 -1.050000 35.515752 2.090732 2.139578
2296 0 3 -1.050000 33.793117 17.273523 2.275090
2297 0 3 -1.050000 37.453001 19.774801 5.609163
2298 0 3 -1.050000 35.432768 16.619292 14.127754
2299 0 3 -1.050000 35.686012 22.547850 5.609163
2300 0 3 -1.050000 39.428880 22.376031 14.127754
2301 0 3 -1.050000 34.167976 19.631069 5.609163
2302 0 3 -1.050000 32.445341 22.958396 14.127754
2303 0 3 -1.050000 34.084992 21.527678 3.546103
2304 0 3 -1.050000 36.105225 16.422692 0.868565
2305 0 3 -1.050000 35.851981 18.754630 3.546103
2306 0 3 -1.050000 39.262912 23.056696 0.868565
2307 0 3 -1.050000 37.370017 21.671411 3.546103
2308 0 3 -1.050000 31.938852 22.474331 0.868565
2309 0 3 -1.050000 34.084992 21.527678 12.307682
2310 0 3 -1.050000 33.876101 19.850798 1.174636
2311 0 3 -1.050000 36.105225 24.683188 3.789091
2312 0 3 -1.050000 39.009668 16.543295 1.039123
2313 0 3 -1.050000 35.851981 18.754630 12.307682
2314 0 3 -1.050000 37.408647 19.412165 1.174636
2315 0 3 -1.050000 32.109113 18.926448 3.789091
2316 0 3 -1.050000 37.706245 0.730228 1.039123
2317 0 3 -1.050000 37.370017 21.671411 12.307682
2318 0 3 -1.050000 36.022241 22.690756 1.174636
2319 0 3 -1.050000 39.092652 18.344083 3.789091
2320 0 3 -1.050000 30.591077 19.898709 1.039123
2321 0 1 1.575000 35.768997 4.130248 16.259738
2322 0 1 1.575000 39.104813 3.991059 16.062895
2323 0 1 1.575000 34.221630 7.088745 16.062895
2324 0 1 1.575000 33.980547 1.310941 16.062895
2325 0 3 -1.050000 37.453001 3.253809 17.291268
2326 0 3 -1.050000 35.686012 6.026858 17.291268
2327 0 3 -1.050000 34.167976 3.110077 17.291268
2328 0 3 -1.050000 34.084992 5.006687 15.228208
2329 0 3 -1.050000 35.851981 2.233638 15.228208
2330 0 3 -1.050000 37.370017 5.150419 15.228208
2331 0 3 -1.050000 36.105225 8.162196 15.471196
2332 0 3 -1.050000 32.109113 2.405456 15.471196
2333 0 3 -1.050000 39.092652 1.823091 15.471196
2334 0 1 1.575000 28.615197 16.520992 16.259738
2335 0 1 1.575000 31.951014 16.381802 16.062895
2336 0 1 1.575000 41.375429 19.479488 16.062895
2337 0 1 1.575000 41.134346 13.701685 16.062895
2338 0 3 -1.050000 30.299202 15.644553 17.291268
2339 0 3 -1.050000 42.839812 18.417602 17.291268
2340 0 3 -1.050000 41.321776 15.500821 17.291268
2341 0 3 -1.050000 41.238791 17.397430 15.228208
2342 0 3 -1.050000 28.698181 14.624382 15.228208
2343 0 3 -1.050000 30.216218 17.541163 15.228208
2344 0 3 -1.050000 28.951426 20.552940 15.471196
2345 0 3 -1.050000 39.262912 14.796200 15.471196
2346 0 3 -1.050000 31.938852 14.213835 15.471196
2347 0 1 1.575000 32.192097 10.325620 16.259738
2348 0 1 1.575000 28.615197 4.130248 16.259738
2349 0 1 1.575000 39.345896 10.325620 16.259738
2350 0 1 1.575000 28.856280 10.464809 16.456582
2351 0 1 1.575000 40.893263 7.367123 16.456582
2352 0 1 1.575000 30.403647 6.949555 16.456582
2353 0 1 1.575000 32.433180 4.269437 16.456582
2354 0 1 1.575000 35.527913 10.186431 16.062895
2355 0 1 1.575000 30.162564 13.562495 16.456582
2356 0 1 1.575000 37.798529 13.284116 16.062895
2357 0 1 1.575000 37.557446 6.949555 16.456582
2358 0 1 1.575000 41.134346 1.310941 16.062895
2359 0 4 -0.950000 42.586567 12.489044 17.048280
2360 0 3 -1.050000 39.428880 5.855040 17.048280
2361 0 3 -1.050000 32.445341 6.437404 17.048280
2362 0 4 -0.950000 30.508093 9.060938 16.742209
2363 0 4 -0.950000 39.682125 12.368441 16.877722
2364 0 3 -1.050000 41.283145 9.499570 16.742209
2365 0 3 -1.050000 40.985547 3.400020 16.877722
2366 0 3 -1.050000 42.669551 6.220979 16.742209
2367 0 3 -1.050000 33.793117 9.013027 16.877722
2368 0 3 -1.050000 33.876101 11.590302 15.777267
2369 0 3 -1.050000 39.009668 8.282799 15.641755
2370 0 3 -1.050000 37.408647 11.151669 15.777267
2371 0 3 -1.050000 30.552446 4.860476 15.641755
2372 0 3 -1.050000 28.868442 2.039516 15.777267
2373 0 3 -1.050000 30.591077 11.638213 15.641755
2374 0 1 1.575000 39.345896 22.716364 16.259738
2375 0 1 1.575000 35.768997 16.520992 16.259738
2376 0 1 1.575000 32.192097 22.716364 16.259738
2377 0 1 1.575000 36.010080 22.855553 16.456582
2378 0 1 1.575000 33.739464 19.757867 16.456582
2379 0 1 1.575000 37.557446 19.340299 16.456582
2380 0 1 1.575000 39.586979 16.660181 16.456582
2381 0 1 1.575000 42.681713 22.577174 16.062895
2382 0 1 1.575000 37.316363 1.171751 16.456582
2383 0 1 1.575000 30.644730 0.893373 16.062895
2384 0 1 1.575000 30.403647 19.340299 16.456582
2385 0 1 1.575000 33.980547 13.701685 16.062895
2386 0 4 -0.950000 35.432768 0.098300 17.048280
2387 0 3 -1.050000 32.275081 18.245783 17.048280
2388 0 3 -1.050000 39.599141 18.828148 17.048280
2389 0 3 -1.050000 37.661892 21.451682 16.742209
2390 0 3 -1.050000 32.528325 24.759184 16.877722
2391 0 3 -1.050000 34.129346 21.890314 16.742209
2392 0 3 -1.050000 33.831748 15.790764 16.877722
2393 0 4 -0.950000 35.515752 18.611723 16.742209
2394 0 4 -0.950000 40.946916 21.403771 16.877722
2395 0 3 -1.050000 41.029901 23.981046 15.777267
2396 0 3 -1.050000 31.855868 20.673543 15.641755
2397 0 3 -1.050000 30.254848 23.542413 15.777267
2398 0 3 -1.050000 37.706245 17.251220 15.641755
2399 0 3 -1.050000 36.022241 14.430260 15.777267
2400 0 3 -1.050000 37.744876 24.028957 15.641755
2401 0 1 1.575000 28.615197 24.781488 1.657107
2402 0 1 1.575000 39.345896 47.497851 7.498159
2403 0 2 2.100000 28.615197 28.911736 7.498159
2404 0 1 1.575000 32.192097 47.497851 7.498159
2405 0 1 1.575000 28.615197 49.562975 10.418686
2406 0 1 1.575000 32.192097 26.846612 4.577633
2407 0 1 1.575000 28.615197 45.432728 4.577633
2408 0 1 1.575000 39.345896 26.846612 4.577633
2409 0 1 1.575000 31.951014 49.423786 1.460263
2410 0 1 1.575000 28.856280 43.506793 1.853950
2411 0 2 2.100000 28.856280 26.985801 4.774476
2412 0 2 2.100000 31.951014 49.423786 10.221842
2413 0 1 1.575000 41.375429 27.739984 1.460263
2414 0 1 1.575000 33.739464 28.018363 1.853950
2415 0 1 1.575000 40.893263 48.669603 4.774476
2416 0 2 2.100000 41.375429 27.739984 10.221842
2417 0 2 2.100000 41.134346 46.743668 1.460263
2418 0 1 1.575000 37.557446 27.600795 1.853950
2419 0 1 1.575000 30.403647 48.252035 4.774476
2420 0 1 1.575000 41.134346 46.743668 10.221842
2421 0 1 1.575000 32.433180 45.571917 4.774476
2422 0 1 1.575000 35.527913 26.707422 4.380790
2423 0 1 1.575000 42.681713 47.358662 7.301316
2424 0 1 1.575000 39.586979 24.920677 1.853950
2425 0 1 1.575000 30.162564 30.083487 4.774476
2426 0 1 1.575000 37.798529 29.805108 4.380790
2427 0 1 1.575000 30.644730 25.674860 7.301316
2428 0 1 1.575000 30.162564 46.604479 1.853950
2429 0 1 1.575000 37.557446 48.252035 4.774476
2430 0 2 2.100000 41.134346 42.613420 4.380790
2431 0 1 1.575000 41.134346 26.092428 7.301316
2432 0 1 1.575000 30.403647 27.600795 1.853950
2433 0 3 -1.050000 30.299202 48.686537 2.688637
2434 0 3 -1.050000 37.661892 46.233170 7.980630
2435 0 3 -1.050000 42.586567 29.010036 5.366175
2436 0 3 -1.050000 32.528325 49.540672 8.116143
2437 0 3 -1.050000 42.839812 26.678098 2.688637
2438 0 3 -1.050000 34.129346 46.671802 7.980630
2439 0 3 -1.050000 39.428880 47.157519 5.366175
2440 0 3 -1.050000 40.985547 28.181508 8.116143
2441 0 3 -1.050000 41.321776 48.542804 2.688637
2442 0 3 -1.050000 42.669551 31.002467 7.980630
2443 0 3 -1.050000 32.445341 47.739884 5.366175
2444 0 3 -1.050000 40.946916 46.185259 8.116143
2445 0 3 -1.050000 30.299202 48.686537 11.450216
2446 0 3 -1.050000 30.508093 25.581930 5.060104
2447 0 3 -1.050000 42.586567 45.531027 2.445649
2448 0 3 -1.050000 39.682125 28.889432 5.195616
2449 0 3 -1.050000 42.839812 26.678098 11.450216
2450 0 3 -1.050000 41.283145 26.020562 5.060104
2451 0 3 -1.050000 32.275081 26.506279 2.445649
2452 0 3 -1.050000 40.985547 44.702500 5.195616
2453 0 3 -1.050000 41.321776 48.542804 11.450216
2454 0 3 -1.050000 42.669551 47.523459 5.060104
2455 0 3 -1.050000 39.599141 27.088644 2.445649
2456 0 3 -1.050000 33.793117 25.534019 5.195616
2457 0 3 -1.050000 41.238791 25.657926 9.387156
2458 0 3 -1.050000 33.876101 28.111294 4.095162
2459 0 3 -1.050000 28.951426 45.334428 6.709617
2460 0 3 -1.050000 39.009668 24.803791 3.959650
2461 0 3 -1.050000 28.698181 47.666366 9.387156
2462 0 3 -1.050000 37.408647 27.672661 4.095162
2463 0 3 -1.050000 32.109113 27.186944 6.709617
2464 0 3 -1.050000 30.552446 46.162955 3.959650
2465 0 3 -1.050000 30.216218 25.801659 9.387156
2466 0 3 -1.050000 28.868442 43.341996 4.095162
2467 0 3 -1.050000 39.092652 26.604579 6.709617
2468 0 3 -1.050000 30.591077 28.159205 3.959650
2469 0 3 -1.050000 41.238791 25.657926 0.625577
2470 0 3 -1.050000 41.029901 48.762533 7.015688
2471 0 3 -1.050000 28.951426 28.813436 9.630144
2472 0 3 -1.050000 31.855868 45.455031 6.880176
2473 0 3 -1.050000 28.698181 47.666366 0.625577
2474 0 3 -1.050000 30.254848 48.323901 7.015688
2475 0 3 -1.050000 39.262912 47.838184 9.630144
2476 0 3 -1.050000 30.552446 29.641964 6.880176
2477 0 3 -1.050000 30.216218 25.801659 0.625577
2478 0 3 -1.050000 28.868442 26.821004 7.015688
2479 0 3 -1.050000 31.938852 47.255819 9.630144
2480 0 3 -1.050000 37.744876 48.810444 6.880176
2481 0 1 1.575000 35.768997 37.172232 1.657107
2482 0 1 1.575000 32.192097 35.107108 7.498159
2483 0 1 1.575000 35.768997 41.302480 7.498159
2484 0 1 1.575000 39.345896 35.107108 7.498159
2485 0 1 1.575000 35.768997 37.172232 10.418686
2486 0 2 2.100000 39.345896 39.237356 4.577633
2487 0 2 2.100000 35.768997 33.041984 4.577633
2488 0 1 1.575000 32.192097 39.237356 4.577633
2489 0 1 1.575000 39.104813 37.033042 1.460263
2490 0 1 1.575000 36.010080 31.116049 1.853950
2491 0 1 1.575000 36.010080 39.376545 4.774476
2492 0 1 1.575000 39.104813 37.033042 10.221842
2493 0 1 1.575000 34.221630 40.130728 1.460263
2494 0 1 1.575000 40.893263 40.409107 1.853950
2495 0 1 1.575000 33.739464 36.278859 4.774476
2496 0 1 1.575000 34.221630 40.130728 10.221842
2497 0 1 1.575000 33.980547 34.352924 1.460263
2498 0 1 1.575000 30.403647 39.991539 1.853950
2499 0 1 1.575000 37.557446 35.861291 4.774476
2500 0 1 1.575000 33.980547 34.352924 10.221842
2501 0 2 2.100000 39.586979 33.181173 4.774476
2502 0 1 1.575000 42.681713 39.098166 4.380790
2503 0 1 1.575000 35.527913 34.967918 7.301316
2504 0 1 1.575000 32.433180 37.311421 1.853950
2505 0 1 1.575000 37.316363 42.474231 4.774476
2506 0 1 1.575000 30.644730 42.195852 4.380790
2507 0 1 1.575000 37.798529 38.065604 7.301316
2508 0 1 1.575000 37.316363 34.213735 1.853950
2509 0 1 1.575000 30.403647 35.861291 4.774476
2510 0 1 1.575000 33.980547 30.222676 4.380790
2511 0 1 1.575000 33.980547 38.483172 7.301316
2512 0 1 1.575000 37.557446 39.991539 1.853950
2513 0 3 -1.050000 37.453001 36.295793 2.688637
2514 0 3 -1.050000 30.508093 33.842426 7.980630
2515 0 3 -1.050000 35.432768 41.400779 5.366175
2516 0 3 -1.050000 39.682125 37.149928 8.116143
2517 0 3 -1.050000 35.686012 39.068841 2.688637
2518 0 3 -1.050000 41.283145 34.281058 7.980630
2519 0 3 -1.050000 32.275081 34.766775 5.366175
2520 0 3 -1.050000 33.831748 40.572252 8.116143
2521 0 3 -1.050000 34.167976 36.152060 2.688637
2522 0 3 -1.050000 35.515752 43.393211 7.980630
2523 0 3 -1.050000 39.599141 35.349140 5.366175
2524 0 3 -1.050000 33.793117 33.794515 8.116143
2525 0 3 -1.050000 37.453001 36.295793 11.450216
2526 0 3 -1.050000 37.661892 37.972674 5.060104
2527 0 3 -1.050000 35.432768 33.140284 2.445649
2528 0 3 -1.050000 32.528325 41.280176 5.195616
2529 0 3 -1.050000 35.686012 39.068841 11.450216
2530 0 3 -1.050000 34.129346 38.411306 5.060104
2531 0 3 -1.050000 39.428880 38.897023 2.445649
2532 0 3 -1.050000 33.831748 32.311756 5.195616
2533 0 3 -1.050000 34.167976 36.152060 11.450216
2534 0 3 -1.050000 35.515752 35.132715 5.060104
2535 0 3 -1.050000 32.445341 39.479388 2.445649
2536 0 3 -1.050000 40.946916 37.924763 5.195616
2537 0 3 -1.050000 34.084992 38.048670 9.387156
2538 0 3 -1.050000 41.029901 40.502037 4.095162
2539 0 3 -1.050000 36.105225 32.943684 6.709617
2540 0 3 -1.050000 31.855868 37.194535 3.959650
2541 0 3 -1.050000 35.851981 35.275622 9.387156
2542 0 3 -1.050000 30.254848 40.063405 4.095162
2543 0 3 -1.050000 39.262912 39.577688 6.709617
2544 0 3 -1.050000 37.706245 33.772211 3.959650
2545 0 3 -1.050000 37.370017 38.192403 9.387156
2546 0 3 -1.050000 36.022241 30.951252 4.095162
2547 0 3 -1.050000 31.938852 38.995323 6.709617
2548 0 3 -1.050000 37.744876 40.549948 3.959650
2549 0 3 -1.050000 34.084992 38.048670 0.625577
2550 0 3 -1.050000 33.876101 36.371790 7.015688
2551 0 3 -1.050000 36.105225 41.204180 9.630144
2552 0 3 -1.050000 39.009668 33.064287 6.880176
2553 0 3 -1.050000 35.851981 35.275622 0.625577
2554 0 3 -1.050000 37.408647 35.933157 7.015688
2555 0 3 -1.050000 32.109113 35.447440 9.630144
2556 0 3 -1.050000 37.706245 42.032707 6.880176
2557 0 3 -1.050000 37.370017 38.192403 0.625577
2558 0 3 -1.050000 36.022241 39.211748 7.015688
2559 0 3 -1.050000 39.092652 34.865075 9.630144
2560 0 3 -1.050000 30.591077 36.419700 6.880176
2561 0 1 1.575000 35.768997 28.911736 7.498159
2562 0 2 2.100000 32.192097 26.846612 13.339212
2563 0 2 2.100000 35.768997 33.041984 13.339212
2564 0 2 2.100000 39.345896 26.846612 13.339212
2565 0 1 1.575000 39.345896 30.976860 10.418686
2566 0 2 2.100000 35.768997 0.000000 10.418686
2567 0 1 1.575000 32.192097 30.976860 10.418686
2568 0 1 1.575000 39.104813 28.772546 7.301316
2569 0 1 1.575000 36.010080 47.637041 7.695003
2570 0 1 1.575000 36.010080 31.116049 10.615529
2571 0 1 1.575000 34.221630 31.870232 7.301316
2572 0 1 1.575000 40.893263 32.148611 7.695003
2573 0 1 1.575000 33.739464 28.018363 10.615529
2574 0 1 1.575000 33.980547 26.092428 7.301316
2575 0 1 1.575000 30.403647 31.731043 7.695003
2576 0 1 1.575000 37.557446 27.600795 10.615529
2577 0 2 2.100000 39.586979 24.920677 10.615529
2578 0 1 1.575000 42.681713 30.837670 10.221842
2579 0 1 1.575000 35.527913 26.707422 13.142369
2580 0 1 1.575000 32.433180 29.050925 7.695003
2581 0 1 1.575000 37.316363 34.213735 10.615529
2582 0 1 1.575000 30.644730 33.935356 10.221842
2583 0 1 1.575000 37.798529 29.805108 13.142369
2584 0 1 1.575000 37.316363 25.953239 7.695003
2585 0 2 2.100000 30.403647 27.600795 10.615529
2586 0 2 2.100000 33.980547 46.743668 10.221842
2587 0 1 1.575000 33.980547 30.222676 13.142369
2588 0 1 1.575000 37.557446 31.731043 7.695003
2589 0 3 -1.050000 37.453001 28.035297 8.529689
2590 0 3 -1.050000 30.508093 25.581930 13.821683
2591 0 3 -1.050000 35.432768 33.140284 11.207228
2592 0 3 -1.050000 39.682125 28.889432 13.957195
2593 0 3 -1.050000 35.686012 30.808346 8.529689
2594 0 3 -1.050000 41.283145 26.020562 13.821683
2595 0 3 -1.050000 32.275081 26.506279 11.207228
2596 0 3 -1.050000 33.831748 32.311756 13.957195
2597 0 3 -1.050000 34.167976 27.891564 8.529689
2598 0 3 -1.050000 35.515752 35.132715 13.821683
2599 0 3 -1.050000 39.599141 27.088644 11.207228
2600 0 3 -1.050000 33.793117 25.534019 13.957195
2601 0 3 -1.050000 37.661892 29.712178 10.901157
2602 0 3 -1.050000 35.432768 24.879788 8.286701
2603 0 3 -1.050000 32.528325 33.019680 11.036669
2604 0 3 -1.050000 34.129346 30.150810 10.901157
2605 0 3 -1.050000 39.428880 30.636527 8.286701
2606 0 3 -1.050000 33.831748 48.832748 11.036669
2607 0 3 -1.050000 35.515752 26.872219 10.901157
2608 0 3 -1.050000 32.445341 31.218892 8.286701
2609 0 3 -1.050000 40.946916 29.664267 11.036669
2610 0 3 -1.050000 41.029901 32.241542 9.936215
2611 0 3 -1.050000 36.105225 49.464676 12.550670
2612 0 3 -1.050000 31.855868 28.934039 9.800702
2613 0 3 -1.050000 30.254848 31.802909 9.936215
2614 0 3 -1.050000 39.262912 31.317192 12.550670
2615 0 3 -1.050000 37.706245 25.511716 9.800702
2616 0 3 -1.050000 36.022241 47.472244 9.936215
2617 0 3 -1.050000 31.938852 30.734827 12.550670
2618 0 3 -1.050000 37.744876 32.289452 9.800702
2619 0 3 -1.050000 34.084992 29.788174 6.466629
2620 0 3 -1.050000 33.876101 28.111294 12.856741
2621 0 3 -1.050000 39.009668 24.803791 12.721229
2622 0 3 -1.050000 35.851981 27.015126 6.466629
2623 0 3 -1.050000 37.408647 27.672661 12.856741
2624 0 3 -1.050000 37.706245 33.772211 12.721229
2625 0 3 -1.050000 37.370017 29.931907 6.466629
2626 0 3 -1.050000 36.022241 30.951252 12.856741
2627 0 3 -1.050000 30.591077 28.159205 12.721229
2628 0 1 1.575000 28.615197 41.302480 7.498159
2629 0 1 1.575000 39.345896 39.237356 13.339212
2630 0 1 1.575000 28.615197 45.432728 13.339212
2631 0 1 1.575000 32.192097 39.237356 13.339212
2632 0 2 2.100000 32.192097 43.367604 10.418686
2633 0 1 1.575000 28.615197 37.172232 10.418686
2634 0 1 1.575000 39.345896 43.367604 10.418686
2635 0 2 2.100000 31.951014 41.163290 7.301316
2636 0 2 2.100000 28.856280 35.246297 7.695003
2637 0 1 1.575000 28.856280 43.506793 10.615529
2638 0 1 1.575000 41.375429 44.260976 7.301316
2639 0 1 1.575000 33.739464 44.539355 7.695003
2640 0 1 1.575000 40.893263 40.409107 10.615529
2641 0 1 1.575000 41.134346 38.483172 7.301316
2642 0 1 1.575000 37.557446 44.121787 7.695003
2643 0 1 1.575000 30.403647 39.991539 10.615529
2644 0 1 1.575000 32.433180 37.311421 10.615529
2645 0 1 1.575000 35.527913 43.228414 10.221842
2646 0 1 1.575000 42.681713 39.098166 13.142369
2647 0 1 1.575000 39.586979 41.441669 7.695003
2648 0 1 1.575000 30.162564 46.604479 10.615529
2649 0 1 1.575000 37.798529 46.326100 10.221842
2650 0 1 1.575000 30.644730 42.195852 13.142369
2651 0 1 1.575000 30.162564 38.343983 7.695003
2652 0 1 1.575000 37.557446 39.991539 10.615529
2653 0 1 1.575000 41.134346 34.352924 10.221842
2654 0 2 2.100000 41.134346 42.613420 13.142369
2655 0 1 1.575000 30.403647 44.121787 7.695003
2656 0 3 -1.050000 30.299202 40.426041 8.529689
2657 0 3 -1.050000 37.661892 37.972674 13.821683
2658 0 3 -1.050000 42.586567 45.531027 11.207228
2659 0 3 -1.050000 32.528325 41.280176 13.957195
2660 0 3 -1.050000 42.839812 43.199089 8.529689
2661 0 3 -1.050000 34.129346 38.411306 13.821683
2662 0 3 -1.050000 39.428880 38.897023 11.207228
2663 0 3 -1.050000 40.985547 44.702500 13.957195
2664 0 3 -1.050000 41.321776 40.282308 8.529689
2665 0 3 -1.050000 42.669551 47.523459 13.821683
2666 0 3 -1.050000 32.445341 39.479388 11.207228
2667 0 3 -1.050000 40.946916 37.924763 13.957195
2668 0 3 -1.050000 30.508093 42.102922 10.901157
2669 0 3 -1.050000 42.586567 37.270531 8.286701
2670 0 3 -1.050000 39.682125 45.410424 11.036669
2671 0 3 -1.050000 41.283145 42.541554 10.901157
2672 0 3 -1.050000 32.275081 43.027271 8.286701
2673 0 3 -1.050000 40.985547 36.442004 11.036669
2674 0 3 -1.050000 42.669551 39.262963 10.901157
2675 0 3 -1.050000 39.599141 43.609636 8.286701
2676 0 3 -1.050000 33.793117 42.055011 11.036669
2677 0 3 -1.050000 33.876101 44.632285 9.936215
2678 0 3 -1.050000 28.951426 37.073932 12.550670
2679 0 3 -1.050000 39.009668 41.324783 9.800702
2680 0 3 -1.050000 37.408647 44.193653 9.936215
2681 0 3 -1.050000 32.109113 43.707936 12.550670
2682 0 3 -1.050000 30.552446 37.902459 9.800702
2683 0 3 -1.050000 28.868442 35.081500 9.936215
2684 0 3 -1.050000 39.092652 43.125571 12.550670
2685 0 3 -1.050000 30.591077 44.680196 9.800702
2686 0 3 -1.050000 41.238791 42.178918 6.466629
2687 0 3 -1.050000 41.029901 40.502037 12.856741
2688 0 3 -1.050000 31.855868 37.194535 12.721229
2689 0 3 -1.050000 28.698181 39.405870 6.466629
2690 0 3 -1.050000 30.254848 40.063405 12.856741
2691 0 3 -1.050000 30.552446 46.162955 12.721229
2692 0 3 -1.050000 30.216218 42.322651 6.466629
2693 0 3 -1.050000 28.868442 43.341996 12.856741
2694 0 3 -1.050000 37.744876 40.549948 12.721229
2695 0 1 1.575000 28.615197 33.041984 13.339212
2696 0 1 1.575000 39.345896 30.976860 1.657107
2697 0 1 1.575000 28.615197 37.172232 1.657107
2698 0 1 1.575000 32.192097 30.976860 1.657107
2699 0 1 1.575000 28.615197 33.041984 4.577633
2700 0 1 1.575000 31.951014 32.902794 13.142369
2701 0 1 1.575000 28.856280 26.985801 13.536055
2702 0 1 1.575000 31.951014 32.902794 4.380790
2703 0 1 1.575000 41.375429 36.000480 13.142369
2704 0 1 1.575000 33.739464 36.278859 13.536055
2705 0 1 1.575000 41.375429 36.000480 4.380790
2706 0 1 1.575000 41.134346 30.222676 13.142369
2707 0 1 1.575000 37.557446 35.861291 13.536055
2708 0 1 1.575000 41.134346 30.222676 4.380790
2709 0 1 1.575000 42.681713 30.837670 1.460263
2710 0 2 2.100000 39.586979 33.181173 13.536055
2711 0 1 1.575000 30.644730 33.935356 1.460263
2712 0 1 1.575000 30.162564 30.083487 13.536055
2713 0 1 1.575000 41.134346 34.352924 1.460263
2714 0 1 1.575000 30.403647 35.861291 13.536055
2715 0 3 -1.050000 30.299202 32.165545 14.370742
2716 0 3 -1.050000 37.661892 29.712178 2.139578
2717 0 3 -1.050000 32.528325 33.019680 2.275090
2718 0 3 -1.050000 42.839812 34.938593 14.370742
2719 0 3 -1.050000 34.129346 30.150810 2.139578
2720 0 3 -1.050000 40.985547 36.442004 2.275090
2721 0 3 -1.050000 41.321776 32.021812 14.370742
2722 0 3 -1.050000 42.669551 39.262963 2.139578
2723 0 3 -1.050000 40.946916 29.664267 2.275090
2724 0 3 -1.050000 30.299202 32.165545 5.609163
2725 0 3 -1.050000 42.586567 29.010036 14.127754
2726 0 3 -1.050000 42.839812 34.938593 5.609163
2727 0 3 -1.050000 32.275081 34.766775 14.127754
2728 0 3 -1.050000 41.321776 32.021812 5.609163
2729 0 3 -1.050000 39.599141 35.349140 14.127754
2730 0 3 -1.050000 41.238791 33.918422 3.546103
2731 0 3 -1.050000 28.951426 28.813436 0.868565
2732 0 3 -1.050000 28.698181 31.145374 3.546103
2733 0 3 -1.050000 32.109113 35.447440 0.868565
2734 0 3 -1.050000 30.216218 34.062155 3.546103
2735 0 3 -1.050000 39.092652 34.865075 0.868565
2736 0 3 -1.050000 41.238791 33.918422 12.307682
2737 0 3 -1.050000 41.029901 32.241542 1.174636
2738 0 3 -1.050000 28.951426 37.073932 3.789091
2739 0 3 -1.050000 31.855868 28.934039 1.039123
2740 0 3 -1.050000 28.698181 31.145374 12.307682
2741 0 3 -1.050000 30.254848 31.802909 1.174636
2742 0 3 -1.050000 39.262912 31.317192 3.789091
2743 0 3 -1.050000 30.552446 37.902459 1.039123
2744 0 3 -1.050000 30.216218 34.062155 12.307682
2745 0 3 -1.050000 28.868442 35.081500 1.174636
2746 0 3 -1.050000 31.938852 30.734827 3.789091
2747 0 3 -1.050000 37.744876 32.289452 1.039123
2748 0 2 2.100000 35.768997 45.432728 13.339212
2749 0 1 1.575000 32.192097 43.367604 1.657107
2750 0 1 1.575000 35.768997 49.562975 1.657107
2751 0 1 1.575000 39.345896 43.367604 1.657107
2752 0 1 1.575000 35.768997 45.432728 4.577633
2753 0 1 1.575000 39.104813 45.293538 13.142369
2754 0 1 1.575000 36.010080 39.376545 13.536055
2755 0 1 1.575000 39.104813 45.293538 4.380790
2756 0 1 1.575000 34.221630 48.391224 13.142369
2757 0 1 1.575000 40.893263 48.669603 13.536055
2758 0 1 1.575000 34.221630 48.391224 4.380790
2759 0 1 1.575000 33.980547 42.613420 13.142369
2760 0 1 1.575000 30.403647 48.252035 13.536055
2761 0 1 1.575000 33.980547 42.613420 4.380790
2762 0 1 1.575000 35.527913 43.228414 1.460263
2763 0 1 1.575000 32.433180 45.571917 13.536055
2764 0 1 1.575000 37.798529 46.326100 1.460263
2765 0 1 1.575000 37.316363 42.474231 13.536055
2766 0 1 1.575000 33.980547 46.743668 1.460263
2767 0 1 1.575000 37.557446 48.252035 13.536055
2768 0 3 -1.050000 37.453001 44.556289 14.370742
2769 0 3 -1.050000 30.508093 42.102922 2.139578
2770 0 3 -1.050000 39.682125 45.410424 2.275090
2771 0 3 -1.050000 35.686012 47.329337 14.370742
2772 0 3 -1.050000 41.283145 42.541554 2.139578
2773 0 3 -1.050000 33.831748 48.832748 2.275090
2774 0 3 -1.050000 34.167976 44.412556 14.370742
2775 0 3 -1.050000 35.515752 26.872219 2.139578
2776 0 3 -1.050000 33.793117 42.055011 2.275090
2777 0 3 -1.050000 37.453001 44.556289 5.609163
2778 0 3 -1.050000 35.432768 41.400779 14.127754
2779 0 3 -1.050000 35.686012 47.329337 5.609163
2780 0 3 -1.050000 39.428880 47.157519 14.127754
2781 0 3 -1.050000 34.167976 44.412556 5.609163
2782 0 3 -1.050000 32.445341 47.739884 14.127754
2783 0 3 -1.050000 34.084992 46.309166 3.546103
2784 0 3 -1.050000 36.105225 41.204180 0.868565
2785 0 3 -1.050000 35.851981 43.536118 3.546103
2786 0 3 -1.050000 39.262912 47.838184 0.868565
2787 0 3 -1.050000 37.370017 46.452899 3.546103
2788 0 3 -1.050000 31.938852 47.255819 0.868565
2789 0 3 -1.050000 34.084992 46.309166 12.307682
2790 0 3 -1.050000 33.876101 44.632285 1.174636
2791 0 3 -1.050000 36.105225 49.464676 3.789091
2792 0 3 -1.050000 39.009668 41.324783 1.039123
2793 0 3 -1.050000 35.851981 43.536118 12.307682
2794 0 3 -1.050000 37.408647 44.193653 1.174636
2795 0 3 -1.050000 32.109113 43.707936 3.789091
2796 0 3 -1.050000 37.706245 25.511716 1.039123
2797 0 3 -1.050000 37.370017 46.452899 12.307682
2798 0 3 -1.050000 36.022241 47.472244 1.174636
2799 0 3 -1.050000 39.092652 43.125571 3.789091
2800 0 3 -1.050000 30.591077 44.680196 1.039123
2801 0 1 1.575000 35.768997 28.911736 16.259738
2802 0 1 1.575000 39.104813 28.772546 16.062895
2803 0 1 1.575000 34.221630 31.870232 16.062895
2804 0 1 1.575000 33.980547 26.092428 16.062895
2805 0 3 -1.050000 37.453001 28.035297 17.291268
2806 0 3 -1.050000 35.686012 30.808346 17.291268
2807 0 3 -1.050000 34.167976 27.891564 17.291268
2808 0 3 -1.050000 34.084992 29.788174 15.228208
2809 0 3 -1.050000 35.851981 27.015126 15.228208
2810 0 3 -1.050000 37.370017 29.931907 15.228208
2811 0 3 -1.050000 36.105225 32.943684 15.471196
2812 0 3 -1.050000 32.109113 27.186944 15.471196
2813 0 3 -1.050000 39.092652 26.604579 15.471196
2814 0 2 2.100000 28.615197 41.302480 16.259738
2815 0 1 1.575000 31.951014 41.163290 16.062895
2816 0 1 1.575000 41.375429 44.260976 16.062895
2817 0 1 1.575000 41.134346 38.483172 16.062895
2818 0 3 -1.050000 30.299202 40.426041 17.291268
2819 0 3 -1.050000 42.839812 43.199089 17.291268
2820 0 3 -1.050000 41.321776 40.282308 17.291268
2821 0 3 -1.050000 41.238791 42.178918 15.228208
2822 0 3 -1.050000 28.698181 39.405870 15.228208
2823 0 3 -1.050000 30.216218 42.322651 15.228208
2824 0 3 -1.050000 28.951426 45.334428 15.471196
2825 0 3 -1.050000 39.262912 39.577688 15.471196
2826 0 3 -1.050000 31.938852 38.995323 15.471196
2827 0 1 1.575000 32.192097 35.107108 16.259738
2828 0 1 1.575000 28.615197 28.911736 16.259738
2829 0 1 1.575000 39.345896 35.107108 16.259738
2830 0 1 1.575000 28.856280 35.246297 16.456582
2831 0 1 1.575000 40.893263 32.148611 16.456582
2832 0 1 1.575000 30.403647 31.731043 16.456582
2833 0 1 1.575000 32.433180 29.050925 16.456582
2834 0 1 1.575000 35.527913 34.967918 16.062895
2835 0 1 1.575000 30.162564 38.343983 16.456582
2836 0 1 1.575000 37.798529 38.065604 16.062895
2837 0 1 1.575000 37.557446 31.731043 16.456582
2838 0 1 1.575000 41.134346 26.092428 16.062895
2839 0 4 -0.950000 42.586567 37.270531 17.048280
2840 0 3 -1.050000 39.428880 30.636527 17.048280
2841 0 3 -1.050000 32.445341 31.218892 17.048280
2842 0 4 -0.950000 30.508093 33.842426 16.742209
2843 0 4 -0.950000 39.682125 37.149928 16.877722
2844 0 3 -1.050000 41.283145 34.281058 16.742209
2845 0 3 -1.050000 40.985547 28.181508 16.877722
2846 0 3 -1.050000 42.669551 31.002467 16.742209
2847 0 3 -1.050000 33.793117 33.794515 16.877722
2848 0 3 -1.050000 33.876101 36.371790 15.777267
2849 0 3 -1.050000 39.009668 33.064287 15.641755
2850 0 3 -1.050000 37.408647 35.933157 15.777267
2851 0 3 -1.050000 30.552446 29.641964 15.641755
2852 0 3 -1.050000 28.868442 26.821004 15.777267
2853 0 3 -1.050000 30.591077 36.419700 15.641755
2854 0 1 1.575000 39.345896 47.497851 16.259738
2855 0 1 1.575000 35.768997 41.302480 16.259738
2856 0 1 1.575000 32.192097 47.497851 16.259738
2857 0 1 1.575000 36.010080 47.637041 16.456582
2858 0 1 1.575000 33.739464 44.539355 16.456582
2859 0 1 1.575000 37.557446 44.121787 16.456582
2860 0 1 1.575000 39.586979 41.441669 16.456582
2861 0 1 1.575000 42.681713 47.358662 16.062895
2862 0 1 1.575000 37.316363 25.953239 16.456582
2863 0 1 1.575000 30.644730 25.674860 16.062895
2864 0 1 1.575000 30.403647 44.121787 16.456582
2865 0 1 1.575000 33.980547 38.483172 16.062895
2866 0 4 -0.950000 35.432768 24.879788 17.048280
2867 0 3 -1.050000 32.275081 43.027271 17.048280
2868 0 3 -1.050000 39.599141 43.609636 17.048280
2869 0 3 -1.050000 37.661892 46.233170 16.742209
2870 0 3 -1.050000 32.528325 49.540672 16.877722
2871 0 3 -1.050000 34.129346 46.671802 16.742209
2872 0 3 -1.050000 33.831748 40.572252 16.877722
2873 0 4 -0.950000 35.515752 43.393211 16.742209
2874 0 4 -0.950000 40.946916 46.185259 16.877722
2875 0 3 -1.050000 41.029901 48.762533 15.777267
2876 0 3 -1.050000 31.855868 45.455031 15.641755
2877 0 3 -1.050000 30.254848 48.323901 15.777267
2878 0 3 -1.050000 37.706245 42.032707 15.641755
2879 0 3 -1.050000 36.022241 39.211748 15.777267
2880 0 3 -1.050000 37.744876 48.810444 15.641755
2881 0 1 1.575000 42.922796 0.000000 1.657107
2882 0 1 1.575000 53.653495 22.716364 7.498159
2883 0 1 1.575000 42.922796 4.130248 7.498159
2884 0 1 1.575000 46.499695 22.716364 7.498159
2885 0 1 1.575000 42.922796 24.781488 10.418686
2886 0 2 2.100000 46.499695 2.065124 4.577633
2887 0 1 1.575000 42.922796 20.651240 4.577633
2888 0 1 1.575000 53.653495 2.065124 4.577633
2889 0 1 1.575000 46.258612 24.642298 1.460263
2890 0 1 1.575000 43.163879 18.725305 1.853950
2891 0 2 2.100000 43.163879 2.204313 4.774476
2892 0 1 1.575000 46.258612 24.642298 10.221842
2893 0 1 1.575000 55.683028 2.958497 1.460263
2894 0 1 1.575000 48.047062 3.236875 1.853950
2895 0 1 1.575000 55.200862 23.888115 4.774476
2896 0 1 1.575000 55.683028 2.958497 10.221842
2897 0 1 1.575000 55.441945 21.962180 1.460263
2898 0 1 1.575000 51.865045 2.819307 1.853950
2899 0 1 1.575000 44.711246 23.470547 4.774476
2900 0 2 2.100000 55.441945 21.962180 10.221842
2901 0 1 1.575000 46.740779 20.790429 4.774476
2902 0 1 1.575000 49.835512 1.925935 4.380790
2903 0 1 1.575000 56.989311 22.577174 7.301316
2904 0 1 1.575000 53.894578 0.139189 1.853950
2905 0 2 2.100000 44.470163 5.301999 4.774476
2906 0 1 1.575000 52.106128 5.023621 4.380790
2907 0 1 1.575000 44.952329 0.893373 7.301316
2908 0 1 1.575000 44.470163 21.822991 1.853950
2909 0 2 2.100000 51.865045 23.470547 4.774476
2910 0 1 1.575000 55.441945 17.831933 4.380790
2911 0 1 1.575000 55.441945 1.310941 7.301316
2912 0 1 1.575000 44.711246 2.819307 1.853950
2913 0 3 -1.050000 44.606800 23.905049 2.688637
2914 0 3 -1.050000 51.969490 21.451682 7.980630
2915 0 3 -1.050000 56.894166 4.228548 5.366175
2916 0 3 -1.050000 46.835924 24.759184 8.116143
2917 0 3 -1.050000 57.147410 1.896610 2.688637
2918 0 3 -1.050000 48.436944 21.890314 7.980630
2919 0 3 -1.050000 53.736479 22.376031 5.366175
2920 0 3 -1.050000 55.293146 3.400020 8.116143
2921 0 3 -1.050000 55.629374 23.761316 2.688637
2922 0 3 -1.050000 56.977150 6.220979 7.980630
2923 0 3 -1.050000 46.752940 22.958396 5.366175
2924 0 3 -1.050000 55.254515 21.403771 8.116143
2925 0 3 -1.050000 44.606800 23.905049 11.450216
2926 0 3 -1.050000 44.815691 0.800442 5.060104
2927 0 3 -1.050000 56.894166 20.749540 2.445649
2928 0 3 -1.050000 53.989723 4.107945 5.195616
2929 0 3 -1.050000 57.147410 1.896610 11.450216
2930 0 3 -1.050000 55.590744 1.239074 5.060104
2931 0 3 -1.050000 46.582680 1.724792 2.445649
2932 0 3 -1.050000 55.293146 19.921012 5.195616
2933 0 3 -1.050000 55.629374 23.761316 11.450216
2934 0 3 -1.050000 56.977150 22.741971 5.060104
2935 0 3 -1.050000 53.906739 2.307157 2.445649
2936 0 3 -1.050000 48.100716 0.752531 5.195616
2937 0 3 -1.050000 55.546390 0.876439 9.387156
2938 0 3 -1.050000 48.183700 3.329806 4.095162
2939 0 3 -1.050000 43.259024 20.552940 6.709617
2940 0 3 -1.050000 53.317266 0.022303 3.959650
2941 0 3 -1.050000 43.005780 22.884878 9.387156
2942 0 3 -1.050000 51.716246 2.891174 4.095162
2943 0 3 -1.050000 46.416711 2.405456 6.709617
2944 0 3 -1.050000 44.860045 21.381468 3.959650
2945 0 3 -1.050000 44.523816 1.020171 9.387156
2946 0 3 -1.050000 43.176040 18.560508 4.095162
2947 0 3 -1.050000 53.400250 1.823091 6.709617
2948 0 3 -1.050000 44.898675 3.377717 3.959650
2949 0 3 -1.050000 55.546390 0.876439 0.625577
2950 0 3 -1.050000 55.337499 23.981046 7.015688
2951 0 3 -1.050000 43.259024 4.031948 9.630144
2952 0 3 -1.050000 46.163467 20.673543 6.880176
2953 0 3 -1.050000 43.005780 22.884878 0.625577
2954 0 3 -1.050000 44.562447 23.542413 7.015688
2955 0 3 -1.050000 53.570511 23.056696 9.630144
2956 0 3 -1.050000 44.860045 4.860476 6.880176
2957 0 3 -1.050000 44.523816 1.020171 0.625577
2958 0 3 -1.050000 43.176040 2.039516 7.015688
2959 0 3 -1.050000 46.246451 22.474331 9.630144
2960 0 3 -1.050000 52.052475 24.028957 6.880176
2961 0 1 1.575000 50.076595 12.390744 1.657107
2962 0 1 1.575000 46.499695 10.325620 7.498159
2963 0 1 1.575000 50.076595 16.520992 7.498159
2964 0 1 1.575000 53.653495 10.325620 7.498159
2965 0 2 2.100000 50.076595 12.390744 10.418686
2966 0 2 2.100000 53.653495 14.455868 4.577633
2967 0 2 2.100000 50.076595 8.260496 4.577633
2968 0 2 2.100000 46.499695 14.455868 4.577633
2969 0 1 1.575000 53.412412 12.251555 1.460263
2970 0 1 1.575000 50.317678 6.334561 1.853950
2971 0 1 1.575000 50.317678 14.595057 4.774476
2972 0 2 2.100000 53.412412 12.251555 10.221842
2973 0 1 1.575000 48.529228 15.349240 1.460263
2974 0 1 1.575000 55.200862 15.627619 1.853950
2975 0 1 1.575000 48.047062 11.497371 4.774476
2976 0 1 1.575000 48.529228 15.349240 10.221842
2977 0 1 1.575000 48.288145 9.571437 1.460263
2978 0 1 1.575000 44.711246 15.210051 1.853950
2979 0 1 1.575000 51.865045 11.079803 4.774476
2980 0 1 1.575000 48.288145 9.571437 10.221842
2981 0 1 1.575000 53.894578 8.399685 4.774476
2982 0 1 1.575000 56.989311 14.316678 4.380790
2983 0 1 1.575000 49.835512 10.186431 7.301316
2984 0 1 1.575000 46.740779 12.529933 1.853950
2985 0 2 2.100000 51.623962 17.692743 4.774476
2986 0 1 1.575000 44.952329 17.414364 4.380790
2987 0 2 2.100000 52.106128 13.284116 7.301316
2988 0 1 1.575000 51.623962 9.432247 1.853950
2989 0 1 1.575000 44.711246 11.079803 4.774476
2990 0 1 1.575000 48.288145 5.441189 4.380790
2991 0 1 1.575000 48.288145 13.701685 7.301316
2992 0 1 1.575000 51.865045 15.210051 1.853950
2993 0 3 -1.050000 51.760599 11.514305 2.688637
2994 0 3 -1.050000 44.815691 9.060938 7.980630
2995 0 3 -1.050000 49.740367 16.619292 5.366175
2996 0 3 -1.050000 53.989723 12.368441 8.116143
2997 0 3 -1.050000 49.993611 14.287354 2.688637
2998 0 3 -1.050000 55.590744 9.499570 7.980630
2999 0 3 -1.050000 46.582680 9.985287 5.366175
3000 0 3 -1.050000 48.139346 15.790764 8.116143
3001 0 3 -1.050000 48.475575 11.370573 2.688637
3002 0 3 -1.050000 49.823351 18.611723 7.980630
3003 0 3 -1.050000 53.906739 10.567652 5.366175
3004 0 3 -1.050000 48.100716 9.013027 8.116143
3005 0 3 -1.050000 51.760599 11.514305 11.450216
3006 0 3 -1.050000 51.969490 13.191186 5.060104
3007 0 3 -1.050000 49.740367 8.358796 2.445649
3008 0 3 -1.050000 46.835924 16.498688 5.195616
3009 0 3 -1.050000 49.993611 14.287354 11.450216
3010 0 3 -1.050000 48.436944 13.629818 5.060104
3011 0 3 -1.050000 53.736479 14.115535 2.445649
3012 0 3 -1.050000 48.139346 7.530268 5.195616
3013 0 3 -1.050000 48.475575 11.370573 11.450216
3014 0 3 -1.050000 49.823351 10.351227 5.060104
3015 0 3 -1.050000 46.752940 14.697900 2.445649
3016 0 3 -1.050000 55.254515 13.143275 5.195616
3017 0 3 -1.050000 48.392591 13.267182 9.387156
3018 0 3 -1.050000 55.337499 15.720550 4.095162
3019 0 3 -1.050000 50.412824 8.162196 6.709617
3020 0 3 -1.050000 46.163467 12.413047 3.959650
3021 0 3 -1.050000 50.159579 10.494134 9.387156
3022 0 3 -1.050000 44.562447 15.281917 4.095162
3023 0 3 -1.050000 53.570511 14.796200 6.709617
3024 0 3 -1.050000 52.013844 8.990724 3.959650
3025 0 3 -1.050000 51.677615 13.410915 9.387156
3026 0 3 -1.050000 50.329840 6.169764 4.095162
3027 0 3 -1.050000 46.246451 14.213835 6.709617
3028 0 3 -1.050000 52.052475 15.768461 3.959650
3029 0 3 -1.050000 48.392591 13.267182 0.625577
3030 0 3 -1.050000 48.183700 11.590302 7.015688
3031 0 3 -1.050000 50.412824 16.422692 9.630144
3032 0 3 -1.050000 53.317266 8.282799 6.880176
3033 0 3 -1.050000 50.159579 10.494134 0.625577
3034 0 3 -1.050000 51.716246 11.151669 7.015688
3035 0 3 -1.050000 46.416711 10.665952 9.630144
3036 0 3 -1.050000 52.013844 17.251220 6.880176
3037 0 3 -1.050000 51.677615 13.410915 0.625577
3038 0 3 -1.050000 50.329840 14.430260 7.015688
3039 0 3 -1.050000 53.400250 10.083587 9.630144
3040 0 3 -1.050000 44.898675 11.638213 6.880176
3041 0 1 1.575000 50.076595 4.130248 7.498159
3042 0 1 1.575000 46.499695 2.065124 13.339212
3043 0 1 1.575000 50.076595 8.260496 13.339212
3044 0 2 2.100000 53.653495 2.065124 13.339212
3045 0 2 2.100000 53.653495 6.195372 10.418686
3046 0 1 1.575000 50.076595 24.781488 10.418686
3047 0 1 1.575000 46.499695 6.195372 10.418686
3048 0 1 1.575000 53.412412 3.991059 7.301316
3049 0 1 1.575000 50.317678 22.855553 7.695003
3050 0 1 1.575000 50.317678 6.334561 10.615529
3051 0 1 1.575000 48.529228 7.088745 7.301316
3052 0 1 1.575000 55.200862 7.367123 7.695003
3053 0 1 1.575000 48.047062 3.236875 10.615529
3054 0 1 1.575000 48.288145 1.310941 7.301316
3055 0 1 1.575000 44.711246 6.949555 7.695003
3056 0 2 2.100000 51.865045 2.819307 10.615529
3057 0 1 1.575000 53.894578 0.139189 10.615529
3058 0 1 1.575000 56.989311 6.056183 10.221842
3059 0 1 1.575000 49.835512 1.925935 13.142369
3060 0 1 1.575000 46.740779 4.269437 7.695003
3061 0 1 1.575000 51.623962 9.432247 10.615529
3062 0 1 1.575000 44.952329 9.153869 10.221842
3063 0 1 1.575000 52.106128 5.023621 13.142369
3064 0 1 1.575000 51.623962 1.171751 7.695003
3065 0 1 1.575000 44.711246 2.819307 10.615529
3066 0 1 1.575000 48.288145 21.962180 10.221842
3067 0 1 1.575000 48.288145 5.441189 13.142369
3068 0 1 1.575000 51.865045 6.949555 7.695003
3069 0 3 -1.050000 51.760599 3.253809 8.529689
3070 0 3 -1.050000 44.815691 0.800442 13.821683
3071 0 3 -1.050000 49.740367 8.358796 11.207228
3072 0 3 -1.050000 53.989723 4.107945 13.957195
3073 0 3 -1.050000 49.993611 6.026858 8.529689
3074 0 3 -1.050000 55.590744 1.239074 13.821683
3075 0 3 -1.050000 46.582680 1.724792 11.207228
3076 0 3 -1.050000 48.139346 7.530268 13.957195
3077 0 3 -1.050000 48.475575 3.110077 8.529689
3078 0 3 -1.050000 49.823351 10.351227 13.821683
3079 0 3 -1.050000 53.906739 2.307157 11.207228
3080 0 3 -1.050000 48.100716 0.752531 13.957195
3081 0 3 -1.050000 51.969490 4.930690 10.901157
3082 0 3 -1.050000 49.740367 0.098300 8.286701
3083 0 3 -1.050000 46.835924 8.238193 11.036669
3084 0 3 -1.050000 48.436944 5.369322 10.901157
3085 0 3 -1.050000 53.736479 5.855040 8.286701
3086 0 3 -1.050000 48.139346 24.051260 11.036669
3087 0 3 -1.050000 49.823351 2.090732 10.901157
3088 0 3 -1.050000 46.752940 6.437404 8.286701
3089 0 3 -1.050000 55.254515 4.882779 11.036669
3090 0 3 -1.050000 55.337499 7.460054 9.936215
3091 0 3 -1.050000 50.412824 24.683188 12.550670
3092 0 3 -1.050000 46.163467 4.152551 9.800702
3093 0 3 -1.050000 44.562447 7.021422 9.936215
3094 0 3 -1.050000 53.570511 6.535704 12.550670
3095 0 3 -1.050000 52.013844 0.730228 9.800702
3096 0 3 -1.050000 50.329840 22.690756 9.936215
3097 0 3 -1.050000 46.246451 5.953339 12.550670
3098 0 3 -1.050000 52.052475 7.507965 9.800702
3099 0 3 -1.050000 48.392591 5.006687 6.466629
3100 0 3 -1.050000 48.183700 3.329806 12.856741
3101 0 3 -1.050000 53.317266 0.022303 12.721229
3102 0 3 -1.050000 50.159579 2.233638 6.466629
3103 0 3 -1.050000 51.716246 2.891174 12.856741
3104 0 3 -1.050000 52.013844 8.990724 12.721229
3105 0 3 -1.050000 51.677615 5.150419 6.466629
3106 0 3 -1.050000 50.329840 6.169764 12.856741
3107 0 3 -1.050000 44.898675 3.377717 12.721229
3108 0 1 1.575000 42.922796 16.520992 7.498159
3109 0 2 2.100000 53.653495 14.455868 13.339212
3110 0 2 2.100000 42.922796 20.651240 13.339212
3111 0 1 1.575000 46.499695 14.455868 13.339212
3112 0 1 1.575000 46.499695 18.586116 10.418686
3113 0 1 1.575000 42.922796 12.390744 10.418686
3114 0 1 1.575000 53.653495 18.586116 10.418686
3115 0 1 1.575000 46.258612 16.381802 7.301316
3116 0 1 1.575000 43.163879 10.464809 7.695003
3117 0 1 1.575000 43.163879 18.725305 10.615529
3118 0 1 1.575000 55.683028 19.479488 7.301316
3119 0 1 1.575000 48.047062 19.757867 7.695003
3120 0 1 1.575000 55.200862 15.627619 10.615529
3121 0 1 1.575000 55.441945 13.701685 7.301316
3122 0 1 1.575000 51.865045 19.340299 7.695003
3123 0 1 1.575000 44.711246 15.210051 10.615529
3124 0 1 1.575000 46.740779 12.529933 10.615529
3125 0 1 1.575000 49.835512 18.446926 10.221842
3126 0 1 1.575000 56.989311 14.316678 13.142369
3127 0 1 1.575000 53.894578 16.660181 7.695003
3128 0 1 1.575000 44.470163 21.822991 10.615529
3129 0 1 1.575000 52.106128 21.544612 10.221842
3130 0 2 2.100000 44.952329 17.414364 13.142369
3131 0 2 2.100000 44.470163 13.562495 7.695003
3132 0 1 1.575000 51.865045 15.210051 10.615529
3133 0 1 1.575000 55.441945 9.571437 10.221842
3134 0 1 1.575000 55.441945 17.831933 13.142369
3135 0 1 1.575000 44.711246 19.340299 7.695003
3136 0 3 -1.050000 44.606800 15.644553 8.529689
3137 0 3 -1.050000 51.969490 13.191186 13.821683
3138 0 3 -1.050000 56.894166 20.749540 11.207228
3139 0 3 -1.050000 46.835924 16.498688 13.957195
3140 0 3 -1.050000 57.147410 18.417602 8.529689
3141 0 3 -1.050000 48.436944 13.629818 13.821683
3142 0 3 -1.050000 53.736479 14.115535 11.207228
3143 0 3 -1.050000 55.293146 19.921012 13.957195
3144 0 3 -1.050000 55.629374 15.500821 8.529689
3145 0 3 -1.050000 56.977150 22.741971 13.821683
3146 0 3 -1.050000 46.752940 14.697900 11.207228
3147 0 3 -1.050000 55.254515 13.143275 13.957195
3148 0 3 -1.050000 44.815691 17.321434 10.901157
3149 0 3 -1.050000 56.894166 12.489044 8.286701
3150 0 3 -1.050000 53.989723 20.628936 11.036669
3151 0 3 -1.050000 55.590744 17.760066 10.901157
3152 0 3 -1.050000 46.582680 18.245783 8.286701
3153 0 3 -1.050000 55.293146 11.660516 11.036669
3154 0 3 -1.050000 56.977150 14.481475 10.901157
3155 0 3 -1.050000 53.906739 18.828148 8.286701
3156 0 3 -1.050000 48.100716 17.273523 11.036669
3157 0 3 -1.050000 48.183700 19.850798 9.936215
3158 0 3 -1.050000 43.259024 12.292444 12.550670
3159 0 3 -1.050000 53.317266 16.543295 9.800702
3160 0 3 -1.050000 51.716246 19.412165 9.936215
3161 0 3 -1.050000 46.416711 18.926448 12.550670
3162 0 3 -1.050000 44.860045 13.120972 9.800702
3163 0 3 -1.050000 43.176040 10.300012 9.936215
3164 0 3 -1.050000 53.400250 18.344083 12.550670
3165 0 3 -1.050000 44.898675 19.898709 9.800702
3166 0 3 -1.050000 55.546390 17.397430 6.466629
3167 0 3 -1.050000 55.337499 15.720550 12.856741
3168 0 3 -1.050000 46.163467 12.413047 12.721229
3169 0 3 -1.050000 43.005780 14.624382 6.466629
3170 0 3 -1.050000 44.562447 15.281917 12.856741
3171 0 3 -1.050000 44.860045 21.381468 12.721229
3172 0 3 -1.050000 44.523816 17.541163 6.466629
3173 0 3 -1.050000 43.176040 18.560508 12.856741
3174 0 3 -1.050000 52.052475 15.768461 12.721229
3175 0 1 1.575000 42.922796 8.260496 13.339212
3176 0 1 1.575000 53.653495 6.195372 1.657107
3177 0 1 1.575000 42.922796 12.390744 1.657107
3178 0 1 1.575000 46.499695 6.195372 1.657107
3179 0 1 1.575000 42.922796 8.260496 4.577633
3180 0 1 1.575000 46.258612 8.121307 13.142369
3181 0 1 1.575000 43.163879 2.204313 13.536055
3182 0 2 2.100000 46.258612 8.121307 4.380790
3183 0 1 1.575000 55.683028 11.218993 13.142369
3184 0 1 1.575000 48.047062 11.497371 13.536055
3185 0 1 1.575000 55.683028 11.218993 4.380790
3186 0 1 1.575000 55.441945 5.441189 13.142369
3187 0 1 1.575000 51.865045 11.079803 13.536055
3188 0 1 1.575000 55.441945 5.441189 4.380790
3189 0 1 1.575000 56.989311 6.056183 1.460263
3190 0 1 1.575000 53.894578 8.399685 13.536055
3191 0 1 1.575000 44.952329 9.153869 1.460263
3192 0 1 1.575000 44.470163 5.301999 13.536055
3193 0 1 1.575000 55.441945 9.571437 1.460263
3194 0 1 1.575000 44.711246 11.079803 13.536055
3195 0 3 -1.050000 44.606800 7.384057 14.370742
3196 0 3 -1.050000 51.969490 4.930690 2.139578
3197 0 3 -1.050000 46.835924 8.238193 2.275090
3198 0 3 -1.050000 57.147410 10.157106 14.370742
3199 0 3 -1.050000 48.436944 5.369322 2.139578
3200 0 3 -1.050000 55.293146 11.660516 2.275090
3201 0 3 -1.050000 55.629374 7.240325 14.370742
3202 0 3 -1.050000 56.977150 14.481475 2.139578
3203 0 3 -1.050000 55.254515 4.882779 2.275090
3204 0 3 -1.050000 44.606800 7.384057 5.609163
3205 0 3 -1.050000 56.894166 4.228548 14.127754
3206 0 3 -1.050000 57.147410 10.157106 5.609163
3207 0 3 -1.050000 46.582680 9.985287 14.127754
3208 0 3 -1.050000 55.629374 7.240325 5.609163
3209 0 3 -1.050000 53.906739 10.567652 14.127754
3210 0 3 -1.050000 55.546390 9.136935 3.546103
3211 0 3 -1.050000 43.259024 4.031948 0.868565
3212 0 3 -1.050000 43.005780 6.363886 3.546103
3213 0 3 -1.050000 46.416711 10.665952 0.868565
3214 0 3 -1.050000 44.523816 9.280667 3.546103
3215 0 3 -1.050000 53.400250 10.083587 0.868565
3216 0 3 -1.050000 55.546390 9.136935 12.307682
3217 0 3 -1.050000 55.337499 7.460054 1.174636
3218 0 3 -1.050000 43.259024 12.292444 3.789091
3219 0 3 -1.050000 46.163467 4.152551 1.039123
3220 0 3 -1.050000 43.005780 6.363886 12.307682
3221 0 3 -1.050000 44.562447 7.021422 1.174636
3222 0 3 -1.050000 53.570511 6.535704 3.789091
3223 0 3 -1.050000 44.860045 13.120972 1.039123
3224 0 3 -1.050000 44.523816 9.280667 12.307682
3225 0 3 -1.050000 43.176040 10.300012 1.174636
3226 0 3 -1.050000 46.246451 5.953339 3.789091
3227 0 3 -1.050000 52.052475 7.507965 1.039123
3228 0 1 1.575000 50.076595 20.651240 13.339212
3229 0 1 1.575000 46.499695 18.586116 1.657107
3230 0 1 1.575000 50.076595 24.781488 1.657107
3231 0 1 1.575000 53.653495 18.586116 1.657107
3232 0 1 1.575000 50.076595 20.651240 4.577633
3233 0 1 1.575000 53.412412 20.512050 13.142369
3234 0 1 1.575000 50.317678 14.595057 13.536055
3235 0 1 1.575000 53.412412 20.512050 4.380790
3236 0 1 1.575000 48.529228 23.609736 13.142369
3237 0 1 1.575000 55.200862 23.888115 13.536055
3238 0 1 1.575000 48.529228 23.609736 4.380790
3239 0 1 1.575000 48.288145 17.831933 13.142369
3240 0 2 2.100000 44.711246 23.470547 13.536055
3241 0 1 1.575000 48.288145 17.831933 4.380790
3242 0 1 1.575000 49.835512 18.446926 1.460263
3243 0 1 1.575000 46.740779 20.790429 13.536055
3244 0 1 1.575000 52.106128 21.544612 1.460263
3245 0 1 1.575000 51.623962 17.692743 13.536055
3246 0 1 1.575000 48.288145 21.962180 1.460263
3247 0 1 1.575000 51.865045 23.470547 13.536055
3248 0 3 -1.050000 51.760599 19.774801 14.370742
3249 0 3 -1.050000 44.815691 17.321434 2.139578
3250 0 3 -1.050000 53.989723 20.628936 2.275090
3251 0 3 -1.050000 49.993611 22.547850 14.370742
3252 0 3 -1.050000 55.590744 17.760066 2.139578
3253 0 3 -1.050000 48.139346 24.051260 2.275090
3254 0 3 -1.050000 48.475575 19.631069 14.370742
3255 0 3 -1.050000 49.823351 2.090732 2.139578
3256 0 3 -1.050000 48.100716 17.273523 2.275090
3257 0 3 -1.050000 51.760599 19.774801 5.609163
3258 0 3 -1.050000 49.740367 16.619292 14.127754
3259 0 3 -1.050000 49.993611 22.547850 5.609163
3260 0 3 -1.050000 53.736479 22.376031 14.127754
3261 0 3 -1.050000 48.475575 19.631069 5.609163
3262 0 3 -1.050000 46.752940 22.958396 14.127754
3263 0 3 -1.050000 48.392591 21.527678 3.546103
3264 0 3 -1.050000 50.412824 16.422692 0.868565
3265 0 3 -1.050000 50.159579 18.754630 3.546103
3266 0 3 -1.050000 53.570511 23.056696 0.868565
3267 0 3 -1.050000 51.677615 21.671411 3.546103
3268 0 3 -1.050000 46.246451 22.474331 0.868565
3269 0 3 -1.050000 48.392591 21.527678 12.307682
3270 0 3 -1.050000 48.183700 19.850798 1.174636
3271 0 3 -1.050000 50.412824 24.683188 3.789091
3272 0 3 -1.050000 53.317266 16.543295 1.039123
3273 0 3 -1.050000 50.159579 18.754630 12.307682
3274 0 3 -1.050000 51.716246 19.412165 1.174636
3275 0 3 -1.050000 46.416711 18.926448 3.789091
3276 0 3 -1.050000 52.013844 0.730228 1.039123
3277 0 3 -1.050000 51.677615 21.671411 12.307682
3278 0 3 -1.050000 50.329840 22.690756 1.174636
3279 0 3 -1.050000 53.400250 18.344083 3.789091
3280 0 3 -1.050000 44.898675 19.898709 1.039123
3281 0 1 1.575000 50.076595 4.130248 16.259738
3282 0 1 1.575000 53.412412 3.991059 16.062895
3283 0 1 1.575000 48.529228 7.088745 16.062895
3284 0 1 1.575000 48.288145 1.310941 16.062895
3285 0 3 -1.050000 51.760599 3.253809 17.291268
3286 0 3 -1.050000 49.993611 6.026858 17.291268
3287 0 3 -1.050000 48.475575 3.110077 17.291268
3288 0 3 -1.050000 48.392591 5.006687 15.228208
3289 0 3 -1.050000 50.159579 2.233638 15.228208
3290 0 3 -1.050000 51.677615 5.150419 15.228208
3291 0 3 -1.050000 50.412824 8.162196 15.471196
3292 0 3 -1.050000 46.416711 2.405456 15.471196
3293 0 3 -1.050000 53.400250 1.823091 15.471196
3294 0 1 1.575000 42.922796 16.520992 16.259738
3295 0 1 1.575000 46.258612 16.381802 16.062895
3296 0 1 1.575000 55.683028 19.479488 16.062895
3297 0 1 1.575000 55.441945 13.701685 16.062895
3298 0 3 -1.050000 44.606800 15.644553 17.291268
3299 0 3 -1.050000 57.147410 18.417602 17.291268
3300 0 3 -1.050000 55.629374 15.500821 17.291268
3301 0 3 -1.050000 55.546390 17.397430 15.228208
3302 0 3 -1.050000 43.005780 14.624382 15.228208
3303 0 3 -1.050000 44.523816 17.541163 15.228208
3304 0 3 -1.050000 43.259024 20.552940 15.471196
3305 0 3 -1.050000 53.570511 14.796200 15.471196
3306 0 3 -1.050000 46.246451 14.213835 15.471196
3307 0 1 1.575000 46.499695 10.325620 16.259738
3308 0 1 1.575000 42.922796 4.130248 16.259738
3309 0 1 1.575000 53.653495 10.325620 16.259738
3310 0 1 1.575000 43.163879 10.464809 16.456582
3311 0 1 1.575000 55.200862 7.367123 16.456582
3312 0 1 1.575000 44.711246 6.949555 16.456582
3313 0 1 1.575000 46.740779 4.269437 16.456582
3314 0 1 1.575000 49.835512 10.186431 16.062895
3315 0 1 1.575000 44.470163 13.562495 16.456582
3316 0 1 1.575000 52.106128 13.284116 16.062895
3317 0 1 1.575000 51.865045 6.949555 16.456582
3318 0 1 1.575000 55.441945 1.310941 16.062895
3319 0 4 -0.950000 56.894166 12.489044 17.048280
3320 0 4 -0.950000 53.736479 5.855040 17.048280
3321 0 3 -1.050000 46.752940 6.437404 17.048280
3322 0 4 -0.950000 44.815691 9.060938 16.742209
3323 0 4 -0.950000 53.989723 12.368441 16.877722
3324 0 3 -1.050000 55.590744 9.499570 16.742209
3325 0 4 -0.950000 55.293146 3.400020 16.877722
3326 0 3 -1.050000 56.977150 6.220979 16.742209
3327 0 3 -1.050000 48.100716 9.013027 16.877722
3328 0 3 -1.050000 48.183700 11.590302 15.777267
3329 0 3 -1.050000 53.317266 8.282799 15.641755
3330 0 3 -1.050000 51.716246 11.151669 15.777267
3331 0 3 -1.050000 44.860045 4.860476 15.641755
3332 0 3 -1.050000 43.176040 2.039516 15.777267
3333 0 3 -1.050000 44.898675 11.638213 15.641755
3334 0 1 1.575000 53.653495 22.716364 16.259738
3335 0 1 1.575000 50.076595 16.520992 16.259738
3336 0 1 1.575000 46.499695 22.716364 16.259738
3337 0 1 1.575000 50.317678 22.855553 16.456582
3338 0 1 1.575000 48.047062 19.757867 16.456582
3339 0 1 1.575000 51.865045 19.340299 16.456582
3340 0 1 1.575000 53.894578 16.660181 16.456582
3341 0 1 1.575000 56.989311 22.577174 16.062895
3342 0 1 1.575000 51.623962 1.171751 16.456582
3343 0 1 1.575000 44.952329 0.893373 16.062895
3344 0 1 1.575000 44.711246 19.340299 16.456582
3345 0 1 1.575000 48.288145 13.701685 16.062895
3346 0 3 -1.050000 49.740367 0.098300 17.048280
3347 0 3 -1.050000 46.582680 18.245783 17.048280
3348 0 3 -1.050000 53.906739 18.828148 17.048280
3349 0 3 -1.050000 51.969490 21.451682 16.742209
3350 0 3 -1.050000 46.835924 24.759184 16.877722
3351 0 3 -1.050000 48.436944 21.890314 16.742209
3352 0 3 -1.050000 48.139346 15.790764 16.877722
3353 0 4 -0.950000 49.823351 18.611723 16.742209
3354 0 3 -1.050000 55.254515 21.403771 16.877722
3355 0 3 -1.050000 55.337499 23.981046 15.777267
3356 0 3 -1.050000 46.163467 20.673543 15.641755
3357 0 3 -1.050000 44.562447 23.542413 15.777267
3358 0 3 -1.050000 52.013844 17.251220 15.641755
3359 0 3 -1.050000 50.329840 14.430260 15.777267
3360 0 3 -1.050000 52.052475 24.028957 15.641755
3361 0 1 1.575000 42.922796 24.781488 1.657107
3362 0 1 1.575000 53.653495 47.497851 7.498159
3363 0 2 2.100000 42.922796 28.911736 7.498159
3364 0 1 1.575000 46.499695 47.497851 7.498159
3365 0 1 1.575000 42.922796 49.562975 10.418686
3366 0 1 1.575000 46.499695 26.846612 4.577633
3367 0 2 2.100000 42.922796 45.432728 4.577633
3368 0 2 2.100000 53.653495 26.846612 4.577633
3369 0 1 1.575000 46.258612 49.423786 1.460263
3370 0 1 1.575000 43.163879 43.506793 1.853950
3371 0 1 1.575000 43.163879 26.985801 4.774476
3372 0 1 1.575000 46.258612 49.423786 10.221842
3373 0 1 1.575000 55.683028 27.739984 1.460263
3374 0 1 1.575000 48.047062 28.018363 1.853950
3375 0 1 1.575000 55.200862 48.669603 4.774476
3376 0 1 1.575000 55.683028 27.739984 10.221842
3377 0 1 1.575000 55.441945 46.743668 1.460263
3378 0 1 1.575000 51.865045 27.600795 1.853950
3379 0 1 1.575000 44.711246 48.252035 4.774476
3380 0 2 2.100000 55.441945 46.743668 10.221842
3381 0 1 1.575000 46.740779 45.571917 4.774476
3382 0 1 1.575000 49.835512 26.707422 4.380790
3383 0 1 1.575000 56.989311 47.358662 7.301316
3384 0 1 1.575000 53.894578 24.920677 1.853950
3385 0 1 1.575000 44.470163 30.083487 4.774476
3386 0 1 1.575000 52.106128 29.805108 4.380790
3387 0 1 1.575000 44.952329 25.674860 7.301316
3388 0 1 1.575000 44.470163 46.604479 1.853950
3389 0 1 1.575000 51.865045 48.252035 4.774476
3390 0 1 1.575000 55.441945 42.613420 4.380790
3391 0 1 1.575000 55.441945 26.092428 7.301316
3392 0 1 1.575000 44.711246 27.600795 1.853950
3393 0 3 -1.050000 44.606800 48.686537 2.688637
3394 0 3 -1.050000 51.969490 46.233170 7.980630
3395 0 3 -1.050000 56.894166 29.010036 5.366175
3396 0 3 -1.050000 46.835924 49.540672 8.116143
3397 0 3 -1.050000 57.147410 26.678098 2.688637
3398 0 3 -1.050000 48.436944 46.671802 7.980630
3399 0 3 -1.050000 53.736479 47.157519 5.366175
3400 0 3 -1.050000 55.293146 28.181508 8.116143
3401 0 3 -1.050000 55.629374 48.542804 2.688637
3402 0 3 -1.050000 56.977150 31.002467 7.980630
3403 0 3 -1.050000 46.752940 47.739884 5.366175
3404 0 3 -1.050000 55.254515 46.185259 8.116143
3405 0 3 -1.050000 44.606800 48.686537 11.450216
3406 0 3 -1.050000 44.815691 25.581930 5.060104
3407 0 3 -1.050000 56.894166 45.531027 2.445649
3408 0 3 -1.050000 53.989723 28.889432 5.195616
3409 0 3 -1.050000 57.147410 26.678098 11.450216
3410 0 3 -1.050000 55.590744 26.020562 5.060104
3411 0 3 -1.050000 46.582680 26.506279 2.445649
3412 0 3 -1.050000 55.293146 44.702500 5.195616
3413 0 3 -1.050000 55.629374 48.542804 11.450216
3414 0 3 -1.050000 56.977150 47.523459 5.060104
3415 0 3 -1.050000 53.906739 27.088644 2.445649
3416 0 3 -1.050000 48.100716 25.534019 5.195616
3417 0 3 -1.050000 55.546390 25.657926 9.387156
3418 0 3 -1.050000 48.183700 28.111294 4.095162
3419 0 3 -1.050000 43.259024 45.334428 6.709617
3420 0 3 -1.050000 53.317266 24.803791 3.959650
3421 0 3 -1.050000 43.005780 47.666366 9.387156
3422 0 3 -1.050000 51.716246 27.672661 4.095162
3423 0 3 -1.050000 46.416711 27.186944 6.709617
3424 0 3 -1.050000 44.860045 46.162955 3.959650
3425 0 3 -1.050000 44.523816 25.801659 9.387156
3426 0 3 -1.050000 43.176040 43.341996 4.095162
3427 0 3 -1.050000 53.400250 26.604579 6.709617
3428 0 3 -1.050000 44.898675 28.159205 3.959650
3429 0 3 -1.050000 55.546390 25.657926 0.625577
3430 0 3 -1.050000 55.337499 48.762533 7.015688
3431 0 3 -1.050000 43.259024 28.813436 9.630144
3432 0 3 -1.050000 46.163467 45.455031 6.880176
3433 0 3 -1.050000 43.005780 47.666366 0.625577
3434 0 3 -1.050000 44.562447 48.323901 7.015688
3435 0 3 -1.050000 53.570511 47.838184 9.630144
3436 0 3 -1.050000 44.860045 29.641964 6.880176
3437 0 3 -1.050000 44.523816 25.801659 0.625577
3438 0 3 -1.050000 43.176040 26.821004 7.015688
3439 0 3 -1.050000 46.246451 47.255819 9.630144
3440 0 3 -1.050000 52.052475 48.810444 6.880176
3441 0 1 1.575000 50.076595 37.172232 1.657107
3442 0 1 1.575000 46.499695 35.107108 7.498159
3443 0 2 2.100000 50.076595 41.302480 7.498159
3444 0 1 1.575000 53.653495 35.107108 7.498159
3445 0 1 1.575000 50.076595 37.172232 10.418686
3446 0 1 1.575000 53.653495 39.237356 4.577633
3447 0 2 2.100000 50.076595 33.041984 4.577633
3448 0 1 1.575000 46.499695 39.237356 4.577633
3449 0 1 1.575000 53.412412 37.033042 1.460263
3450 0 1 1.575000 50.317678 31.116049 1.853950
3451 0 1 1.575000 50.317678 39.376545 4.774476
3452 0 1 1.575000 53.412412 37.033042 10.221842
3453 0 1 1.575000 48.529228 40.130728 1.460263
3454 0 1 1.575000 55.200862 40.409107 1.853950
3455 0 1 1.575000 48.047062 36.278859 4.774476
3456 0 1 1.575000 48.529228 40.130728 10.221842
3457 0 1 1.575000 48.288145 34.352924 1.460263
3458 0 1 1.575000 44.711246 39.991539 1.853950
3459 0 1 1.575000 51.865045 35.861291 4.774476
3460 0 1 1.575000 48.288145 34.352924 10.221842
3461 0 1 1.575000 53.894578 33.181173 4.774476
3462 0 2 2.100000 56.989311 39.098166 4.380790
3463 0 1 1.575000 49.835512 34.967918 7.301316
3464 0 1 1.575000 46.740779 37.311421 1.853950
3465 0 1 1.575000 51.623962 42.474231 4.774476
3466 0 1 1.575000 44.952329 42.195852 4.380790
3467 0 1 1.575000 52.106128 38.065604 7.301316
3468 0 1 1.575000 51.623962 34.213735 1.853950
3469 0 1 1.575000 44.711246 35.861291 4.774476
3470 0 1 1.575000 48.288145 30.222676 4.380790
3471 0 1 1.575000 48.288145 38.483172 7.301316
3472 0 1 1.575000 51.865045 39.991539 1.853950
3473 0 3 -1.050000 51.760599 36.295793 2.688637
3474 0 3 -1.050000 44.815691 33.842426 7.980630
3475 0 3 -1.050000 49.740367 41.400779 5.366175
3476 0 3 -1.050000 53.989723 37.149928 8.116143
3477 0 3 -1.050000 49.993611 39.068841 2.688637
3478 0 3 -1.050000 55.590744 34.281058 7.980630
3479 0 3 -1.050000 46.582680 34.766775 5.366175
3480 0 3 -1.050000 48.139346 40.572252 8.116143
3481 0 3 -1.050000 48.475575 36.152060 2.688637
3482 0 3 -1.050000 49.823351 43.393211 7.980630
3483 0 3 -1.050000 53.906739 35.349140 5.366175
3484 0 3 -1.050000 48.100716 33.794515 8.116143
3485 0 3 -1.050000 51.760599 36.295793 11.450216
3486 0 3 -1.050000 51.969490 37.972674 5.060104
3487 0 3 -1.050000 49.740367 33.140284 2.445649
3488 0 3 -1.050000 46.835924 41.280176 5.195616
3489 0 3 -1.050000 49.993611 39.068841 11.450216
3490 0 3 -1.050000 48.436944 38.411306 5.060104
3491 0 3 -1.050000 53.736479 38.897023 2.445649
3492 0 3 -1.050000 48.139346 32.311756 5.195616
3493 0 3 -1.050000 48.475575 36.152060 11.450216
3494 0 3 -1.050000 49.823351 35.132715 5.060104
3495 0 3 -1.050000 46.752940 39.479388 2.445649
3496 0 3 -1.050000 55.254515 37.924763 5.195616
3497 0 3 -1.050000 48.392591 38.048670 9.387156
3498 0 3 -1.050000 55.337499 40.502037 4.095162
3499 0 3 -1.050000 50.412824 32.943684 6.709617
3500 0 3 -1.050000 46.163467 37.194535 3.959650
3501 0 3 -1.050000 50.159579 35.275622 9.387156
3502 0 3 -1.050000 44.562447 40.063405 4.095162
3503 0 3 -1.050000 53.570511 39.577688 6.709617
3504 0 3 -1.050000 52.013844 33.772211 3.959650
3505 0 3 -1.050000 51.677615 38.192403 9.387156
3506 0 3 -1.050000 50.329840 30.951252 4.095162
3507 0 3 -1.050000 46.246451 38.995323 6.709617
3508 0 3 -1.050000 52.052475 40.549948 3.959650
3509 0 3 -1.050000 48.392591 38.048670 0.625577
3510 0 3 -1.050000 48.183700 36.371790 7.015688
3511 0 3 -1.050000 50.412824 41.204180 9.630144
3512 0 3 -1.050000 53.317266 33.064287 6.880176
3513 0 3 -1.050000 50.159579 35.275622 0.625577
3514 0 3 -1.050000 51.716246 35.933157 7.015688
3515 0 3 -1.050000 46.416711 35.447440 9.630144
3516 0 3 -1.050000 52.013844 42.032707 6.880176
3517 0 3 -1.050000 51.677615 38.192403 0.625577
3518 0 3 -1.050000 50.329840 39.211748 7.015688
3519 0 3 -1.050000 53.400250 34.865075 9.630144
3520 0 3 -1.050000 44.898675 36.419700 6.880176
3521 0 2 2.100000 50.076595 28.911736 7.498159
3522 0 2 2.100000 46.499695 26.846612 13.339212
3523 0 2 2.100000 50.076595 33.041984 13.339212
3524 0 1 1.575000 53.653495 26.846612 13.339212
3525 0 1 1.575000 53.653495 30.976860 10.418686
3526 0 1 1.575000 50.076595 0.000000 10.418686
3527 0 1 1.575000 46.499695 30.976860 10.418686
3528 0 1 1.575000 53.412412 28.772546 7.301316
3529 0 1 1.575000 50.317678 47.637041 7.695003
3530 0 1 1.575000 50.317678 31.116049 10.615529
3531 0 1 1.575000 48.529228 31.870232 7.301316
3532 0 1 1.575000 55.200862 32.148611 7.695003
3533 0 2 2.100000 48.047062 28.018363 10.615529
3534 0 1 1.575000 48.288145 26.092428 7.301316
3535 0 1 1.575000 44.711246 31.731043 7.695003
3536 0 1 1.575000 51.865045 27.600795 10.615529
3537 0 1 1.575000 53.894578 24.920677 10.615529
3538 0 2 2.100000 56.989311 30.837670 10.221842
3539 0 1 1.575000 49.835512 26.707422 13.142369
3540 0 1 1.575000 46.740779 29.050925 7.695003
3541 0 1 1.575000 51.623962 34.213735 10.615529
3542 0 1 1.575000 44.952329 33.935356 10.221842
3543 0 1 1.575000 52.106128 29.805108 13.142369
3544 0 1 1.575000 51.623962 25.953239 7.695003
3545 0 2 2.100000 44.711246 27.600795 10.615529
3546 0 1 1.575000 48.288145 46.743668 10.221842
3547 0 1 1.575000 48.288145 30.222676 13.142369
3548 0 1 1.575000 51.865045 31.731043 7.695003
3549 0 3 -1.050000 51.760599 28.035297 8.529689
3550 0 3 -1.050000 44.815691 25.581930 13.821683
3551 0 3 -1.050000 49.740367 33.140284 11.207228
3552 0 3 -1.050000 53.989723 28.889432 13.957195
3553 0 3 -1.050000 49.993611 30.808346 8.529689
3554 0 3 -1.050000 55.590744 26.020562 13.821683
3555 0 3 -1.050000 46.582680 26.506279 11.207228
3556 0 3 -1.050000 48.139346 32.311756 13.957195
3557 0 3 -1.050000 48.475575 27.891564 8.529689
3558 0 3 -1.050000 49.823351 35.132715 13.821683
3559 0 3 -1.050000 53.906739 27.088644 11.207228
3560 0 3 -1.050000 48.100716 25.534019 13.957195
3561 0 3 -1.050000 51.969490 29.712178 10.901157
3562 0 3 -1.050000 49.740367 24.879788 8.286701
3563 0 3 -1.050000 46.835924 33.019680 11.036669
3564 0 3 -1.050000 48.436944 30.150810 10.901157
3565 0 3 -1.050000 53.736479 30.636527 8.286701
3566 0 3 -1.050000 48.139346 48.832748 11.036669
3567 0 3 -1.050000 49.823351 26.872219 10.901157
3568 0 3 -1.050000 46.752940 31.218892 8.286701
3569 0 3 -1.050000 55.254515 29.664267 11.036669
3570 0 3 -1.050000 55.337499 32.241542 9.936215
3571 0 3 -1.050000 50.412824 49.464676 12.550670
3572 0 3 -1.050000 46.163467 28.934039 9.800702
3573 0 3 -1.050000 44.562447 31.802909 9.936215
3574 0 3 -1.050000 53.570511 31.317192 12.550670
3575 0 3 -1.050000 52.013844 25.511716 9.800702
3576 0 3 -1.050000 50.329840 47.472244 9.936215
3577 0 3 -1.050000 46.246451 30.734827 12.550670
3578 0 3 -1.050000 52.052475 32.289452 9.800702
3579 0 3 -1.050000 48.392591 29.788174 6.466629
3580 0 3 -1.050000 48.183700 28.111294 12.856741
3581 0 3 -1.050000 53.317266 24.803791 12.721229
3582 0 3 -1.050000 50.159579 27.015126 6.466629
3583 0 3 -1.050000 51.716246 27.672661 12.856741
3584 0 3 -1.050000 52.013844 33.772211 12.721229
3585 0 3 -1.050000 51.677615 29.931907 6.466629
3586 0 3 -1.050000 50.329840 30.951252 12.856741
3587 0 3 -1.050000 44.898675 28.159205 12.721229
3588 0 1 1.575000 42.922796 41.302480 7.498159
3589 0 1 1.575000 53.653495 39.237356 13.339212
3590 0 1 1.575000 42.922796 45.432728 13.339212
3591 0 1 1.575000 46.499695 39.237356 13.339212
3592 0 1 1.575000 46.499695 43.367604 10.418686
3593 0 1 1.575000 42.922796 37.172232 10.418686
3594 0 1 1.575000 53.653495 43.367604 10.418686
3595 0 1 1.575000 46.258612 41.163290 7.301316
3596 0 1 1.575000 43.163879 35.246297 7.695003
3597 0 1 1.575000 43.163879 43.506793 10.615529
3598 0 1 1.575000 55.683028 44.260976 7.301316
3599 0 2 2.100000 48.047062 44.539355 7.695003
3600 0 1 1.575000 55.200862 40.409107 10.615529
3601 0 1 1.575000 55.441945 38.483172 7.301316
3602 0 1 1.575000 51.865045 44.121787 7.695003
3603 0 1 1.575000 44.711246 39.991539 10.615529
3604 0 1 1.575000 46.740779 37.311421 10.615529
3605 0 1 1.575000 49.835512 43.228414 10.221842
3606 0 1 1.575000 56.989311 39.098166 13.142369
3607 0 1 1.575000 53.894578 41.441669 7.695003
3608 0 1 1.575000 44.470163 46.604479 10.615529
3609 0 1 1.575000 52.106128 46.326100 10.221842
3610 0 1 1.575000 44.952329 42.195852 13.142369
3611 0 1 1.575000 44.470163 38.343983 7.695003
3612 0 1 1.575000 51.865045 39.991539 10.615529
3613 0 1 1.575000 55.441945 34.352924 10.221842
3614 0 1 1.575000 55.441945 42.613420 13.142369
3615 0 1 1.575000 44.711246 44.121787 7.695003
3616 0 3 -1.050000 44.606800 40.426041 8.529689
3617 0 3 -1.050000 51.969490 37.972674 13.821683
3618 0 3 -1.050000 56.894166 45.531027 11.207228
3619 0 3 -1.050000 46.835924 41.280176 13.957195
3620 0 3 -1.050000 57.147410 43.199089 8.529689
3621 0 3 -1.050000 48.436944 38.411306 13.821683
3622 0 3 -1.050000 53.736479 38.897023 11.207228
3623 0 3 -1.050000 55.293146 44.702500 13.957195
3624 0 3 -1.050000 55.629374 40.282308 8.529689
3625 0 3 -1.050000 56.977150 47.523459 13.821683
3626 0 3 -1.050000 46.752940 39.479388 11.207228
3627 0 3 -1.050000 55.254515 37.924763 13.957195
3628 0 3 -1.050000 44.815691 42.102922 10.901157
3629 0 3 -1.050000 56.894166 37.270531 8.286701
3630 0 3 -1.050000 53.989723 45.410424 11.036669
3631 0 3 -1.050000 55.590744 42.541554 10.901157
3632 0 3 -1.050000 46.582680 43.027271 8.286701
3633 0 3 -1.050000 55.293146 36.442004 11.036669
3634 0 3 -1.050000 56.977150 39.262963 10.901157
3635 0 3 -1.050000 53.906739 43.609636 8.286701
3636 0 3 -1.050000 48.100716 42.055011 11.036669
3637 0 3 -1.050000 48.183700 44.632285 9.936215
3638 0 3 -1.050000 43.259024 37.073932 12.550670
3639 0 3 -1.050000 53.317266 41.324783 9.800702
3640 0 3 -1.050000 51.716246 44.193653 9.936215
3641 0 3 -1.050000 46.416711 43.707936 12.550670
3642 0 3 -1.050000 44.860045 37.902459 9.800702
3643 0 3 -1.050000 43.176040 35.081500 9.936215
3644 0 3 -1.050000 53.400250 43.125571 12.550670
3645 0 3 -1.050000 44.898675 44.680196 9.800702
3646 0 3 -1.050000 55.546390 42.178918 6.466629
3647 0 3 -1.050000 55.337499 40.502037 12.856741
3648 0 3 -1.050000 46.163467 37.194535 12.721229
3649 0 3 -1.050000 43.005780 39.405870 6.466629
3650 0 3 -1.050000 44.562447 40.063405 12.856741
3651 0 3 -1.050000 44.860045 46.162955 12.721229
3652 0 3 -1.050000 44.523816 42.322651 6.466629
3653 0 3 -1.050000 43.176040 43.341996 12.856741
3654 0 3 -1.050000 52.052475 40.549948 12.721229
3655 0 1 1.575000 42.922796 33.041984 13.339212
3656 0 1 1.575000 53.653495 30.976860 1.657107
3657 0 1 1.575000 42.922796 37.172232 1.657107
3658 0 1 1.575000 46.499695 30.976860 1.657107
3659 0 1 1.575000 42.922796 33.041984 4.577633
3660 0 1 1.575000 46.258612 32.902794 13.142369
3661 0 1 1.575000 43.163879 26.985801 13.536055
3662 0 2 2.100000 46.258612 32.902794 4.380790
3663 0 1 1.575000 55.683028 36.000480 13.142369
3664 0 2 2.100000 48.047062 36.278859 13.536055
3665 0 1 1.575000 55.683028 36.000480 4.380790
3666 0 1 1.575000 55.441945 30.222676 13.142369
3667 0 1 1.575000 51.865045 35.861291 13.536055
3668 0 1 1.575000 55.441945 30.222676 4.380790
3669 0 1 1.575000 56.989311 30.837670 1.460263
3670 0 1 1.575000 53.894578 33.181173 13.536055
3671 0 1 1.575000 44.952329 33.935356 1.460263
3672 0 1 1.575000 44.470163 30.083487 13.536055
3673 0 1 1.575000 55.441945 34.352924 1.460263
3674 0 1 1.575000 44.711246 35.861291 13.536055
3675 0 3 -1.050000 44.606800 32.165545 14.370742
3676 0 3 -1.050000 51.969490 29.712178 2.139578
3677 0 3 -1.050000 46.835924 33.019680 2.275090
3678 0 3 -1.050000 57.147410 34.938593 14.370742
3679 0 3 -1.050000 48.436944 30.150810 2.139578
3680 0 3 -1.050000 55.293146 36.442004 2.275090
3681 0 3 -1.050000 55.629374 32.021812 14.370742
3682 0 3 -1.050000 56.977150 39.262963 2.139578
3683 0 3 -1.050000 55.254515 29.664267 2.275090
3684 0 3 -1.050000 44.606800 32.165545 5.609163
3685 0 3 -1.050000 56.894166 29.010036 14.127754
3686 0 3 -1.050000 57.147410 34.938593 5.609163
3687 0 3 -1.050000 46.582680 34.766775 14.127754
3688 0 3 -1.050000 55.629374 32.021812 5.609163
3689 0 3 -1.050000 53.906739 35.349140 14.127754
3690 0 3 -1.050000 55.546390 33.918422 3.546103
3691 0 3 -1.050000 43.259024 28.813436 0.868565
3692 0 3 -1.050000 43.005780 31.145374 3.546103
3693 0 3 -1.050000 46.416711 35.447440 0.868565
3694 0 3 -1.050000 44.523816 34.062155 3.546103
3695 0 3 -1.050000 53.400250 34.865075 0.868565
3696 0 3 -1.050000 55.546390 33.918422 12.307682
3697 0 3 -1.050000 55.337499 32.241542 1.174636
3698 0 3 -1.050000 43.259024 37.073932 3.789091
3699 0 3 -1.050000 46.163467 28.934039 1.039123
3700 0 3 -1.050000 43.005780 31.145374 12.307682
3701 0 3 -1.050000 44.562447 31.802909 1.174636
3702 0 3 -1.050000 53.570511 31.317192 3.789091
3703 0 3 -1.050000 44.860045 37.902459 1.039123
3704 0 3 -1.050000 44.523816 34.062155 12.307682
3705 0 3 -1.050000 43.176040 35.081500 1.174636
3706 0 3 -1.050000 46.246451 30.734827 3.789091
3707 0 3 -1.050000 52.052475 32.289452 1.039123
3708 0 1 1.575000 50.076595 45.432728 13.339212
3709 0 1 1.575000 46.499695 43.367604 1.657107
3710 0 1 1.575000 50.076595 49.562975 1.657107
3711 0 1 1.575000 53.653495 43.367604 1.657107
3712 0 1 1.575000 50.076595 45.432728 4.577633
3713 0 1 1.575000 53.412412 45.293538 13.142369
3714 0 1 1.575000 50.317678 39.376545 13.536055
3715 0 1 1.575000 53.412412 45.293538 4.380790
3716 0 1 1.575000 48.529228 48.391224 13.142369
3717 0 1 1.575000 55.200862 48.669603 13.536055
3718 0 1 1.575000 48.529228 48.391224 4.380790
3719 0 1 1.575000 48.288145 42.613420 13.142369
3720 0 1 1.575000 44.711246 48.252035 13.536055
3721 0 1 1.575000 48.288145 42.613420 4.380790
3722 0 1 1.575000 49.835512 43.228414 1.460263
3723 0 1 1.575000 46.740779 45.571917 13.536055
3724 0 1 1.575000 52.106128 46.326100 1.460263
3725 0 1 1.575000 51.623962 42.474231 13.536055
3726 0 1 1.575000 48.288145 46.743668 1.460263
3727 0 2 2.100000 51.865045 48.252035 13.536055
3728 0 3 -1.050000 51.760599 44.556289 14.370742
3729 0 3 -1.050000 44.815691 42.102922 2.139578
3730 0 3 -1.050000 53.989723 45.410424 2.275090
3731 0 3 -1.050000 49.993611 47.329337 14.370742
3732 0 3 -1.050000 55.590744 42.541554 2.139578
3733 0 3 -1.050000 48.139346 48.832748 2.275090
3734 0 3 -1.050000 48.475575 44.412556 14.370742
3735 0 3 -1.050000 49.823351 26.872219 2.139578
3736 0 3 -1.050000 48.100716 42.055011 2.275090
3737 0 3 -1.050000 51.760599 44.556289 5.609163
3738 0 3 -1.050000 49.740367 41.400779 14.127754
3739 0 3 -1.050000 49.993611 47.329337 5.609163
3740 0 3 -1.050000 53.736479 47.157519 14.127754
3741 0 3 -1.050000 48.475575 44.412556 5.609163
3742 0 3 -1.050000 46.752940 47.739884 14.127754
3743 0 3 -1.050000 48.392591 46.309166 3.546103
3744 0 3 -1.050000 50.412824 41.204180 0.868565
3745 0 3 -1.050000 50.159579 43.536118 3.546103
3746 0 3 -1.050000 53.570511 47.838184 0.868565
3747 0 3 -1.050000 51.677615 46.452899 3.546103
3748 0 3 -1.050000 46.246451 47.255819 0.868565
3749 0 3 -1.050000 48.392591 46.309166 12.307682
3750 0 3 -1.050000 48.183700 44.632285 1.174636
3751 0 3 -1.050000 50.412824 49.464676 3.789091
3752 0 3 -1.050000 53.317266 41.324783 1.039123
3753 0 3 -1.050000 50.159579 43.536118 12.307682
3754 0 3 -1.050000 51.716246 44.193653 1.174636
3755 0 3 -1.050000 46.416711 43.707936 3.789091
3756 0 3 -1.050000 52.013844 25.511716 1.039123
3757 0 3 -1.050000 51.677615 46.452899 12.307682
3758 0 3 -1.050000 50.329840 47.472244 1.174636
3759 0 3 -1.050000 53.400250 43.125571 3.789091
3760 0 3 -1.050000 44.898675 44.680196 1.039123
3761 0 1 1.575000 50.076595 28.911736 16.259738
3762 0 1 1.575000 53.412412 28.772546 16.062895
3763 0 1 1.575000 48.529228 31.870232 16.062895
3764 0 1 1.575000 48.288145 26.092428 16.062895
3765 0 3 -1.050000 51.760599 28.035297 17.291268
3766 0 3 -1.050000 49.993611 30.808346 17.291268
3767 0 3 -1.050000 48.475575 27.891564 17.291268
3768 0 3 -1.050000 48.392591 29.788174 15.228208
3769 0 3 -1.050000 50.159579 27.015126 15.228208
3770 0 3 -1.050000 51.677615 29.931907 15.228208
3771 0 3 -1.050000 50.412824 32.943684 15.471196
3772 0 3 -1.050000 46.416711 27.186944 15.471196
3773 0 3 -1.050000 53.400250 26.604579 15.471196
3774 0 2 2.100000 42.922796 41.302480 16.259738
3775 0 1 1.575000 46.258612 41.163290 16.062895
3776 0 1 1.575000 55.683028 44.260976 16.062895
3777 0 1 1.575000 55.441945 38.483172 16.062895
3778 0 3 -1.050000 44.606800 40.426041 17.291268
3779 0 3 -1.050000 57.147410 43.199089 17.291268
3780 0 3 -1.050000 55.629374 40.282308 17.291268
3781 0 3 -1.050000 55.546390 42.178918 15.228208
3782 0 3 -1.050000 43.005780 39.405870 15.228208
3783 0 3 -1.050000 44.523816 42.322651 15.228208
3784 0 3 -1.050000 43.259024 45.334428 15.471196
3785 0 3 -1.050000 53.570511 39.577688 15.471196
3786 0 3 -1.050000 46.246451 38.995323 15.471196
3787 0 1 1.575000 46.499695 35.107108 16.259738
3788 0 1 1.575000 42.922796 28.911736 16.259738
3789 0 1 1.575000 53.653495 35.107108 16.259738
3790 0 1 1.575000 43.163879 35.246297 16.456582
3791 0 1 1.575000 55.200862 32.148611 16.456582
3792 0 1 1.575000 44.711246 31.731043 16.456582
3793 0 1 1.575000 46.740779 29.050925 16.456582
3794 0 1 1.575000 49.835512 34.967918 16.062895
3795 0 1 1.575000 44.470163 38.343983 16.456582
3796 0 1 1.575000 52.106128 38.065604 16.062895
3797 0 1 1.575000 51.865045 31.731043 16.456582
3798 0 1 1.575000 55.441945 26.092428 16.062895
3799 0 4 -0.950000 56.894166 37.270531 17.048280
3800 0 3 -1.050000 53.736479 30.636527 17.048280
3801 0 3 -1.050000 46.752940 31.218892 17.048280
3802 0 4 -0.950000 44.815691 33.842426 16.742209
3803 0 4 -0.950000 53.989723 37.149928 16.877722
3804 0 3 -1.050000 55.590744 34.281058 16.742209
3805 0 3 -1.050000 55.293146 28.181508 16.877722
3806 0 3 -1.050000 56.977150 31.002467 16.742209
3807 0 3 -1.050000 48.100716 33.794515 16.877722
3808 0 3 -1.050000 48.183700 36.371790 15.777267
3809 0 3 -1.050000 53.317266 33.064287 15.641755
3810 0 3 -1.050000 51.716246 35.933157 15.777267
3811 0 3 -1.050000 44.860045 29.641964 15.641755
3812 0 3 -1.050000 43.176040 26.821004 15.777267
3813 0 3 -1.050000 44.898675 36.419700 15.641755
3814 0 1 1.575000 53.653495 47.497851 16.259738
3815 0 1 1.575000 50.076595 41.302480 16.259738
3816 0 1 1.575000 46.499695 47.497851 16.259738
3817 0 1 1.575000 50.317678 47.637041 16.456582
3818 0 1 1.575000 48.047062 44.539355 16.456582
3819 0 1 1.575000 51.865045 44.121787 16.456582
3820 0 1 1.575000 53.894578 41.441669 16.456582
3821 0 1 1.575000 56.989311 47.358662 16.062895
3822 0 1 1.575000 51.623962 25.953239 16.456582
3823 0 1 1.575000 44.952329 25.674860 16.062895
3824 0 1 1.575000 44.711246 44.121787 16.456582
3825 0 1 1.575000 48.288145 38.483172 16.062895
3826 0 4 -0.950000 49.740367 24.879788 17.048280
3827 0 3 -1.050000 46.582680 43.027271 17.048280
3828 0 3 -1.050000 53.906739 43.609636 17.048280
3829 0 3 -1.050000 51.969490 46.233170 16.742209
3830 0 3 -1.050000 46.835924 49.540672 16.877722
3831 0 3 -1.050000 48.436944 46.671802 16.742209
3832 0 3 -1.050000 48.139346 40.572252 16.877722
3833 0 4 -0.950000 49.823351 43.393211 16.742209
3834 0 3 -1.050000 55.254515 46.185259 16.877722
3835 0 3 -1.050000 55.337499 48.762533 15.777267
3836 0 3 -1.050000 46.163467 45.455031 15.641755
3837 0 3 -1.050000 44.562447 48.323901 15.777267
3838 0 3 -1.050000 52.013844 42.032707 15.641755
3839 0 3 -1.050000 50.329840 39.211748 15.777267
3840 0 3 -1.050000 52.052475 48.810444 15.641755
3841 0 3 -1.050000 1.788450 29.944298 11.148817
3842 0 3 -1.050000 41.134346 27.879174 12.609080
3843 0 3 -1.050000 35.768997 45.432728 11.148817
3844 0 3 -1.050000 33.980547 1.032562 9.688554
3845 0 3 -1.050000 53.653495 4.130248 9.688554
3846 0 3 -1.050000 50.076595 12.390744 8.228291
3847 0 3 -1.050000 25.038298 16.520992 14.069344
3848 0 3 -1.050000 7.153799 37.172232 8.228291
3849 0 3 -1.050000 1.788450 19.618678 5.307765
3850 0 3 -1.050000 44.711246 13.423306 5.307765
3851 0 3 -1.050000 3.576900 24.781488 12.609080
3852 0 3 -1.050000 7.153799 45.432728 6.768028
3853 0 3 -1.050000 46.499695 4.130248 5.307765
3854 0 3 -1.050000 7.153799 28.911736 14.069344
3855 0 3 -1.050000 39.345896 41.302480 5.307765
3856 0 3 -1.050000 5.365349 15.488430 3.847501
3857 0 3 -1.050000 25.038298 12.390744 3.847501
3858 0 3 -1.050000 32.192097 41.302480 9.688554
3859 0 3 -1.050000 12.519149 11.358182 6.768028
3860 0 3 -1.050000 48.288145 34.074546 12.609080
3861 0 3 -1.050000 5.365349 34.074546 12.609080
3862 0 3 -1.050000 19.672948 34.074546 3.847501
3863 0 3 -1.050000 26.826747 3.097686 3.847501
3864 0 3 -1.050000 32.192097 12.390744 8.228291
3865 0 3 -1.050000 53.653495 16.520992 5.307765
3866 0 3 -1.050000 41.134346 46.465289 3.847501
3867 0 3 -1.050000 50.076595 28.911736 9.688554
3868 0 3 -1.050000 19.672948 1.032562 9.688554
3869 0 3 -1.050000 25.038298 33.041984 11.148817
3870 0 3 -1.050000 28.615197 41.302480 14.069344
3871 0 3 -1.050000 35.768997 4.130248 5.307765
3872 0 3 -1.050000 30.403647 27.879174 8.228291
3873 0 3 -1.050000 55.441945 21.683802 12.609080
3874 0 3 -1.050000 42.922796 41.302480 14.069344
3875 0 3 -1.050000 53.653495 12.390744 12.609080
3876 0 3 -1.050000 16.096048 44.400166 5.307765
3877 0 3 -1.050000 0.000000 24.781488 3.847501
3878 0 3 -1.050000 28.615197 8.260496 11.148817
3879 0 3 -1.050000 12.519149 44.400166 9.688554
3880 0 3 -1.050000 1.788450 38.204794 5.307765
3881 0 3 -1.050000 8.942249 1.032562 14.069344
3882 0 3 -1.050000 44.711246 19.618678 14.069344
3883 0 3 -1.050000 25.038298 45.432728 6.768028
3884 0 3 -1.050000 14.307599 24.781488 12.609080
3885 0 3 -1.050000 10.730699 28.911736 9.688554
3886 0 3 -1.050000 19.672948 40.269918 12.609080
3887 0 3 -1.050000 44.711246 27.879174 8.228291
3888 0 3 -1.050000 37.557446 32.009422 5.307765
3889 0 3 -1.050000 37.557446 17.553554 11.148817
3890 0 3 -1.050000 19.672948 23.748926 6.768028
3891 0 3 -1.050000 26.826747 27.879174 3.847501
3892 0 3 -1.050000 33.980547 9.293058 12.609080
3893 0 3 -1.050000 37.557446 32.009422 14.069344
3894 0 3 -1.050000 37.557446 9.293058 8.228291
3895 0 3 -1.050000 39.345896 20.651240 6.768028
3896 0 3 -1.050000 51.865045 1.032562 14.069344
3897 0 3 -1.050000 51.865045 25.814050 5.307765
3898 0 3 -1.050000 37.557446 23.748926 11.148817
3899 0 3 -1.050000 41.134346 3.097686 3.847501
3900 0 3 -1.050000 26.826747 36.139670 6.768028
3901 0 3 -1.050000 5.365349 9.293058 3.847501
3902 0 3 -1.050000 14.307599 8.260496 11.148817
3903 0 3 -1.050000 55.441945 46.465289 12.609080
3904 0 3 -1.050000 26.826747 21.683802 3.847501
3905 0 3 -1.050000 46.499695 24.781488 12.609080
3906 0 3 -1.050000 48.288145 42.335042 6.768028
3907 0 3 -1.050000 48.288145 9.293058 3.847501
3908 0 3 -1.050000 33.980547 9.293058 3.847501
3909 0 3 -1.050000 32.192097 24.781488 12.609080
3910 0 3 -1.050000 14.307599 0.000000 12.609080
3911 0 3 -1.050000 48.288145 34.074546 3.847501
3912 0 4 -0.950000 48.767246 19.528089 18.415800
3913 0 5 0.425000 48.936434 19.474108 19.369405
3914 0 5 0.425000 49.433578 18.785239 17.613340
3915 0 4 -0.950000 20.152049 44.309576 18.415800
3916 0 5 0.425000 20.321237 44.255596 19.369405
3917 0 5 0.425000 20.818381 43.566727 17.613340
3918 0 4 -0.950000 20.152049 19.528089 18.415800
3919 0 5 0.425000 20.321237 19.474108 19.369405
3920 0 5 0.425000 20.818381 18.785239 17.613340
3921 0 4 -0.950000 48.767246 44.309576 18.415800
3922 0 5 0.425000 48.936434 44.255596 19.369405
3923 0 5 0.425000 49.433578 43.566727 17.613340
3924 0 4 -0.950000 1.627352 7.688142 18.415800
3925 0 5 0.425000 1.589506 7.861653 19.369405
3926 0 5 0.425000 1.937512 8.636627 17.613340
3927 0 4 -0.950000 1.627352 32.469630 18.415800
3928 0 5 0.425000 1.589506 32.643141 19.369405
3929 0 5 0.425000 1.937512 33.418115 17.613340
3930 0 4 -0.950000 30.242549 7.688142 18.415800
3931 0 5 0.425000 30.204703 7.861653 19.369405
3932 0 5 0.425000 30.552709 8.636627 17.613340
3933 0 4 -0.950000 30.242549 32.469630 18.415800
3934 0 5 0.425000 30.204703 32.643141 19.369405
3935 0 5 0.425000 30.552709 33.418115 17.613340
3936 0 4 -0.950000 5.844451 19.528089 18.415800
3937 0 5 0.425000 6.013639 19.474108 19.369405
3938 0 5 0.425000 6.510782 18.785239 17.613340
3939 0 4 -0.950000 5.844451 44.309576 18.415800
3940 0 5 0.425000 6.013639 44.255596 19.369405
3941 0 5 0.425000 6.510782 43.566727 17.613340
3942 0 4 -0.950000 15.934950 7.688142 18.415800
3943 0 5 0.425000 15.897105 7.861653 19.369405
3944 0 5 0.425000 16.245111 8.636627 17.613340
3945 0 4 -0.950000 15.934950 32.469630 18.415800
3946 0 5 0.425000 15.897105 32.643141 19.369405
3947 0 5 0.425000 16.245111 33.418115 17.613340
3948 0 4 -0.950000 34.459648 19.528089 18.415800
3949 0 5 0.425000 34.628836 19.474108 19.369405
3950 0 5 0.425000 35.125979 18.785239 17.613340
3951 0 4 -0.950000 34.459648 44.309576 18.415800
3952 0 5 0.425000 34.628836 44.255596 19.369405
3953 0 5 0.425000 35.125979 43.566727 17.613340
3954 0 4 -0.950000 44.550148 7.688142 18.415800
3955 0 5 0.425000 44.512302 7.861653 19.369405
3956 0 5 0.425000 44.860308 8.636627 17.613340
3957 0 4 -0.950000 44.550148 32.469630 18.415800
3958 0 5 0.425000 44.512302 32.643141 19.369405
3959 0 5 0.425000 44.860308 33.418115 17.613340
3960 0 4 -0.950000 8.458636 38.390052 18.007001
3961 0 5 0.425000 8.288070 38.466415 18.958829
3962 0 5 0.425000 11.347900 37.071865 17.802849
3963 0 4 -0.950000 22.766235 38.390052 18.007001
3964 0 5 0.425000 22.595669 38.466415 18.958829
3965 0 5 0.425000 25.655498 37.071865 17.802849
3966 0 4 -0.950000 37.073833 38.390052 18.007001
3967 0 5 0.425000 36.903267 38.466415 18.958829
3968 0 5 0.425000 39.963097 37.071865 17.802849
3969 0 4 -0.950000 51.381432 38.390052 18.007001
3970 0 5 0.425000 51.210866 38.466415 18.958829
3971 0 5 0.425000 54.270695 37.071865 17.802849
3972 0 4 -0.950000 8.458636 13.608565 18.007001
3973 0 5 0.425000 8.288070 13.684927 18.958829
3974 0 5 0.425000 11.347900 12.290378 17.802849
3975 0 4 -0.950000 22.766235 13.608565 18.007001
3976 0 5 0.425000 22.595669 13.684927 18.958829
3977 0 5 0.425000 25.655498 12.290378 17.802849
3978 0 4 -0.950000 37.073833 13.608565 18.007001
3979 0 5 0.425000 36.903267 13.684927 18.958829
3980 0 5 0.425000 39.963097 12.290378 17.802849
3981 0 4 -0.950000 51.381432 13.608565 18.007001
3982 0 5 0.425000 51.210866 13.684927 18.958829
3983 0 5 0.425000 54.270695 12.290378 17.802849
3984 0 4 -0.950000 38.242328 0.415500 18.183045
3985 0 5 0.425000 38.466377 0.232515 19.108906
3986 0 5 0.425000 35.057064 49.553972 17.936105
3987 0 4 -0.950000 38.242328 25.196988 18.183045
3988 0 5 0.425000 38.466377 25.014003 19.108906
3989 0 5 0.425000 35.057064 24.772485 17.936105
3990 0 4 -0.950000 23.934729 0.415500 18.183045
3991 0 5 0.425000 24.158778 0.232515 19.108906
3992 0 5 0.425000 20.749466 49.553972 17.936105
3993 0 4 -0.950000 9.627130 25.196988 18.183045
3994 0 5 0.425000 9.851179 25.014003 19.108906
3995 0 5 0.425000 6.441867 24.772485 17.936105
3996 0 4 -0.950000 23.934729 25.196988 18.183045
3997 0 5 0.425000 24.158778 25.014003 19.108906
3998 0 5 0.425000 20.749466 24.772485 17.936105
3999 0 4 -0.950000 52.549926 25.196988 18.183045
4000 0 5 0.425000 52.773975 25.014003 19.108906
4001 0 5 0.425000 49.364663 24.772485 17.936105
4002 0 4 -0.950000 12.600517 0.521111 18.007001
4003 0 5 0.425000 12.619668 0.335216 18.958829
4004 0 5 0.425000 12.297468 3.682380 17.802849
4005 0 4 -0.950000 55.523312 0.521111 18.007001
4006 0 5 0.425000 55.542463 0.335216 18.958829
4007 0 5 0.425000 55.220264 3.682380 17.802849
4008 0 4 -0.950000 2.473331 12.806244 18.183045
4009 0 5 0.425000 2.697380 12.623259 19.108906
4010 0 5 0.425000 56.518462 12.381741 17.936105
4011 0 4 -0.950000 16.780930 12.806244 18.183045
4012 0 5 0.425000 17.004979 12.623259 19.108906
4013 0 5 0.425000 13.595666 12.381741 17.936105
4014 0 4 -0.950000 45.396127 12.806244 18.183045
4015 0 5 0.425000 45.620176 12.623259 19.108906
4016 0 5 0.425000 42.210864 12.381741 17.936105
4017 0 4 -0.950000 31.088528 12.806244 18.183045
4018 0 5 0.425000 31.312577 12.623259 19.108906
4019 0 5 0.425000 27.903265 12.381741 17.936105
4020 0 4 -0.950000 2.473331 37.587732 18.183045
4021 0 5 0.425000 2.697380 37.404747 19.108906
4022 0 5 0.425000 56.518462 37.163228 17.936105
4023 0 4 -0.950000 16.780930 37.587732 18.183045
4024 0 5 0.425000 17.004979 37.404747 19.108906
4025 0 5 0.425000 13.595666 37.163228 17.936105
4026 0 4 -0.950000 45.396127 37.587732 18.183045
4027 0 5 0.425000 45.620176 37.404747 19.108906
4028 0 5 0.425000 42.210864 37.163228 17.936105
4029 0 4 -0.950000 31.088528 37.587732 18.183045
4030 0 5 0.425000 31.312577 37.404747 19.108906
4031 0 5 0.425000 27.903265 37.163228 17.936105
4032 0 4 -0.950000 9.134200 8.129590 18.183045
4033 0 5 0.425000 9.180645 8.415114 19.108906
4034 0 5 0.425000 11.094462 5.583322 17.936105
4035 0 4 -0.950000 52.056996 8.129590 18.183045
4036 0 5 0.425000 52.103441 8.415114 19.108906
4037 0 5 0.425000 54.017258 5.583322 17.936105
4038 0 4 -0.950000 43.325041 23.042556 18.007001
4039 0 5 0.425000 43.476456 23.152089 18.958829
4040 0 5 0.425000 40.738826 21.199474 17.802849
4041 0 4 -0.950000 43.325041 47.824043 18.007001
4042 0 5 0.425000 43.476456 47.933576 18.958829
4043 0 5 0.425000 40.738826 45.980961 17.802849
4044 0 4 -0.950000 14.709844 23.042556 18.007001
4045 0 5 0.425000 14.861259 23.152089 18.958829
4046 0 5 0.425000 12.123629 21.199474 17.802849
4047 0 4 -0.950000 29.017443 23.042556 18.007001
4048 0 5 0.425000 29.168857 23.152089 18.958829
4049 0 5 0.425000 26.431227 21.199474 17.802849
4050 0 4 -0.950000 29.017443 47.824043 18.007001
4051 0 5 0.425000 29.168857 47.933576 18.958829
4052 0 5 0.425000 26.431227 45.980961 17.802849
4053 0 4 -0.950000 1.304837 25.999308 18.007001
4054 0 5 0.425000 1.134271 26.075671 18.958829
4055 0 5 0.425000 4.194100 24.681121 17.802849
