LAMMPS data file Created by LigParGen - (Written by Leela S. Dodda)

      59 atoms
      63 bonds
     109 angles
     158 dihedrals
      35 impropers
 
      59 atom types
      63 bond types
     109 angle types
     158 dihedral types
      35 improper types
 
   -5.762440    44.237560 xlo xhi
   -5.269880    44.730120 ylo yhi
   -6.284010    43.715990 zlo zhi

Masses

       1     12.011  
       2     12.011  
       3     14.007  
       4     12.011  
       5     12.011  
       6     12.011  
       7     12.011  
       8     30.974  
       9     15.999  
      10     15.999  
      11     15.999  
      12     12.011  
      13     12.011  
      14     12.011  
      15     12.011  
      16     12.011  
      17     12.011  
      18     15.999  
      19     12.011  
      20     12.011  
      21     12.011  
      22     12.011  
      23     12.011  
      24      1.008  
      25      1.008  
      26      1.008  
      27      1.008  
      28      1.008  
      29      1.008  
      30      1.008  
      31      1.008  
      32      1.008  
      33      1.008  
      34      1.008  
      35      1.008  
      36      1.008  
      37      1.008  
      38      1.008  
      39      1.008  
      40      1.008  
      41      1.008  
      42     12.011  
      43     12.011  
      44     12.011  
      45     12.011  
      46     15.999  
      47     12.011  
      48     12.011  
      49     12.011  
      50     12.011  
      51     12.011  
      52      1.008  
      53      1.008  
      54      1.008  
      55      1.008  
      56      1.008  
      57      1.008  
      58      1.008  
      59      1.008  

Pair Coeffs 

       1      0.070  3.5500000 
       2      0.080  3.5000000 
       3      0.170  3.2500000 
       4      0.066  3.5000000 
       5      0.066  3.5000000 
       6      0.066  3.5000000 
       7      0.066  3.5000000 
       8      0.200  3.7400000 
       9      0.210  2.9600000 
      10      0.170  3.1200000 
      11      0.170  3.1200000 
      12      0.080  3.5000000 
      13      0.070  3.5500000 
      14      0.080  3.5000000 
      15      0.070  3.5500000 
      16      0.070  3.5500000 
      17      0.070  3.5500000 
      18      0.140  2.9000000 
      19      0.066  3.5000000 
      20      0.070  3.5500000 
      21      0.080  3.5000000 
      22      0.070  3.5500000 
      23      0.070  3.5500000 
      24      0.030  2.5000000 
      25      0.030  2.5000000 
      26      0.030  2.5000000 
      27      0.030  2.5000000 
      28      0.030  2.5000000 
      29      0.030  2.5000000 
      30      0.030  2.5000000 
      31      0.030  2.5000000 
      32      0.000  0.0000000 
      33      0.000  0.0000000 
      34      0.030  2.4200000 
      35      0.030  2.4200000 
      36      0.030  2.5000000 
      37      0.030  2.5000000 
      38      0.030  2.5000000 
      39      0.030  2.4200000 
      40      0.030  2.4200000 
      41      0.030  2.4200000 
      42      0.080  3.5000000 
      43      0.070  3.5500000 
      44      0.070  3.5500000 
      45      0.070  3.5500000 
      46      0.140  2.9000000 
      47      0.066  3.5000000 
      48      0.070  3.5500000 
      49      0.080  3.5000000 
      50      0.070  3.5500000 
      51      0.070  3.5500000 
      52      0.030  2.4200000 
      53      0.030  2.5000000 
      54      0.030  2.5000000 
      55      0.030  2.5000000 
      56      0.030  2.4200000 
      57      0.030  2.4200000 
      58      0.030  2.4200000 
      59      0.030  2.4200000 

Bond Coeffs 

       1   469.0000     1.4240 
       2   436.0000     1.3740 
       3   337.0000     1.4750 
       4   268.0000     1.5290 
       5   268.0000     1.5290 
       6   268.0000     1.5290 
       7   212.0000     1.8430 
       8   525.0000     1.4800 
       9   230.0000     1.6100 
      10   230.0000     1.6100 
      11   436.0000     1.3740 
      12   469.0000     1.4240 
      13   469.0000     1.4240 
      14   469.0000     1.4040 
      15   469.0000     1.4000 
      16   469.0000     1.4000 
      17   450.0000     1.3640 
      18   320.0000     1.4100 
      19   469.0000     1.4000 
      20   520.0000     1.3700 
      21   469.0000     1.4040 
      22   469.0000     1.4040 
      23   340.0000     1.0900 
      24   340.0000     1.0900 
      25   340.0000     1.0900 
      26   340.0000     1.0900 
      27   340.0000     1.0900 
      28   340.0000     1.0900 
      29   340.0000     1.0900 
      30   340.0000     1.0900 
      31   553.0000     0.9450 
      32   553.0000     0.9450 
      33   367.0000     1.0800 
      34   367.0000     1.0800 
      35   340.0000     1.0900 
      36   340.0000     1.0900 
      37   340.0000     1.0900 
      38   367.0000     1.0800 
      39   367.0000     1.0800 
      40   367.0000     1.0800 
      41   469.0000     1.4240 
      42   469.0000     1.4040 
      43   469.0000     1.4000 
      44   469.0000     1.4000 
      45   450.0000     1.3640 
      46   320.0000     1.4100 
      47   469.0000     1.4000 
      48   520.0000     1.3700 
      49   469.0000     1.4040 
      50   469.0000     1.4040 
      51   367.0000     1.0800 
      52   340.0000     1.0900 
      53   340.0000     1.0900 
      54   340.0000     1.0900 
      55   367.0000     1.0800 
      56   367.0000     1.0800 
      57   367.0000     1.0800 
      58   367.0000     1.0800 
      59   469.0000     1.4240 
      60   469.0000     1.4040 
      61   469.0000     1.4000 
      62   469.0000     1.4040 
      63   469.0000     1.4000 

Angle Coeffs 

       1     70.000    107.700
       2     70.000    125.800
       3     51.650    110.580
       4     58.350    112.700
       5     58.350    112.700
       6     43.000    109.500
       7     45.000    109.500
       8     63.570    108.400
       9     63.570    108.400
      10     70.000    125.200
      11     70.000    107.300
      12     70.000    107.300
      13     85.000    134.900
      14     63.000    120.000
      15     63.000    120.000
      16     70.000    120.000
      17     75.000    111.000
      18     63.000    120.000
      19     70.000    107.300
      20     85.000    117.300
      21     70.000    108.700
      22     35.000    109.500
      23     35.000    109.500
      24     37.500    110.700
      25     37.500    110.700
      26     37.500    110.700
      27     37.500    110.700
      28     37.500    110.700
      29     37.500    110.700
      30     55.000    108.500
      31     55.000    108.500
      32     35.000    120.000
      33     35.000    120.000
      34     35.000    109.500
      35     35.000    109.500
      36     35.000    109.500
      37     35.000    120.000
      38     35.000    120.000
      39     35.000    120.000
      40     63.000    120.000
      41     85.000    134.900
      42     63.000    120.000
      43     63.000    120.000
      44     70.000    120.000
      45     75.000    111.000
      46     63.000    120.000
      47     70.000    107.300
      48     85.000    117.300
      49     85.000    134.900
      50     35.000    120.000
      51     35.000    109.500
      52     35.000    109.500
      53     35.000    109.500
      54     35.000    120.000
      55     35.000    120.000
      56     35.000    120.000
      57     35.000    120.000
      58     33.000    107.800
      59     35.000    120.000
      60     35.000    120.000
      61     37.500    110.700
      62     70.000    107.300
      63     41.000    109.500
      64     85.000    117.300
      65     45.000    102.600
      66     33.000    107.800
      67     85.000    134.900
      68     37.500    110.700
      69     70.000    120.000
      70     35.000    120.000
      71     37.500    110.700
      72     41.000    109.500
      73     63.000    120.000
      74     35.000    120.000
      75     63.000    120.000
      76     85.000    117.300
      77     35.000    120.000
      78     33.000    107.800
      79     63.000    120.000
      80     85.000    117.300
      81     63.000    120.000
      82     33.000    107.800
      83     33.000    107.800
      84    100.000    108.230
      85     70.000    107.300
      86     37.500    110.700
      87    100.000    108.230
      88     35.000    120.000
      89     37.500    110.700
      90     70.000    108.700
      91     33.000    107.800
      92     63.000    120.000
      93     33.000    107.800
      94     70.000    125.800
      95     85.000    134.900
      96     33.000    107.800
      97     35.000    120.000
      98     35.000    120.000
      99     85.000    117.300
     100     70.000    107.700
     101     37.500    110.700
     102     33.000    107.800
     103     63.000    120.000
     104     35.000    120.000
     105     33.000    107.800
     106     35.000    120.000
     107     70.000    120.000
     108     63.000    120.000
     109     85.000    134.900

Dihedral Coeffs  

       1      0.000      7.250      0.000      0.000 
       2      1.000     -0.350      0.000      0.000 
       3      2.392     -0.674      0.550      0.000 
       4      1.300     -0.200      0.200      0.000 
       5      0.845     -0.962      0.713      0.000 
       6      2.250      0.000      0.000      0.000 
       7      0.000      2.170      0.000      0.000 
       8      0.000      7.250      0.000      0.000 
       9      0.000      7.000      0.000      0.000 
      10      0.000      7.250      0.000      0.000 
      11      0.000      7.250      0.000      0.000 
      12      0.000      3.000      0.000      0.000 
      13      1.500      5.500      0.000      0.000 
      14      1.500      5.500      0.000      0.000 
      15      0.000      0.000      0.760      0.000 
      16      0.000      7.250      0.000      0.000 
      17      0.000      7.000      0.000      0.000 
      18      0.000      7.250      0.000      0.000 
      19      0.000      7.250      0.000      0.000 
      20      0.000      3.000      0.000      0.000 
      21      0.000      0.000      0.760      0.000 
      22      0.000      7.250      0.000      0.000 
      23      0.000      7.250      0.000      0.000 
      24      0.000      0.000      0.300      0.000 
      25      0.000      0.000      0.250      0.000 
      26      0.000      0.000      0.300      0.000 
      27      0.000      7.250      0.000      0.000 
      28      0.000      7.250      0.000      0.000 
      29      0.000      0.000      0.000      0.000 
      30      0.000      0.000      0.250      0.000 
      31      0.000      7.250      0.000      0.000 
      32      0.000      7.250      0.000      0.000 
      33      0.000      0.000      0.300      0.000 
      34      0.000      7.250      0.000      0.000 
      35      0.000      7.250      0.000      0.000 
      36      0.000      7.250      0.000      0.000 
      37      0.000      0.000      0.300      0.000 
      38      0.000      7.250      0.000      0.000 
      39      0.000      7.000      0.000      0.000 
      40      0.000      7.250      0.000      0.000 
      41      0.000      7.250      0.000      0.000 
      42      0.000      2.170      0.000      0.000 
      43      0.000      0.000      0.300      0.000 
      44      0.000      7.250      0.000      0.000 
      45      0.000      0.000      0.300      0.000 
      46      0.000      7.000      0.000      0.000 
      47      0.000      0.000      0.300      0.000 
      48      0.000      2.170      0.000      0.000 
      49      0.000      2.170      0.000      0.000 
      50      0.000      7.250      0.000      0.000 
      51      0.000      7.250      0.000      0.000 
      52      0.000      0.000      0.000      0.000 
      53      0.000      7.250      0.000      0.000 
      54      0.000      7.250      0.000      0.000 
      55      0.000      7.250      0.000      0.000 
      56      0.000      7.250      0.000      0.000 
      57      0.000      2.170      0.000      0.000 
      58      0.000      7.000      0.000      0.000 
      59      0.000      0.000      0.760      0.000 
      60      0.000      0.000      0.000      0.000 
      61      0.000      2.170      0.000      0.000 
      62      0.000      7.000      0.000      0.000 
      63      0.000      7.250      0.000      0.000 
      64      0.000      7.250      0.000      0.000 
      65      0.000      0.000      0.300      0.000 
      66      0.000      0.000      0.760      0.000 
      67      0.000      7.000      0.000      0.000 
      68      0.000      7.000      0.000      0.000 
      69      0.000      0.000      0.300      0.000 
      70      0.000      7.250      0.000      0.000 
      71      0.000      7.000      0.000      0.000 
      72      0.000      7.250      0.000      0.000 
      73      0.000      7.250      0.000      0.000 
      74      0.000      7.250      0.000      0.000 
      75      0.000      7.250      0.000      0.000 
      76      0.000      7.250      0.000      0.000 
      77      0.000      7.250      0.000      0.000 
      78      0.000      7.000      0.000      0.000 
      79      0.000      7.250      0.000      0.000 
      80      0.000      7.250      0.000      0.000 
      81      0.000      7.250      0.000      0.000 
      82      0.000      7.000      0.000      0.000 
      83      0.000      0.000      0.300      0.000 
      84      0.000      7.250      0.000      0.000 
      85      0.000      7.000      0.000      0.000 
      86      0.000      0.000      0.000      0.000 
      87     -1.013     -0.709      0.473      0.000 
      88      0.000      7.250      0.000      0.000 
      89      0.000      7.250      0.000      0.000 
      90      0.000      0.000      0.300      0.000 
      91      0.000      7.250      0.000      0.000 
      92      0.000      0.000      0.250      0.000 
      93      0.000      7.250      0.000      0.000 
      94      0.000      7.000      0.000      0.000 
      95      0.000      7.250      0.000      0.000 
      96      0.000      7.250      0.000      0.000 
      97      0.000      3.000      0.000      0.000 
      98      0.000      7.250      0.000      0.000 
      99      0.000      7.250      0.000      0.000 
     100      0.000      7.250      0.000      0.000 
     101      0.000      7.250      0.000      0.000 
     102      0.000      7.250      0.000      0.000 
     103      0.000      0.000      0.760      0.000 
     104      0.000      7.250      0.000      0.000 
     105      0.000      0.000      0.000      0.000 
     106      0.000      7.250      0.000      0.000 
     107      0.000      0.000      0.300      0.000 
     108      0.000      0.000      0.000      0.000 
     109      0.000      7.250      0.000      0.000 
     110      0.000      7.250      0.000      0.000 
     111      0.000      7.250      0.000      0.000 
     112      0.000      7.000      0.000      0.000 
     113      0.000      7.250      0.000      0.000 
     114      2.250      0.000      0.000      0.000 
     115      0.000      7.250      0.000      0.000 
     116      0.000      7.250      0.000      0.000 
     117      0.000      0.000      0.250      0.000 
     118      0.000      0.000      0.250      0.000 
     119      0.000      7.250      0.000      0.000 
     120      0.000      7.250      0.000      0.000 
     121      0.000      7.250      0.000      0.000 
     122      0.000      0.000      0.300      0.000 
     123      0.000      7.250      0.000      0.000 
     124      0.000      0.000      0.760      0.000 
     125      0.000      0.000      0.300      0.000 
     126      0.000      7.250      0.000      0.000 
     127      0.000      7.250      0.000      0.000 
     128      0.000      0.000      0.000      0.000 
     129      0.000      0.000      0.300      0.000 
     130      0.000      0.000      0.300      0.000 
     131      0.000      7.000      0.000      0.000 
     132      0.000      7.250      0.000      0.000 
     133      0.000      0.000      0.250      0.000 
     134      0.000      7.250      0.000      0.000 
     135      0.000      7.250      0.000      0.000 
     136      0.000      7.250      0.000      0.000 
     137      0.000      7.000      0.000      0.000 
     138      0.000      7.250      0.000      0.000 
     139      0.000      0.000      0.300      0.000 
     140      0.000      7.250      0.000      0.000 
     141      0.000      7.250      0.000      0.000 
     142     -1.013     -0.709      0.473      0.000 
     143      2.250      0.000      0.000      0.000 
     144      1.000     -0.350      0.000      0.000 
     145      0.000      7.250      0.000      0.000 
     146      0.000      0.000      0.300      0.000 
     147      0.000      0.000      0.300      0.000 
     148      0.000      0.000      0.000      0.000 
     149      0.000      7.250      0.000      0.000 
     150      0.000      3.000      0.000      0.000 
     151      0.000      7.250      0.000      0.000 
     152      0.000      7.250      0.000      0.000 
     153      0.000      0.000      0.300      0.000 
     154      0.000      7.250      0.000      0.000 
     155      0.000      0.000      0.300      0.000 
     156      0.000      7.250      0.000      0.000 
     157      0.000      7.250      0.000      0.000 
     158      0.000      0.000      0.300      0.000 

Improper Coeffs 

       1      0.000      -1       2 
       2      0.000      -1       2 
       3      0.000      -1       2 
       4      2.500      -1       2 
       5      2.500      -1       2 
       6      2.500      -1       2 
       7      2.500      -1       2 
       8      2.500      -1       2 
       9      0.000      -1       2 
      10      0.000      -1       2 
      11      0.000      -1       2 
      12      0.000      -1       2 
      13      0.000      -1       2 
      14      0.000      -1       2 
      15      0.000      -1       2 
      16      0.000      -1       2 
      17      2.500      -1       2 
      18      2.500      -1       2 
      19      0.000      -1       2 
      20      0.000      -1       2 
      21      2.500      -1       2 
      22      2.500      -1       2 
      23      2.500      -1       2 
      24      2.500      -1       2 
      25      2.500      -1       2 
      26      2.500      -1       2 
      27      2.500      -1       2 
      28      2.500      -1       2 
      29      2.500      -1       2 
      30      0.000      -1       2 
      31      0.000      -1       2 
      32      2.500      -1       2 
      33      2.500      -1       2 
      34      2.500      -1       2 
      35      2.500      -1       2 

Atoms 

     1      1      1 -0.06840000    1.000  1.00000  0.00000
     2      1      2 0.08270000   -0.411  1.00000  0.00000
     3      1      3 -0.40000000   -0.873  1.00000  1.30428
     4      1      4 0.05300000   -2.254  0.85109  1.73633
     5      1      5 -0.20590000   -2.631 -0.59380  2.08734
     6      1      6 -0.14870000   -2.473 -1.55216  0.90349
     7      1      7 -0.85040000   -2.840 -3.01021  1.22112
     8      1      8 2.93400000   -4.613 -3.29615  1.42955
     9      1      9 -1.25640000   -5.523 -2.68397  0.43036
    10      1     10 -1.07160000   -4.765 -4.91547  1.51184
    11      1     11 -1.05440000   -4.836 -2.83402  2.96563
    12      1     12 0.08210000    0.221  1.03481  2.14691
    13      1     13 -0.06880000    1.404  1.10756  1.38599
    14      1     14 -0.00820000    2.638  1.36035  2.08122
    15      1     15 -0.10990000    3.832  1.79465  1.46685
    16      1     16 -0.21350000    4.990  2.02392  2.18406
    17      1     17 0.12170000    5.007  1.82513  3.58050
    18      1     18 -0.30950000    6.104  2.02424  4.37296
    19      1     19 -0.04570000    7.308  2.45896  3.76472
    20      1     20 -0.17200000    3.841  1.45494  4.22108
    21      1     21 -0.02880000    2.634  1.28286  3.51620
    22      1     22 -0.11650000    1.402  1.11187  4.22022
    23      1     23 -0.14250000    0.214  1.00340  3.55892
    24      1     24 0.11560000   -2.900  1.22849  0.94156
    25      1     25 0.11560000   -2.415  1.50396  2.59846
    26      1     26 0.10910000   -2.008 -0.93765  2.92032
    27      1     27 0.10910000   -3.662 -0.59802  2.45204
    28      1     28 0.11200000   -1.434 -1.53406  0.56356
    29      1     29 0.11200000   -3.079 -1.20755  0.06016
    30      1     30 0.14230000   -2.538 -3.66272  0.39699
    31      1     31 0.14230000   -2.330 -3.37222  2.11856
    32      1     32 0.47520000   -5.293 -5.26988  0.78652
    33      1     33 0.47040000   -5.762 -2.80918  3.23713
    34      1     34 0.16070000    3.833  2.01329  0.40856
    35      1     35 0.15220000    5.874  2.35749  1.65564
    36      1     36 0.09200000    8.033  2.54776  4.57251
    37      1     37 0.09200000    7.676  1.73239  3.03084
    38      1     38 0.09200000    7.189  3.43568  3.28122
    39      1     39 0.16320000    3.861  1.33884  5.29984
    40      1     40 0.15330000    1.423  1.11266  5.30549
    41      1     41 0.15250000   -0.714  0.89435  4.10835
    42      1     42 -0.00940000    1.675  0.80242 -1.25492
    43      1     43 -0.11040000    3.033  0.44321 -1.38873
    44      1     44 -0.21370000    3.632  0.26469 -2.62082
    45      1     45 0.12160000    2.882  0.44108 -3.80281
    46      1     46 -0.30900000    3.385  0.28855 -5.06511
    47      1     47 -0.04580000    4.749 -0.07062 -5.21137
    48      1     48 -0.17140000    1.537  0.73737 -3.70548
    49      1     49 -0.02880000    0.894  0.85593 -2.45950
    50      1     50 -0.11670000   -0.530  0.94884 -2.38315
    51      1     51 -0.14220000   -1.177  1.00150 -1.18679
    52      1     52 0.15210000    4.678 -0.01207 -2.65820
    53      1     53 0.09200000    4.926 -0.13329 -6.28401
    54      1     54 0.09200000    5.416  0.68588 -4.78208
    55      1     55 0.09200000    4.963 -1.04444 -4.75555
    56      1     56 0.16360000    0.964  0.83674 -4.62178
    57      1     57 0.15450000   -1.101  0.91598 -3.30531
    58      1     58 0.15520000   -2.260  1.04477 -1.15280
    59      1     59 0.16040000    3.617  0.24244 -0.50180

Bonds 

     1      1      2      1
     2      2      3      2
     3      3      4      3
     4      4      5      4
     5      5      6      5
     6      6      7      6
     7      7      8      7
     8      8      9      8
     9      9     10      8
    10     10     11      8
    11     11     12      3
    12     12     13      1
    13     13     14     13
    14     14     15     14
    15     15     16     15
    16     16     17     16
    17     17     18     17
    18     18     19     18
    19     19     20     17
    20     20     21     14
    21     21     22     21
    22     22     23     12
    23     23     24      4
    24     24     25      4
    25     25     26      5
    26     26     27      5
    27     27     28      6
    28     28     29      6
    29     29     30      7
    30     30     31      7
    31     31     32     10
    32     32     33     11
    33     33     34     15
    34     34     35     16
    35     35     36     19
    36     36     37     19
    37     37     38     19
    38     38     39     20
    39     39     40     22
    40     40     41     23
    41     41     42      1
    42     42     43     42
    43     43     44     43
    44     44     45     44
    45     45     46     45
    46     46     47     46
    47     47     48     45
    48     48     49     42
    49     49     50     49
    50     50     51      2
    51     51     52     44
    52     52     53     47
    53     53     54     47
    54     54     55     47
    55     55     56     48
    56     56     57     50
    57     57     58     51
    58     58     59     43
    59     59     13     12
    60     60     21     20
    61     61     23     22
    62     62     49     48
    63     63     51     50

Angles 

     1      1      1      2      3
     2      2      2      3      4
     3      3      3      4      5
     4      4      4      5      6
     5      5      5      6      7
     6      6      6      7      8
     7      7      7      8      9
     8      8      7      8     10
     9      9      7      8     11
    10     10      2      3     12
    11     11      2      1     13
    12     12      1     13     14
    13     13     13     14     15
    14     14     14     15     16
    15     15     15     16     17
    16     16     16     17     18
    17     17     17     18     19
    18     18     16     17     20
    19     19     13     14     21
    20     20     14     21     22
    21     21      3     12     23
    22     22      3      4     24
    23     23      3      4     25
    24     24      4      5     26
    25     25      4      5     27
    26     26      5      6     28
    27     27      5      6     29
    28     28      6      7     30
    29     29      6      7     31
    30     30      8     10     32
    31     31      8     11     33
    32     32     14     15     34
    33     33     15     16     35
    34     34     18     19     36
    35     35     18     19     37
    36     36     18     19     38
    37     37     17     20     39
    38     38     21     22     40
    39     39     12     23     41
    40     40      2      1     42
    41     41      1     42     43
    42     42     42     43     44
    43     43     43     44     45
    44     44     44     45     46
    45     45     45     46     47
    46     46     44     45     48
    47     47      1     42     49
    48     48     42     49     50
    49     49      1      2     51
    50     50     43     44     52
    51     51     46     47     53
    52     52     46     47     54
    53     53     46     47     55
    54     54     45     48     56
    55     55     49     50     57
    56     56      2     51     58
    57     57     42     43     59
    58     58     53     47     55
    59     59     16     15     34
    60     60     17     16     35
    61     61      6      5     26
    62     62      1     13     12
    63     63      8      7     30
    64     64     14     21     20
    65     65     10      8     11
    66     66     24      4     25
    67     67     13     12     23
    68     68      5      4     24
    69     69     18     17     20
    70     70     44     43     59
    71     71      5      4     25
    72     72      8      7     31
    73     73     45     48     49
    74     74     22     23     41
    75     75      2     51     50
    76     76     42     49     48
    77     77     51     50     57
    78     78     54     47     55
    79     79     21     22     23
    80     80     43     42     49
    81     81     49     50     51
    82     82     28      6     29
    83     83     37     19     38
    84     84      9      8     11
    85     85     13      1     42
    86     86      7      6     28
    87     87      9      8     10
    88     88     45     44     52
    89     89      6      5     27
    90     90      3      2     51
    91     91     36     19     38
    92     92     12     23     22
    93     93     36     19     37
    94     94      4      3     12
    95     95     48     49     50
    96     96     53     47     54
    97     97     49     48     56
    98     98     23     22     40
    99     99     15     14     21
   100    100      3     12     13
   101    101      7      6     29
   102    102     26      5     27
   103    103     12     13     14
   104    104     50     51     58
   105    105     30      7     31
   106    106     21     20     39
   107    107     46     45     48
   108    108     17     20     21
   109    109     20     21     22

Dihedrals

     1      1      4      3      2      1 
     2      2      5      4      3      2 
     3      3      6      5      4      3 
     4      4      7      6      5      4 
     5      5      8      7      6      5 
     6      6      9      8      7      6 
     7      7     13      1      2      3 
     8      8     15     14     13      1 
     9      9     16     15     14     13 
    10     10     17     16     15     14 
    11     11     18     17     16     15 
    12     12     19     18     17     16 
    13     13     32     10      8      7 
    14     14     33     11      8      7 
    15     15     36     19     18     17 
    16     16     43     42      1      2 
    17     17     44     43     42      1 
    18     18     45     44     43     42 
    19     19     46     45     44     43 
    20     20     47     46     45     44 
    21     21     53     47     46     45 
    22     22     20     21     14     15 
    23     23     43     42      1     13 
    24     24     31      7      6      5 
    25     25     31      7      8      9 
    26     26     28      6      7      8 
    27     27     35     16     15     34 
    28     28     13     12      3      2 
    29     29     33     11      8      9 
    30     30     30      7      8     10 
    31     31     59     43     44     45 
    32     32     40     22     23     12 
    33     33     30      7      6     29 
    34     34     20     21     14     13 
    35     35     39     20     21     14 
    36     36     34     15     14     21 
    37     37     31      7      6     29 
    38     38     12      3      2      1 
    39     39     22     23     12      3 
    40     40     51      2      3      4 
    41     41     59     43     44     52 
    42     42     42      1     13     12 
    43     43     28      6      5      4 
    44     44     42      1      2      3 
    45     45     30      7      6      5 
    46     46     51     50     49     42 
    47     47     25      4      5      6 
    48     48      3     12     13      1 
    49     49     12     13      1      2 
    50     50     22     21     14     13 
    51     51     56     48     45     46 
    52     52     32     10      8     11 
    53     53     48     49     42      1 
    54     54     57     50     51      2 
    55     55     50     49     42      1 
    56     56     52     44     45     46 
    57     57     42      1     13     14 
    58     58     49     42     43     44 
    59     59     55     47     46     45 
    60     60     32     10      8      9 
    61     61     14     13      1      2 
    62     62     23     22     21     14 
    63     63     41     23     22     21 
    64     64     21     20     17     18 
    65     65     26      5      4     24 
    66     66     38     19     18     17 
    67     67     50     51      2      3 
    68     68     50     51      2      1 
    69     69     31      7      6     28 
    70     70     35     16     15     14 
    71     71     17     20     21     14 
    72     72     23     12     13      1 
    73     73     49     48     45     44 
    74     74     20     17     16     15 
    75     75     21     20     17     16 
    76     76     57     50     49     48 
    77     77     48     45     44     43 
    78     78     51     50     49     48 
    79     79     39     20     17     16 
    80     80     50     49     42     43 
    81     81     49     50     51      2 
    82     82     45     48     49     42 
    83     83     27      5      4     25 
    84     84     39     20     21     22 
    85     85     50     49     48     45 
    86     86     33     11      8     10 
    87     87     26      5      4      3 
    88     88     48     49     42     43 
    89     89     23     12     13     14 
    90     90     27      5      6      7 
    91     91     51      2      1     42 
    92     92     30      7      8      9 
    93     93     51      2      1     13 
    94     94     22     23     12     13 
    95     95     58     51      2      3 
    96     96     35     16     17     18 
    97     97     48     45     46     47 
    98     98     59     43     42      1 
    99     99     23     12      3      4 
   100    100     58     51      2      1 
   101    101     51      2      3     12 
   102    102     13     12      3      4 
   103    103     54     47     46     45 
   104    104     40     22     21     20 
   105    105     25      4      3     12 
   106    106     52     44     45     48 
   107    107     29      6      7      8 
   108    108     24      4      3      2 
   109    109     14     13     12      3 
   110    110     23     12      3      2 
   111    111     41     23     12     13 
   112    112     21     14     15     16 
   113    113     56     48     49     50 
   114    114     11      8      7      6 
   115    115     56     48     49     42 
   116    116     57     50     49     42 
   117    117     30      7      8     11 
   118    118     31      7      8     10 
   119    119     41     23     12      3 
   120    120     15     14     13     12 
   121    121     35     16     17     20 
   122    122     29      6      5     27 
   123    123     49     42      1      2 
   124    124     37     19     18     17 
   125    125     24      4      5      6 
   126    126     58     51     50     49 
   127    127     56     48     45     44 
   128    128     24      4      3     12 
   129    129     27      5      4     24 
   130    130     28      6      5     26 
   131    131     23     22     21     20 
   132    132     21     22     23     12 
   133    133     31      7      8     11 
   134    134     49     42      1     13 
   135    135     59     43     42     49 
   136    136     41     23     22     40 
   137    137     22     21     20     17 
   138    138     52     44     43     42 
   139    139     29      6      5      4 
   140    140     34     15     16     17 
   141    141     58     51     50     57 
   142    142     27      5      4      3 
   143    143     10      8      7      6 
   144    144     12      3      4      5 
   145    145     21     14     13     12 
   146    146     29      6      5     26 
   147    147     28      6      5     27 
   148    148     25      4      3      2 
   149    149     40     22     21     14 
   150    150     20     17     18     19 
   151    151     22     21     14     15 
   152    152     21     14     13      1 
   153    153     26      5      4     25 
   154    154     39     20     17     18 
   155    155     26      5      6      7 
   156    156     34     15     14     13 
   157    157     49     48     45     46 
   158    158     30      7      6     28 

Impropers

     1      1      8      9     10      7 
     2      2      8      9     11      7 
     3      3      3      4      2     12 
     4      4     13      1     12     14 
     5      5     17     18     20     16 
     6      6     14     13     21     15 
     7      7     21     20     22     14 
     8      8     12      3     13     23 
     9      9      4      3      5     24 
    10     10      4     25      3      5 
    11     11      5     26      4      6 
    12     12      5     27      4      6 
    13     13      6     28      5      7 
    14     14      6      5     29      7 
    15     15      7      8     30      6 
    16     16      7      8     31      6 
    17     17     15     34     14     16 
    18     18     16     17     35     15 
    19     19     19     18     36     37 
    20     20     19     18     36     38 
    21     21     20     17     21     39 
    22     22     22     21     23     40 
    23     23     23     41     12     22 
    24     24      1     42     13      2 
    25     25     45     44     46     48 
    26     26     42     49     43      1 
    27     27     49     50     48     42 
    28     28      2      1     51      3 
    29     29     44     43     52     45 
    30     30     47     53     54     46 
    31     31     47     53     55     46 
    32     32     48     49     45     56 
    33     33     50     57     51     49 
    34     34     51     58     50      2 
    35     35     43     42     59     44 

