10261
in2o3-111-groove-oh025 Lattice="123.90743863868707 0 0 0 42.922795831585816 0 0 0 205.0"
In 0.000000 0.000000 1.657107
In 22.716364 32.192097 7.498159
In 4.130248 0.000000 7.498159
In 22.716364 39.345896 7.498159
In 24.781488 0.000000 10.418686
In 2.065124 39.345896 4.577633
In 20.651240 0.000000 4.577633
In 2.065124 32.192097 4.577633
In 24.642298 39.586979 1.460263
In 18.725305 42.681713 1.853950
In 2.204313 42.681713 4.774476
In 24.642298 39.586979 10.221842
In 2.958497 30.162564 1.460263
In 3.236875 37.798529 1.853950
In 23.888115 30.644730 4.774476
In 2.958497 30.162564 10.221842
In 21.962180 30.403647 1.460263
In 2.819307 33.980547 1.853950
In 23.470547 41.134346 4.774476
In 21.962180 30.403647 10.221842
In 20.790429 39.104813 4.774476
In 1.925935 36.010080 4.380790
In 22.577174 28.856280 7.301316
In 0.139189 31.951014 1.853950
In 5.301999 41.375429 4.774476
In 5.023621 33.739464 4.380790
In 0.893373 40.893263 7.301316
In 21.822991 41.375429 1.853950
In 23.470547 33.980547 4.774476
In 17.831933 30.403647 4.380790
In 1.310941 30.403647 7.301316
In 2.819307 41.134346 1.853950
O 23.905049 41.238791 2.688637
O 21.451682 33.876101 7.980630
O 4.228548 28.951426 5.366175
O 24.759184 39.009668 8.116143
O 1.896610 28.698181 2.688637
O 21.890314 37.408647 7.980630
O 22.376031 32.109113 5.366175
O 3.400020 30.552446 8.116143
O 23.761316 30.216218 2.688637
O 6.220979 28.868442 7.980630
O 22.958396 39.092652 5.366175
O 21.403771 30.591077 8.116143
O 23.905049 41.238791 11.450216
O 0.800442 41.029901 5.060104
O 20.749540 28.951426 2.445649
O 4.107945 31.855868 5.195616
O 1.896610 28.698181 11.450216
O 1.239074 30.254848 5.060104
O 1.724792 39.262912 2.445649
O 19.921012 30.552446 5.195616
O 23.761316 30.216218 11.450216
O 22.741971 28.868442 5.060104
O 2.307157 31.938852 2.445649
O 0.752531 37.744876 5.195616
O 0.876439 30.299202 9.387156
O 3.329806 37.661892 4.095162
O 20.552940 42.586567 6.709617
O 0.022303 32.528325 3.959650
O 22.884878 42.839812 9.387156
O 2.891174 34.129346 4.095162
O 2.405456 39.428880 6.709617
O 21.381468 40.985547 3.959650
O 1.020171 41.321776 9.387156
O 18.560508 42.669551 4.095162
O 1.823091 32.445341 6.709617
O 3.377717 40.946916 3.959650
O 0.876439 30.299202 0.625577
O 23.981046 30.508093 7.015688
O 4.031948 42.586567 9.630144
O 20.673543 39.682125 6.880176
O 22.884878 42.839812 0.625577
O 23.542413 41.283145 7.015688
O 23.056696 32.275081 9.630144
O 4.860476 40.985547 6.880176
O 1.020171 41.321776 0.625577
O 2.039516 42.669551 7.015688
O 22.474331 39.599141 9.630144
O 24.028957 33.793117 6.880176
In 12.390744 35.768997 1.657107
In 10.325620 39.345896 7.498159
In 16.520992 35.768997 7.498159
In 10.325620 32.192097 7.498159
In 12.390744 35.768997 10.418686
In 14.455868 32.192097 4.577633
In 8.260496 35.768997 4.577633
In 14.455868 39.345896 4.577633
In 12.251555 32.433180 1.460263
In 6.334561 35.527913 1.853950
In 14.595057 35.527913 4.774476
In 12.251555 32.433180 10.221842
In 15.349240 37.316363 1.460263
In 15.627619 30.644730 1.853950
In 11.497371 37.798529 4.774476
In 15.349240 37.316363 10.221842
In 9.571437 37.557446 1.460263
In 15.210051 41.134346 1.853950
In 11.079803 33.980547 4.774476
In 9.571437 37.557446 10.221842
In 8.399685 31.951014 4.774476
In 14.316678 28.856280 4.380790
In 10.186431 36.010080 7.301316
In 12.529933 39.104813 1.853950
In 17.692743 34.221630 4.774476
In 17.414364 40.893263 4.380790
In 13.284116 33.739464 7.301316
In 9.432247 34.221630 1.853950
In 11.079803 41.134346 4.774476
In 5.441189 37.557446 4.380790
In 13.701685 37.557446 7.301316
In 15.210051 33.980547 1.853950
O 11.514305 34.084992 2.688637
O 9.060938 41.029901 7.980630
O 16.619292 36.105225 5.366175
O 12.368441 31.855868 8.116143
O 14.287354 35.851981 2.688637
O 9.499570 30.254848 7.980630
O 9.985287 39.262912 5.366175
O 15.790764 37.706245 8.116143
O 11.370573 37.370017 2.688637
O 18.611723 36.022241 7.980630
O 10.567652 31.938852 5.366175
O 9.013027 37.744876 8.116143
O 11.514305 34.084992 11.450216
O 13.191186 33.876101 5.060104
O 8.358796 36.105225 2.445649
O 16.498688 39.009668 5.195616
O 14.287354 35.851981 11.450216
O 13.629818 37.408647 5.060104
O 14.115535 32.109113 2.445649
O 7.530268 37.706245 5.195616
O 11.370573 37.370017 11.450216
O 10.351227 36.022241 5.060104
O 14.697900 39.092652 2.445649
O 13.143275 30.591077 5.195616
O 13.267182 37.453001 9.387156
O 15.720550 30.508093 4.095162
O 8.162196 35.432768 6.709617
O 12.413047 39.682125 3.959650
O 10.494134 35.686012 9.387156
O 15.281917 41.283145 4.095162
O 14.796200 32.275081 6.709617
O 8.990724 33.831748 3.959650
O 13.410915 34.167976 9.387156
O 6.169764 35.515752 4.095162
O 14.213835 39.599141 6.709617
O 15.768461 33.793117 3.959650
O 13.267182 37.453001 0.625577
O 11.590302 37.661892 7.015688
O 16.422692 35.432768 9.630144
O 8.282799 32.528325 6.880176
O 10.494134 35.686012 0.625577
O 11.151669 34.129346 7.015688
O 10.665952 39.428880 9.630144
O 17.251220 33.831748 6.880176
O 13.410915 34.167976 0.625577
O 14.430260 35.515752 7.015688
O 10.083587 32.445341 9.630144
O 11.638213 40.946916 6.880176
In 4.130248 35.768997 7.498159
In 2.065124 39.345896 13.339212
In 8.260496 35.768997 13.339212
In 2.065124 32.192097 13.339212
In 6.195372 32.192097 10.418686
In 24.781488 35.768997 10.418686
In 6.195372 39.345896 10.418686
In 3.991059 32.433180 7.301316
In 22.855553 35.527913 7.695003
In 6.334561 35.527913 10.615529
In 7.088745 37.316363 7.301316
In 7.367123 30.644730 7.695003
In 3.236875 37.798529 10.615529
In 1.310941 37.557446 7.301316
In 6.949555 41.134346 7.695003
In 2.819307 33.980547 10.615529
In 0.139189 31.951014 10.615529
In 6.056183 28.856280 10.221842
In 1.925935 36.010080 13.142369
In 4.269437 39.104813 7.695003
In 9.432247 34.221630 10.615529
In 9.153869 40.893263 10.221842
In 5.023621 33.739464 13.142369
In 1.171751 34.221630 7.695003
In 2.819307 41.134346 10.615529
In 21.962180 37.557446 10.221842
In 5.441189 37.557446 13.142369
In 6.949555 33.980547 7.695003
O 3.253809 34.084992 8.529689
O 0.800442 41.029901 13.821683
O 8.358796 36.105225 11.207228
O 4.107945 31.855868 13.957195
O 6.026858 35.851981 8.529689
O 1.239074 30.254848 13.821683
O 1.724792 39.262912 11.207228
O 7.530268 37.706245 13.957195
O 3.110077 37.370017 8.529689
O 10.351227 36.022241 13.821683
O 2.307157 31.938852 11.207228
O 0.752531 37.744876 13.957195
O 4.930690 33.876101 10.901157
O 0.098300 36.105225 8.286701
O 8.238193 39.009668 11.036669
O 5.369322 37.408647 10.901157
O 5.855040 32.109113 8.286701
O 24.051260 37.706245 11.036669
O 2.090732 36.022241 10.901157
O 6.437404 39.092652 8.286701
O 4.882779 30.591077 11.036669
O 7.460054 30.508093 9.936215
O 24.683188 35.432768 12.550670
O 4.152551 39.682125 9.800702
O 7.021422 41.283145 9.936215
O 6.535704 32.275081 12.550670
O 0.730228 33.831748 9.800702
O 22.690756 35.515752 9.936215
O 5.953339 39.599141 12.550670
O 7.507965 33.793117 9.800702
O 5.006687 37.453001 6.466629
O 3.329806 37.661892 12.856741
O 0.022303 32.528325 12.721229
O 2.233638 35.686012 6.466629
O 2.891174 34.129346 12.856741
O 8.990724 33.831748 12.721229
O 5.150419 34.167976 6.466629
O 6.169764 35.515752 12.856741
O 3.377717 40.946916 12.721229
In 16.520992 0.000000 7.498159
In 14.455868 32.192097 13.339212
In 20.651240 0.000000 13.339212
In 14.455868 39.345896 13.339212
In 18.586116 39.345896 10.418686
In 12.390744 0.000000 10.418686
In 18.586116 32.192097 10.418686
In 16.381802 39.586979 7.301316
In 10.464809 42.681713 7.695003
In 18.725305 42.681713 10.615529
In 19.479488 30.162564 7.301316
In 19.757867 37.798529 7.695003
In 15.627619 30.644730 10.615529
In 13.701685 30.403647 7.301316
In 19.340299 33.980547 7.695003
In 15.210051 41.134346 10.615529
In 12.529933 39.104813 10.615529
In 18.446926 36.010080 10.221842
In 14.316678 28.856280 13.142369
In 16.660181 31.951014 7.695003
In 21.822991 41.375429 10.615529
In 21.544612 33.739464 10.221842
In 17.414364 40.893263 13.142369
In 13.562495 41.375429 7.695003
In 15.210051 33.980547 10.615529
In 9.571437 30.403647 10.221842
In 17.831933 30.403647 13.142369
In 19.340299 41.134346 7.695003
O 15.644553 41.238791 8.529689
O 13.191186 33.876101 13.821683
O 20.749540 28.951426 11.207228
O 16.498688 39.009668 13.957195
O 18.417602 28.698181 8.529689
O 13.629818 37.408647 13.821683
O 14.115535 32.109113 11.207228
O 19.921012 30.552446 13.957195
O 15.500821 30.216218 8.529689
O 22.741971 28.868442 13.821683
O 14.697900 39.092652 11.207228
O 13.143275 30.591077 13.957195
O 17.321434 41.029901 10.901157
O 12.489044 28.951426 8.286701
O 20.628936 31.855868 11.036669
O 17.760066 30.254848 10.901157
O 18.245783 39.262912 8.286701
O 11.660516 30.552446 11.036669
O 14.481475 28.868442 10.901157
O 18.828148 31.938852 8.286701
O 17.273523 37.744876 11.036669
O 19.850798 37.661892 9.936215
O 12.292444 42.586567 12.550670
O 16.543295 32.528325 9.800702
O 19.412165 34.129346 9.936215
O 18.926448 39.428880 12.550670
O 13.120972 40.985547 9.800702
O 10.300012 42.669551 9.936215
O 18.344083 32.445341 12.550670
O 19.898709 40.946916 9.800702
O 17.397430 30.299202 6.466629
O 15.720550 30.508093 12.856741
O 12.413047 39.682125 12.721229
O 14.624382 42.839812 6.466629
O 15.281917 41.283145 12.856741
O 21.381468 40.985547 12.721229
O 17.541163 41.321776 6.466629
O 18.560508 42.669551 12.856741
O 15.768461 33.793117 12.721229
In 8.260496 0.000000 13.339212
In 6.195372 32.192097 1.657107
In 12.390744 0.000000 1.657107
In 6.195372 39.345896 1.657107
In 8.260496 0.000000 4.577633
In 8.121307 39.586979 13.142369
In 2.204313 42.681713 13.536055
In 8.121307 39.586979 4.380790
In 11.218993 30.162564 13.142369
In 11.497371 37.798529 13.536055
In 11.218993 30.162564 4.380790
In 5.441189 30.403647 13.142369
In 11.079803 33.980547 13.536055
In 5.441189 30.403647 4.380790
In 6.056183 28.856280 1.460263
In 8.399685 31.951014 13.536055
In 9.153869 40.893263 1.460263
In 5.301999 41.375429 13.536055
In 9.571437 30.403647 1.460263
In 11.079803 41.134346 13.536055
O 7.384057 41.238791 14.370742
O 4.930690 33.876101 2.139578
O 8.238193 39.009668 2.275090
O 10.157106 28.698181 14.370742
O 5.369322 37.408647 2.139578
O 11.660516 30.552446 2.275090
O 7.240325 30.216218 14.370742
O 14.481475 28.868442 2.139578
O 4.882779 30.591077 2.275090
O 7.384057 41.238791 5.609163
O 4.228548 28.951426 14.127754
O 10.157106 28.698181 5.609163
O 9.985287 39.262912 14.127754
O 7.240325 30.216218 5.609163
O 10.567652 31.938852 14.127754
O 9.136935 30.299202 3.546103
O 4.031948 42.586567 0.868565
O 6.363886 42.839812 3.546103
O 10.665952 39.428880 0.868565
O 9.280667 41.321776 3.546103
O 10.083587 32.445341 0.868565
O 9.136935 30.299202 12.307682
O 7.460054 30.508093 1.174636
O 12.292444 42.586567 3.789091
O 4.152551 39.682125 1.039123
O 6.363886 42.839812 12.307682
O 7.021422 41.283145 1.174636
O 6.535704 32.275081 3.789091
O 13.120972 40.985547 1.039123
O 9.280667 41.321776 12.307682
O 10.300012 42.669551 1.174636
O 5.953339 39.599141 3.789091
O 7.507965 33.793117 1.039123
In 20.651240 35.768997 13.339212
In 18.586116 39.345896 1.657107
In 24.781488 35.768997 1.657107
In 18.586116 32.192097 1.657107
In 20.651240 35.768997 4.577633
In 20.512050 32.433180 13.142369
In 14.595057 35.527913 13.536055
In 20.512050 32.433180 4.380790
In 23.609736 37.316363 13.142369
In 23.888115 30.644730 13.536055
In 23.609736 37.316363 4.380790
In 17.831933 37.557446 13.142369
In 23.470547 41.134346 13.536055
In 17.831933 37.557446 4.380790
In 18.446926 36.010080 1.460263
In 20.790429 39.104813 13.536055
In 21.544612 33.739464 1.460263
In 17.692743 34.221630 13.536055
In 21.962180 37.557446 1.460263
In 23.470547 33.980547 13.536055
O 19.774801 34.084992 14.370742
O 17.321434 41.029901 2.139578
O 20.628936 31.855868 2.275090
O 22.547850 35.851981 14.370742
O 17.760066 30.254848 2.139578
O 24.051260 37.706245 2.275090
O 19.631069 37.370017 14.370742
O 2.090732 36.022241 2.139578
O 17.273523 37.744876 2.275090
O 19.774801 34.084992 5.609163
O 16.619292 36.105225 14.127754
O 22.547850 35.851981 5.609163
O 22.376031 32.109113 14.127754
O 19.631069 37.370017 5.609163
O 22.958396 39.092652 14.127754
O 21.527678 37.453001 3.546103
O 16.422692 35.432768 0.868565
O 18.754630 35.686012 3.546103
O 23.056696 32.275081 0.868565
O 21.671411 34.167976 3.546103
O 22.474331 39.599141 0.868565
O 21.527678 37.453001 12.307682
O 19.850798 37.661892 1.174636
O 24.683188 35.432768 3.789091
O 16.543295 32.528325 1.039123
O 18.754630 35.686012 12.307682
O 19.412165 34.129346 1.174636
O 18.926448 39.428880 3.789091
O 0.730228 33.831748 1.039123
O 21.671411 34.167976 12.307682
O 22.690756 35.515752 1.174636
O 18.344083 32.445341 3.789091
O 19.898709 40.946916 1.039123
In 0.000000 0.000000 19.180265
In 22.716364 32.192097 25.021317
In 4.130248 0.000000 25.021317
In 22.716364 39.345896 25.021317
In 24.781488 0.000000 27.941844
In 2.065124 39.345896 22.100791
In 20.651240 0.000000 22.100791
In 2.065124 32.192097 22.100791
In 24.642298 39.586979 18.983421
In 18.725305 42.681713 19.377108
In 2.204313 42.681713 22.297634
In 24.642298 39.586979 27.745000
In 2.958497 30.162564 18.983421
In 3.236875 37.798529 19.377108
In 23.888115 30.644730 22.297634
In 21.962180 30.403647 18.983421
In 2.819307 33.980547 19.377108
In 23.470547 41.134346 22.297634
In 20.790429 39.104813 22.297634
In 1.925935 36.010080 21.903948
In 0.139189 31.951014 19.377108
In 5.301999 41.375429 22.297634
In 5.023621 33.739464 21.903948
In 0.893373 40.893263 24.824474
In 21.822991 41.375429 19.377108
In 23.470547 33.980547 22.297634
In 17.831933 30.403647 21.903948
In 2.819307 41.134346 19.377108
O 23.905049 41.238791 20.211795
O 21.451682 33.876101 25.503788
O 24.759184 39.009668 25.639301
O 1.896610 28.698181 20.211795
O 21.890314 37.408647 25.503788
O 22.376031 32.109113 22.889333
O 23.761316 30.216218 20.211795
O 22.958396 39.092652 22.889333
O 23.905049 41.238791 28.973374
O 0.800442 41.029901 22.583262
O 20.749540 28.951426 19.968807
O 4.107945 31.855868 22.718774
O 1.239074 30.254848 22.583262
O 1.724792 39.262912 19.968807
O 19.921012 30.552446 22.718774
O 2.307157 31.938852 19.968807
O 0.752531 37.744876 22.718774
O 3.329806 37.661892 21.618320
O 20.552940 42.586567 24.232775
O 0.022303 32.528325 21.482808
O 22.884878 42.839812 26.910314
O 2.891174 34.129346 21.618320
O 2.405456 39.428880 24.232775
O 21.381468 40.985547 21.482808
O 1.020171 41.321776 26.910314
O 18.560508 42.669551 21.618320
O 1.823091 32.445341 24.232775
O 3.377717 40.946916 21.482808
O 0.876439 30.299202 18.148735
O 4.031948 42.586567 27.153302
O 20.673543 39.682125 24.403334
O 22.884878 42.839812 18.148735
O 23.542413 41.283145 24.538846
O 4.860476 40.985547 24.403334
O 1.020171 41.321776 18.148735
O 2.039516 42.669551 24.538846
O 22.474331 39.599141 27.153302
O 24.028957 33.793117 24.403334
In 12.390744 35.768997 19.180265
In 10.325620 39.345896 25.021317
In 16.520992 35.768997 25.021317
In 10.325620 32.192097 25.021317
In 14.455868 32.192097 22.100791
In 8.260496 35.768997 22.100791
In 14.455868 39.345896 22.100791
In 12.251555 32.433180 18.983421
In 6.334561 35.527913 19.377108
In 14.595057 35.527913 22.297634
In 15.349240 37.316363 18.983421
In 15.627619 30.644730 19.377108
In 11.497371 37.798529 22.297634
In 15.349240 37.316363 27.745000
In 9.571437 37.557446 18.983421
In 15.210051 41.134346 19.377108
In 11.079803 33.980547 22.297634
In 9.571437 37.557446 27.745000
In 8.399685 31.951014 22.297634
In 14.316678 28.856280 21.903948
In 10.186431 36.010080 24.824474
In 12.529933 39.104813 19.377108
In 17.692743 34.221630 22.297634
In 17.414364 40.893263 21.903948
In 13.284116 33.739464 24.824474
In 9.432247 34.221630 19.377108
In 11.079803 41.134346 22.297634
In 5.441189 37.557446 21.903948
In 13.701685 37.557446 24.824474
In 15.210051 33.980547 19.377108
O 11.514305 34.084992 20.211795
O 9.060938 41.029901 25.503788
O 16.619292 36.105225 22.889333
O 12.368441 31.855868 25.639301
O 14.287354 35.851981 20.211795
O 9.985287 39.262912 22.889333
O 15.790764 37.706245 25.639301
O 11.370573 37.370017 20.211795
O 18.611723 36.022241 25.503788
O 10.567652 31.938852 22.889333
O 9.013027 37.744876 25.639301
O 13.191186 33.876101 22.583262
O 8.358796 36.105225 19.968807
O 16.498688 39.009668 22.718774
O 13.629818 37.408647 22.583262
O 14.115535 32.109113 19.968807
O 7.530268 37.706245 22.718774
O 10.351227 36.022241 22.583262
O 14.697900 39.092652 19.968807
O 13.143275 30.591077 22.718774
O 13.267182 37.453001 26.910314
O 15.720550 30.508093 21.618320
O 8.162196 35.432768 24.232775
O 12.413047 39.682125 21.482808
O 10.494134 35.686012 26.910314
O 15.281917 41.283145 21.618320
O 14.796200 32.275081 24.232775
O 8.990724 33.831748 21.482808
O 6.169764 35.515752 21.618320
O 14.213835 39.599141 24.232775
O 15.768461 33.793117 21.482808
O 13.267182 37.453001 18.148735
O 11.590302 37.661892 24.538846
O 16.422692 35.432768 27.153302
O 8.282799 32.528325 24.403334
O 10.494134 35.686012 18.148735
O 11.151669 34.129346 24.538846
O 10.665952 39.428880 27.153302
O 17.251220 33.831748 24.403334
O 13.410915 34.167976 18.148735
O 14.430260 35.515752 24.538846
O 11.638213 40.946916 24.403334
In 4.130248 35.768997 25.021317
In 4.130248 35.768997 16.259738
In 24.781488 35.768997 27.941844
In 6.195372 39.345896 27.941844
In 3.991059 32.433180 24.824474
In 22.855553 35.527913 25.218161
In 3.991059 32.433180 16.062895
In 7.088745 37.316363 24.824474
In 3.236875 37.798529 28.138687
In 7.088745 37.316363 16.062895
In 1.310941 37.557446 24.824474
In 6.949555 41.134346 25.218161
In 1.310941 37.557446 16.062895
In 4.269437 39.104813 25.218161
In 9.153869 40.893263 27.745000
In 1.171751 34.221630 25.218161
In 2.819307 41.134346 28.138687
In 21.962180 37.557446 27.745000
In 6.949555 33.980547 25.218161
O 3.253809 34.084992 26.052847
O 6.026858 35.851981 26.052847
O 1.724792 39.262912 28.730386
O 3.110077 37.370017 26.052847
O 3.253809 34.084992 17.291268
O 0.098300 36.105225 25.809859
O 8.238193 39.009668 28.559827
O 6.026858 35.851981 17.291268
O 5.369322 37.408647 28.424315
O 5.855040 32.109113 25.809859
O 24.051260 37.706245 28.559827
O 3.110077 37.370017 17.291268
O 2.090732 36.022241 28.424315
O 6.437404 39.092652 25.809859
O 5.006687 37.453001 15.228208
O 4.152551 39.682125 27.323860
O 2.233638 35.686012 15.228208
O 7.021422 41.283145 27.459373
O 5.150419 34.167976 15.228208
O 22.690756 35.515752 27.459373
O 5.006687 37.453001 23.989787
O 8.162196 35.432768 15.471196
O 2.233638 35.686012 23.989787
O 2.405456 39.428880 15.471196
O 5.150419 34.167976 23.989787
O 1.823091 32.445341 15.471196
In 16.520992 0.000000 25.021317
In 16.520992 0.000000 16.259738
In 18.586116 39.345896 27.941844
In 12.390744 0.000000 27.941844
In 16.381802 39.586979 24.824474
In 10.464809 42.681713 25.218161
In 18.725305 42.681713 28.138687
In 16.381802 39.586979 16.062895
In 19.757867 37.798529 25.218161
In 19.479488 30.162564 16.062895
In 19.340299 33.980547 25.218161
In 15.210051 41.134346 28.138687
In 13.701685 30.403647 16.062895
In 12.529933 39.104813 28.138687
In 18.446926 36.010080 27.745000
In 16.660181 31.951014 25.218161
In 21.822991 41.375429 28.138687
In 13.562495 41.375429 25.218161
In 19.340299 41.134346 25.218161
O 15.644553 41.238791 26.052847
O 14.697900 39.092652 28.730386
O 15.644553 41.238791 17.291268
O 17.321434 41.029901 28.424315
O 18.417602 28.698181 17.291268
O 18.245783 39.262912 25.809859
O 15.500821 30.216218 17.291268
O 18.828148 31.938852 25.809859
O 17.273523 37.744876 28.559827
O 17.397430 30.299202 15.228208
O 19.850798 37.661892 27.459373
O 14.624382 42.839812 15.228208
O 13.120972 40.985547 27.323860
O 17.541163 41.321776 15.228208
O 10.300012 42.669551 27.459373
O 19.898709 40.946916 27.323860
O 20.552940 42.586567 15.471196
O 14.624382 42.839812 23.989787
O 14.796200 32.275081 15.471196
O 17.541163 41.321776 23.989787
O 14.213835 39.599141 15.471196
In 6.195372 32.192097 19.180265
In 12.390744 0.000000 19.180265
In 6.195372 39.345896 19.180265
In 8.260496 0.000000 22.100791
In 10.325620 39.345896 16.259738
In 4.130248 0.000000 16.259738
In 10.325620 32.192097 16.259738
In 10.464809 42.681713 16.456582
In 8.121307 39.586979 21.903948
In 7.367123 30.644730 16.456582
In 11.218993 30.162564 21.903948
In 6.949555 41.134346 16.456582
In 5.441189 30.403647 21.903948
In 4.269437 39.104813 16.456582
In 10.186431 36.010080 16.062895
In 6.056183 28.856280 18.983421
In 13.562495 41.375429 16.456582
In 13.284116 33.739464 16.062895
In 9.153869 40.893263 18.983421
In 6.949555 33.980547 16.456582
In 1.310941 30.403647 16.062895
In 9.571437 30.403647 18.983421
O 4.930690 33.876101 19.662736
O 12.489044 28.951426 17.048280
O 8.238193 39.009668 19.798248
O 5.369322 37.408647 19.662736
O 5.855040 32.109113 17.048280
O 11.660516 30.552446 19.798248
O 14.481475 28.868442 19.662736
O 6.437404 39.092652 17.048280
O 4.882779 30.591077 19.798248
O 7.384057 41.238791 23.132321
O 9.060938 41.029901 16.742209
O 12.368441 31.855868 16.877722
O 9.499570 30.254848 16.742209
O 3.400020 30.552446 16.877722
O 7.240325 30.216218 23.132321
O 6.220979 28.868442 16.742209
O 9.013027 37.744876 16.877722
O 9.136935 30.299202 21.069261
O 11.590302 37.661892 15.777267
O 4.031948 42.586567 18.391723
O 8.282799 32.528325 15.641755
O 6.363886 42.839812 21.069261
O 11.151669 34.129346 15.777267
O 10.665952 39.428880 18.391723
O 4.860476 40.985547 15.641755
O 9.280667 41.321776 21.069261
O 2.039516 42.669551 15.777267
O 10.083587 32.445341 18.391723
O 11.638213 40.946916 15.641755
O 7.460054 30.508093 18.697794
O 12.292444 42.586567 21.312249
O 4.152551 39.682125 18.562281
O 7.021422 41.283145 18.697794
O 6.535704 32.275081 21.312249
O 13.120972 40.985547 18.562281
O 10.300012 42.669551 18.697794
O 5.953339 39.599141 21.312249
O 7.507965 33.793117 18.562281
In 18.586116 39.345896 19.180265
In 24.781488 35.768997 19.180265
In 18.586116 32.192097 19.180265
In 20.651240 35.768997 22.100791
In 22.716364 32.192097 16.259738
In 16.520992 35.768997 16.259738
In 22.716364 39.345896 16.259738
In 22.855553 35.527913 16.456582
In 20.512050 32.433180 21.903948
In 19.757867 37.798529 16.456582
In 23.609736 37.316363 21.903948
In 19.340299 33.980547 16.456582
In 17.831933 37.557446 21.903948
In 16.660181 31.951014 16.456582
In 22.577174 28.856280 16.062895
In 18.446926 36.010080 18.983421
In 1.171751 34.221630 16.456582
In 0.893373 40.893263 16.062895
In 21.544612 33.739464 18.983421
In 19.340299 41.134346 16.456582
In 13.701685 37.557446 16.062895
In 21.962180 37.557446 18.983421
O 17.321434 41.029901 19.662736
O 0.098300 36.105225 17.048280
O 20.628936 31.855868 19.798248
O 17.760066 30.254848 19.662736
O 18.245783 39.262912 17.048280
O 24.051260 37.706245 19.798248
O 2.090732 36.022241 19.662736
O 18.828148 31.938852 17.048280
O 17.273523 37.744876 19.798248
O 19.774801 34.084992 23.132321
O 21.451682 33.876101 16.742209
O 24.759184 39.009668 16.877722
O 22.547850 35.851981 23.132321
O 21.890314 37.408647 16.742209
O 15.790764 37.706245 16.877722
O 19.631069 37.370017 23.132321
O 18.611723 36.022241 16.742209
O 21.403771 30.591077 16.877722
O 21.527678 37.453001 21.069261
O 23.981046 30.508093 15.777267
O 16.422692 35.432768 18.391723
O 20.673543 39.682125 15.641755
O 18.754630 35.686012 21.069261
O 23.542413 41.283145 15.777267
O 23.056696 32.275081 18.391723
O 17.251220 33.831748 15.641755
O 21.671411 34.167976 21.069261
O 14.430260 35.515752 15.777267
O 22.474331 39.599141 18.391723
O 24.028957 33.793117 15.641755
O 19.850798 37.661892 18.697794
O 24.683188 35.432768 21.312249
O 16.543295 32.528325 18.562281
O 19.412165 34.129346 18.697794
O 18.926448 39.428880 21.312249
O 0.730228 33.831748 18.562281
O 22.690756 35.515752 18.697794
O 18.344083 32.445341 21.312249
O 19.898709 40.946916 18.562281
In 24.781488 0.000000 1.657107
In 47.497851 32.192097 7.498159
In 28.911736 0.000000 7.498159
In 47.497851 39.345896 7.498159
In 49.562975 0.000000 10.418686
In 26.846612 39.345896 4.577633
In 45.432728 0.000000 4.577633
In 26.846612 32.192097 4.577633
In 49.423786 39.586979 1.460263
In 43.506793 42.681713 1.853950
In 26.985801 42.681713 4.774476
In 49.423786 39.586979 10.221842
In 27.739984 30.162564 1.460263
In 28.018363 37.798529 1.853950
In 48.669603 30.644730 4.774476
In 27.739984 30.162564 10.221842
In 46.743668 30.403647 1.460263
In 27.600795 33.980547 1.853950
In 48.252035 41.134346 4.774476
In 46.743668 30.403647 10.221842
In 45.571917 39.104813 4.774476
In 26.707422 36.010080 4.380790
In 47.358662 28.856280 7.301316
In 24.920677 31.951014 1.853950
In 30.083487 41.375429 4.774476
In 29.805108 33.739464 4.380790
In 25.674860 40.893263 7.301316
In 46.604479 41.375429 1.853950
In 48.252035 33.980547 4.774476
In 42.613420 30.403647 4.380790
In 26.092428 30.403647 7.301316
In 27.600795 41.134346 1.853950
O 48.686537 41.238791 2.688637
O 46.233170 33.876101 7.980630
O 29.010036 28.951426 5.366175
O 49.540672 39.009668 8.116143
O 26.678098 28.698181 2.688637
O 46.671802 37.408647 7.980630
O 47.157519 32.109113 5.366175
O 28.181508 30.552446 8.116143
O 48.542804 30.216218 2.688637
O 31.002467 28.868442 7.980630
O 47.739884 39.092652 5.366175
O 46.185259 30.591077 8.116143
O 48.686537 41.238791 11.450216
O 25.581930 41.029901 5.060104
O 45.531027 28.951426 2.445649
O 28.889432 31.855868 5.195616
O 26.678098 28.698181 11.450216
O 26.020562 30.254848 5.060104
O 26.506279 39.262912 2.445649
O 44.702500 30.552446 5.195616
O 48.542804 30.216218 11.450216
O 47.523459 28.868442 5.060104
O 27.088644 31.938852 2.445649
O 25.534019 37.744876 5.195616
O 25.657926 30.299202 9.387156
O 28.111294 37.661892 4.095162
O 45.334428 42.586567 6.709617
O 24.803791 32.528325 3.959650
O 47.666366 42.839812 9.387156
O 27.672661 34.129346 4.095162
O 27.186944 39.428880 6.709617
O 46.162955 40.985547 3.959650
O 25.801659 41.321776 9.387156
O 43.341996 42.669551 4.095162
O 26.604579 32.445341 6.709617
O 28.159205 40.946916 3.959650
O 25.657926 30.299202 0.625577
O 48.762533 30.508093 7.015688
O 28.813436 42.586567 9.630144
O 45.455031 39.682125 6.880176
O 47.666366 42.839812 0.625577
O 48.323901 41.283145 7.015688
O 47.838184 32.275081 9.630144
O 29.641964 40.985547 6.880176
O 25.801659 41.321776 0.625577
O 26.821004 42.669551 7.015688
O 47.255819 39.599141 9.630144
O 48.810444 33.793117 6.880176
In 37.172232 35.768997 1.657107
In 35.107108 39.345896 7.498159
In 41.302480 35.768997 7.498159
In 35.107108 32.192097 7.498159
In 37.172232 35.768997 10.418686
In 39.237356 32.192097 4.577633
In 33.041984 35.768997 4.577633
In 39.237356 39.345896 4.577633
In 37.033042 32.433180 1.460263
In 31.116049 35.527913 1.853950
In 39.376545 35.527913 4.774476
In 37.033042 32.433180 10.221842
In 40.130728 37.316363 1.460263
In 40.409107 30.644730 1.853950
In 36.278859 37.798529 4.774476
In 40.130728 37.316363 10.221842
In 34.352924 37.557446 1.460263
In 39.991539 41.134346 1.853950
In 35.861291 33.980547 4.774476
In 34.352924 37.557446 10.221842
In 33.181173 31.951014 4.774476
In 39.098166 28.856280 4.380790
In 34.967918 36.010080 7.301316
In 37.311421 39.104813 1.853950
In 42.474231 34.221630 4.774476
In 42.195852 40.893263 4.380790
In 38.065604 33.739464 7.301316
In 34.213735 34.221630 1.853950
In 35.861291 41.134346 4.774476
In 30.222676 37.557446 4.380790
In 38.483172 37.557446 7.301316
In 39.991539 33.980547 1.853950
O 36.295793 34.084992 2.688637
O 33.842426 41.029901 7.980630
O 41.400779 36.105225 5.366175
O 37.149928 31.855868 8.116143
O 39.068841 35.851981 2.688637
O 34.281058 30.254848 7.980630
O 34.766775 39.262912 5.366175
O 40.572252 37.706245 8.116143
O 36.152060 37.370017 2.688637
O 43.393211 36.022241 7.980630
O 35.349140 31.938852 5.366175
O 33.794515 37.744876 8.116143
O 36.295793 34.084992 11.450216
O 37.972674 33.876101 5.060104
O 33.140284 36.105225 2.445649
O 41.280176 39.009668 5.195616
O 39.068841 35.851981 11.450216
O 38.411306 37.408647 5.060104
O 38.897023 32.109113 2.445649
O 32.311756 37.706245 5.195616
O 36.152060 37.370017 11.450216
O 35.132715 36.022241 5.060104
O 39.479388 39.092652 2.445649
O 37.924763 30.591077 5.195616
O 38.048670 37.453001 9.387156
O 40.502037 30.508093 4.095162
O 32.943684 35.432768 6.709617
O 37.194535 39.682125 3.959650
O 35.275622 35.686012 9.387156
O 40.063405 41.283145 4.095162
O 39.577688 32.275081 6.709617
O 33.772211 33.831748 3.959650
O 38.192403 34.167976 9.387156
O 30.951252 35.515752 4.095162
O 38.995323 39.599141 6.709617
O 40.549948 33.793117 3.959650
O 38.048670 37.453001 0.625577
O 36.371790 37.661892 7.015688
O 41.204180 35.432768 9.630144
O 33.064287 32.528325 6.880176
O 35.275622 35.686012 0.625577
O 35.933157 34.129346 7.015688
O 35.447440 39.428880 9.630144
O 42.032707 33.831748 6.880176
O 38.192403 34.167976 0.625577
O 39.211748 35.515752 7.015688
O 34.865075 32.445341 9.630144
O 36.419700 40.946916 6.880176
In 28.911736 35.768997 7.498159
In 26.846612 39.345896 13.339212
In 33.041984 35.768997 13.339212
In 26.846612 32.192097 13.339212
In 30.976860 32.192097 10.418686
In 49.562975 35.768997 10.418686
In 30.976860 39.345896 10.418686
In 28.772546 32.433180 7.301316
In 47.637041 35.527913 7.695003
In 31.116049 35.527913 10.615529
In 31.870232 37.316363 7.301316
In 32.148611 30.644730 7.695003
In 28.018363 37.798529 10.615529
In 26.092428 37.557446 7.301316
In 31.731043 41.134346 7.695003
In 27.600795 33.980547 10.615529
In 24.920677 31.951014 10.615529
In 30.837670 28.856280 10.221842
In 26.707422 36.010080 13.142369
In 29.050925 39.104813 7.695003
In 34.213735 34.221630 10.615529
In 33.935356 40.893263 10.221842
In 29.805108 33.739464 13.142369
In 25.953239 34.221630 7.695003
In 27.600795 41.134346 10.615529
In 46.743668 37.557446 10.221842
In 30.222676 37.557446 13.142369
In 31.731043 33.980547 7.695003
O 28.035297 34.084992 8.529689
O 25.581930 41.029901 13.821683
O 33.140284 36.105225 11.207228
O 28.889432 31.855868 13.957195
O 30.808346 35.851981 8.529689
O 26.020562 30.254848 13.821683
O 26.506279 39.262912 11.207228
O 32.311756 37.706245 13.957195
O 27.891564 37.370017 8.529689
O 35.132715 36.022241 13.821683
O 27.088644 31.938852 11.207228
O 25.534019 37.744876 13.957195
O 29.712178 33.876101 10.901157
O 24.879788 36.105225 8.286701
O 33.019680 39.009668 11.036669
O 30.150810 37.408647 10.901157
O 30.636527 32.109113 8.286701
O 48.832748 37.706245 11.036669
O 26.872219 36.022241 10.901157
O 31.218892 39.092652 8.286701
O 29.664267 30.591077 11.036669
O 32.241542 30.508093 9.936215
O 49.464676 35.432768 12.550670
O 28.934039 39.682125 9.800702
O 31.802909 41.283145 9.936215
O 31.317192 32.275081 12.550670
O 25.511716 33.831748 9.800702
O 47.472244 35.515752 9.936215
O 30.734827 39.599141 12.550670
O 32.289452 33.793117 9.800702
O 29.788174 37.453001 6.466629
O 28.111294 37.661892 12.856741
O 24.803791 32.528325 12.721229
O 27.015126 35.686012 6.466629
O 27.672661 34.129346 12.856741
O 33.772211 33.831748 12.721229
O 29.931907 34.167976 6.466629
O 30.951252 35.515752 12.856741
O 28.159205 40.946916 12.721229
In 41.302480 0.000000 7.498159
In 39.237356 32.192097 13.339212
In 45.432728 0.000000 13.339212
In 39.237356 39.345896 13.339212
In 43.367604 39.345896 10.418686
In 37.172232 0.000000 10.418686
In 43.367604 32.192097 10.418686
In 41.163290 39.586979 7.301316
In 35.246297 42.681713 7.695003
In 43.506793 42.681713 10.615529
In 44.260976 30.162564 7.301316
In 44.539355 37.798529 7.695003
In 40.409107 30.644730 10.615529
In 38.483172 30.403647 7.301316
In 44.121787 33.980547 7.695003
In 39.991539 41.134346 10.615529
In 37.311421 39.104813 10.615529
In 43.228414 36.010080 10.221842
In 39.098166 28.856280 13.142369
In 41.441669 31.951014 7.695003
In 46.604479 41.375429 10.615529
In 46.326100 33.739464 10.221842
In 42.195852 40.893263 13.142369
In 38.343983 41.375429 7.695003
In 39.991539 33.980547 10.615529
In 34.352924 30.403647 10.221842
In 42.613420 30.403647 13.142369
In 44.121787 41.134346 7.695003
O 40.426041 41.238791 8.529689
O 37.972674 33.876101 13.821683
O 45.531027 28.951426 11.207228
O 41.280176 39.009668 13.957195
O 43.199089 28.698181 8.529689
O 38.411306 37.408647 13.821683
O 38.897023 32.109113 11.207228
O 44.702500 30.552446 13.957195
O 40.282308 30.216218 8.529689
O 47.523459 28.868442 13.821683
O 39.479388 39.092652 11.207228
O 37.924763 30.591077 13.957195
O 42.102922 41.029901 10.901157
O 37.270531 28.951426 8.286701
O 45.410424 31.855868 11.036669
O 42.541554 30.254848 10.901157
O 43.027271 39.262912 8.286701
O 36.442004 30.552446 11.036669
O 39.262963 28.868442 10.901157
O 43.609636 31.938852 8.286701
O 42.055011 37.744876 11.036669
O 44.632285 37.661892 9.936215
O 37.073932 42.586567 12.550670
O 41.324783 32.528325 9.800702
O 44.193653 34.129346 9.936215
O 43.707936 39.428880 12.550670
O 37.902459 40.985547 9.800702
O 35.081500 42.669551 9.936215
O 43.125571 32.445341 12.550670
O 44.680196 40.946916 9.800702
O 42.178918 30.299202 6.466629
O 40.502037 30.508093 12.856741
O 37.194535 39.682125 12.721229
O 39.405870 42.839812 6.466629
O 40.063405 41.283145 12.856741
O 46.162955 40.985547 12.721229
O 42.322651 41.321776 6.466629
O 43.341996 42.669551 12.856741
O 40.549948 33.793117 12.721229
In 33.041984 0.000000 13.339212
In 30.976860 32.192097 1.657107
In 37.172232 0.000000 1.657107
In 30.976860 39.345896 1.657107
In 33.041984 0.000000 4.577633
In 32.902794 39.586979 13.142369
In 26.985801 42.681713 13.536055
In 32.902794 39.586979 4.380790
In 36.000480 30.162564 13.142369
In 36.278859 37.798529 13.536055
In 36.000480 30.162564 4.380790
In 30.222676 30.403647 13.142369
In 35.861291 33.980547 13.536055
In 30.222676 30.403647 4.380790
In 30.837670 28.856280 1.460263
In 33.181173 31.951014 13.536055
In 33.935356 40.893263 1.460263
In 30.083487 41.375429 13.536055
In 34.352924 30.403647 1.460263
In 35.861291 41.134346 13.536055
O 32.165545 41.238791 14.370742
O 29.712178 33.876101 2.139578
O 33.019680 39.009668 2.275090
O 34.938593 28.698181 14.370742
O 30.150810 37.408647 2.139578
O 36.442004 30.552446 2.275090
O 32.021812 30.216218 14.370742
O 39.262963 28.868442 2.139578
O 29.664267 30.591077 2.275090
O 32.165545 41.238791 5.609163
O 29.010036 28.951426 14.127754
O 34.938593 28.698181 5.609163
O 34.766775 39.262912 14.127754
O 32.021812 30.216218 5.609163
O 35.349140 31.938852 14.127754
O 33.918422 30.299202 3.546103
O 28.813436 42.586567 0.868565
O 31.145374 42.839812 3.546103
O 35.447440 39.428880 0.868565
O 34.062155 41.321776 3.546103
O 34.865075 32.445341 0.868565
O 33.918422 30.299202 12.307682
O 32.241542 30.508093 1.174636
O 37.073932 42.586567 3.789091
O 28.934039 39.682125 1.039123
O 31.145374 42.839812 12.307682
O 31.802909 41.283145 1.174636
O 31.317192 32.275081 3.789091
O 37.902459 40.985547 1.039123
O 34.062155 41.321776 12.307682
O 35.081500 42.669551 1.174636
O 30.734827 39.599141 3.789091
O 32.289452 33.793117 1.039123
In 45.432728 35.768997 13.339212
In 43.367604 39.345896 1.657107
In 49.562975 35.768997 1.657107
In 43.367604 32.192097 1.657107
In 45.432728 35.768997 4.577633
In 45.293538 32.433180 13.142369
In 39.376545 35.527913 13.536055
In 45.293538 32.433180 4.380790
In 48.391224 37.316363 13.142369
In 48.669603 30.644730 13.536055
In 48.391224 37.316363 4.380790
In 42.613420 37.557446 13.142369
In 48.252035 41.134346 13.536055
In 42.613420 37.557446 4.380790
In 43.228414 36.010080 1.460263
In 45.571917 39.104813 13.536055
In 46.326100 33.739464 1.460263
In 42.474231 34.221630 13.536055
In 46.743668 37.557446 1.460263
In 48.252035 33.980547 13.536055
O 44.556289 34.084992 14.370742
O 42.102922 41.029901 2.139578
O 45.410424 31.855868 2.275090
O 47.329337 35.851981 14.370742
O 42.541554 30.254848 2.139578
O 48.832748 37.706245 2.275090
O 44.412556 37.370017 14.370742
O 26.872219 36.022241 2.139578
O 42.055011 37.744876 2.275090
O 44.556289 34.084992 5.609163
O 41.400779 36.105225 14.127754
O 47.329337 35.851981 5.609163
O 47.157519 32.109113 14.127754
O 44.412556 37.370017 5.609163
O 47.739884 39.092652 14.127754
O 46.309166 37.453001 3.546103
O 41.204180 35.432768 0.868565
O 43.536118 35.686012 3.546103
O 47.838184 32.275081 0.868565
O 46.452899 34.167976 3.546103
O 47.255819 39.599141 0.868565
O 46.309166 37.453001 12.307682
O 44.632285 37.661892 1.174636
O 49.464676 35.432768 3.789091
O 41.324783 32.528325 1.039123
O 43.536118 35.686012 12.307682
O 44.193653 34.129346 1.174636
O 43.707936 39.428880 3.789091
O 25.511716 33.831748 1.039123
O 46.452899 34.167976 12.307682
O 47.472244 35.515752 1.174636
O 43.125571 32.445341 3.789091
O 44.680196 40.946916 1.039123
In 24.781488 0.000000 19.180265
In 47.497851 32.192097 25.021317
In 28.911736 0.000000 25.021317
In 47.497851 39.345896 25.021317
In 49.562975 0.000000 27.941844
In 26.846612 39.345896 22.100791
In 45.432728 0.000000 22.100791
In 26.846612 32.192097 22.100791
In 49.423786 39.586979 18.983421
In 43.506793 42.681713 19.377108
In 26.985801 42.681713 22.297634
In 49.423786 39.586979 27.745000
In 27.739984 30.162564 18.983421
In 28.018363 37.798529 19.377108
In 48.669603 30.644730 22.297634
In 46.743668 30.403647 18.983421
In 27.600795 33.980547 19.377108
In 48.252035 41.134346 22.297634
In 45.571917 39.104813 22.297634
In 26.707422 36.010080 21.903948
In 24.920677 31.951014 19.377108
In 30.083487 41.375429 22.297634
In 29.805108 33.739464 21.903948
In 25.674860 40.893263 24.824474
In 46.604479 41.375429 19.377108
In 48.252035 33.980547 22.297634
In 42.613420 30.403647 21.903948
In 27.600795 41.134346 19.377108
O 48.686537 41.238791 20.211795
O 46.233170 33.876101 25.503788
O 49.540672 39.009668 25.639301
O 26.678098 28.698181 20.211795
O 46.671802 37.408647 25.503788
O 47.157519 32.109113 22.889333
O 48.542804 30.216218 20.211795
O 47.739884 39.092652 22.889333
O 48.686537 41.238791 28.973374
O 25.581930 41.029901 22.583262
O 45.531027 28.951426 19.968807
O 28.889432 31.855868 22.718774
O 26.020562 30.254848 22.583262
O 26.506279 39.262912 19.968807
O 44.702500 30.552446 22.718774
O 27.088644 31.938852 19.968807
O 25.534019 37.744876 22.718774
O 28.111294 37.661892 21.618320
O 45.334428 42.586567 24.232775
O 24.803791 32.528325 21.482808
O 47.666366 42.839812 26.910314
O 27.672661 34.129346 21.618320
O 27.186944 39.428880 24.232775
O 46.162955 40.985547 21.482808
O 25.801659 41.321776 26.910314
O 43.341996 42.669551 21.618320
O 26.604579 32.445341 24.232775
O 28.159205 40.946916 21.482808
O 25.657926 30.299202 18.148735
O 28.813436 42.586567 27.153302
O 45.455031 39.682125 24.403334
O 47.666366 42.839812 18.148735
O 48.323901 41.283145 24.538846
O 29.641964 40.985547 24.403334
O 25.801659 41.321776 18.148735
O 26.821004 42.669551 24.538846
O 47.255819 39.599141 27.153302
O 48.810444 33.793117 24.403334
In 37.172232 35.768997 19.180265
In 35.107108 39.345896 25.021317
In 41.302480 35.768997 25.021317
In 35.107108 32.192097 25.021317
In 37.172232 35.768997 27.941844
In 39.237356 32.192097 22.100791
In 33.041984 35.768997 22.100791
In 39.237356 39.345896 22.100791
In 37.033042 32.433180 18.983421
In 31.116049 35.527913 19.377108
In 39.376545 35.527913 22.297634
In 40.130728 37.316363 18.983421
In 40.409107 30.644730 19.377108
In 36.278859 37.798529 22.297634
In 40.130728 37.316363 27.745000
In 34.352924 37.557446 18.983421
In 39.991539 41.134346 19.377108
In 35.861291 33.980547 22.297634
In 34.352924 37.557446 27.745000
In 33.181173 31.951014 22.297634
In 39.098166 28.856280 21.903948
In 34.967918 36.010080 24.824474
In 37.311421 39.104813 19.377108
In 42.474231 34.221630 22.297634
In 42.195852 40.893263 21.903948
In 38.065604 33.739464 24.824474
In 34.213735 34.221630 19.377108
In 35.861291 41.134346 22.297634
In 30.222676 37.557446 21.903948
In 38.483172 37.557446 24.824474
In 39.991539 33.980547 19.377108
O 36.295793 34.084992 20.211795
O 33.842426 41.029901 25.503788
O 41.400779 36.105225 22.889333
O 37.149928 31.855868 25.639301
O 39.068841 35.851981 20.211795
O 34.766775 39.262912 22.889333
O 40.572252 37.706245 25.639301
O 36.152060 37.370017 20.211795
O 43.393211 36.022241 25.503788
O 35.349140 31.938852 22.889333
O 33.794515 37.744876 25.639301
O 37.972674 33.876101 22.583262
O 33.140284 36.105225 19.968807
O 41.280176 39.009668 22.718774
O 39.068841 35.851981 28.973374
O 38.411306 37.408647 22.583262
O 38.897023 32.109113 19.968807
O 32.311756 37.706245 22.718774
O 36.152060 37.370017 28.973374
O 35.132715 36.022241 22.583262
O 39.479388 39.092652 19.968807
O 37.924763 30.591077 22.718774
O 38.048670 37.453001 26.910314
O 40.502037 30.508093 21.618320
O 32.943684 35.432768 24.232775
O 37.194535 39.682125 21.482808
O 35.275622 35.686012 26.910314
O 40.063405 41.283145 21.618320
O 39.577688 32.275081 24.232775
O 33.772211 33.831748 21.482808
O 30.951252 35.515752 21.618320
O 38.995323 39.599141 24.232775
O 40.549948 33.793117 21.482808
O 38.048670 37.453001 18.148735
O 36.371790 37.661892 24.538846
O 41.204180 35.432768 27.153302
O 33.064287 32.528325 24.403334
O 35.275622 35.686012 18.148735
O 35.933157 34.129346 24.538846
O 35.447440 39.428880 27.153302
O 42.032707 33.831748 24.403334
O 38.192403 34.167976 18.148735
O 39.211748 35.515752 24.538846
O 36.419700 40.946916 24.403334
In 28.911736 35.768997 25.021317
In 28.911736 35.768997 16.259738
In 49.562975 35.768997 27.941844
In 30.976860 39.345896 27.941844
In 28.772546 32.433180 24.824474
In 47.637041 35.527913 25.218161
In 28.772546 32.433180 16.062895
In 31.870232 37.316363 24.824474
In 28.018363 37.798529 28.138687
In 31.870232 37.316363 16.062895
In 26.092428 37.557446 24.824474
In 31.731043 41.134346 25.218161
In 26.092428 37.557446 16.062895
In 29.050925 39.104813 25.218161
In 33.935356 40.893263 27.745000
In 25.953239 34.221630 25.218161
In 27.600795 41.134346 28.138687
In 46.743668 37.557446 27.745000
In 31.731043 33.980547 25.218161
O 28.035297 34.084992 26.052847
O 30.808346 35.851981 26.052847
O 26.506279 39.262912 28.730386
O 27.891564 37.370017 26.052847
O 28.035297 34.084992 17.291268
O 24.879788 36.105225 25.809859
O 33.019680 39.009668 28.559827
O 30.808346 35.851981 17.291268
O 30.150810 37.408647 28.424315
O 30.636527 32.109113 25.809859
O 48.832748 37.706245 28.559827
O 27.891564 37.370017 17.291268
O 26.872219 36.022241 28.424315
O 31.218892 39.092652 25.809859
O 29.788174 37.453001 15.228208
O 28.934039 39.682125 27.323860
O 27.015126 35.686012 15.228208
O 31.802909 41.283145 27.459373
O 29.931907 34.167976 15.228208
O 47.472244 35.515752 27.459373
O 29.788174 37.453001 23.989787
O 32.943684 35.432768 15.471196
O 27.015126 35.686012 23.989787
O 27.186944 39.428880 15.471196
O 29.931907 34.167976 23.989787
O 26.604579 32.445341 15.471196
In 41.302480 0.000000 25.021317
In 41.302480 0.000000 16.259738
In 43.367604 39.345896 27.941844
In 37.172232 0.000000 27.941844
In 41.163290 39.586979 24.824474
In 35.246297 42.681713 25.218161
In 43.506793 42.681713 28.138687
In 41.163290 39.586979 16.062895
In 44.539355 37.798529 25.218161
In 44.260976 30.162564 16.062895
In 44.121787 33.980547 25.218161
In 39.991539 41.134346 28.138687
In 38.483172 30.403647 16.062895
In 37.311421 39.104813 28.138687
In 43.228414 36.010080 27.745000
In 41.441669 31.951014 25.218161
In 46.604479 41.375429 28.138687
In 38.343983 41.375429 25.218161
In 44.121787 41.134346 25.218161
O 40.426041 41.238791 26.052847
O 39.479388 39.092652 28.730386
O 40.426041 41.238791 17.291268
O 42.102922 41.029901 28.424315
O 43.199089 28.698181 17.291268
O 43.027271 39.262912 25.809859
O 40.282308 30.216218 17.291268
O 43.609636 31.938852 25.809859
O 42.055011 37.744876 28.559827
O 42.178918 30.299202 15.228208
O 44.632285 37.661892 27.459373
O 39.405870 42.839812 15.228208
O 37.902459 40.985547 27.323860
O 42.322651 41.321776 15.228208
O 35.081500 42.669551 27.459373
O 44.680196 40.946916 27.323860
O 45.334428 42.586567 15.471196
O 39.405870 42.839812 23.989787
O 39.577688 32.275081 15.471196
O 42.322651 41.321776 23.989787
O 38.995323 39.599141 15.471196
In 30.976860 32.192097 19.180265
In 37.172232 0.000000 19.180265
In 30.976860 39.345896 19.180265
In 33.041984 0.000000 22.100791
In 35.107108 39.345896 16.259738
In 28.911736 0.000000 16.259738
In 35.107108 32.192097 16.259738
In 35.246297 42.681713 16.456582
In 32.902794 39.586979 21.903948
In 32.148611 30.644730 16.456582
In 36.000480 30.162564 21.903948
In 31.731043 41.134346 16.456582
In 30.222676 30.403647 21.903948
In 29.050925 39.104813 16.456582
In 34.967918 36.010080 16.062895
In 30.837670 28.856280 18.983421
In 38.343983 41.375429 16.456582
In 38.065604 33.739464 16.062895
In 33.935356 40.893263 18.983421
In 31.731043 33.980547 16.456582
In 26.092428 30.403647 16.062895
In 34.352924 30.403647 18.983421
O 29.712178 33.876101 19.662736
O 37.270531 28.951426 17.048280
O 33.019680 39.009668 19.798248
O 30.150810 37.408647 19.662736
O 30.636527 32.109113 17.048280
O 36.442004 30.552446 19.798248
O 39.262963 28.868442 19.662736
O 31.218892 39.092652 17.048280
O 29.664267 30.591077 19.798248
O 32.165545 41.238791 23.132321
O 33.842426 41.029901 16.742209
O 37.149928 31.855868 16.877722
O 34.281058 30.254848 16.742209
O 28.181508 30.552446 16.877722
O 32.021812 30.216218 23.132321
O 31.002467 28.868442 16.742209
O 33.794515 37.744876 16.877722
O 33.918422 30.299202 21.069261
O 36.371790 37.661892 15.777267
O 28.813436 42.586567 18.391723
O 33.064287 32.528325 15.641755
O 31.145374 42.839812 21.069261
O 35.933157 34.129346 15.777267
O 35.447440 39.428880 18.391723
O 29.641964 40.985547 15.641755
O 34.062155 41.321776 21.069261
O 26.821004 42.669551 15.777267
O 34.865075 32.445341 18.391723
O 36.419700 40.946916 15.641755
O 32.241542 30.508093 18.697794
O 37.073932 42.586567 21.312249
O 28.934039 39.682125 18.562281
O 31.802909 41.283145 18.697794
O 31.317192 32.275081 21.312249
O 37.902459 40.985547 18.562281
O 35.081500 42.669551 18.697794
O 30.734827 39.599141 21.312249
O 32.289452 33.793117 18.562281
In 43.367604 39.345896 19.180265
In 49.562975 35.768997 19.180265
In 43.367604 32.192097 19.180265
In 45.432728 35.768997 22.100791
In 47.497851 32.192097 16.259738
In 41.302480 35.768997 16.259738
In 47.497851 39.345896 16.259738
In 47.637041 35.527913 16.456582
In 45.293538 32.433180 21.903948
In 44.539355 37.798529 16.456582
In 48.391224 37.316363 21.903948
In 44.121787 33.980547 16.456582
In 42.613420 37.557446 21.903948
In 41.441669 31.951014 16.456582
In 47.358662 28.856280 16.062895
In 43.228414 36.010080 18.983421
In 25.953239 34.221630 16.456582
In 25.674860 40.893263 16.062895
In 46.326100 33.739464 18.983421
In 44.121787 41.134346 16.456582
In 38.483172 37.557446 16.062895
In 46.743668 37.557446 18.983421
O 42.102922 41.029901 19.662736
O 24.879788 36.105225 17.048280
O 45.410424 31.855868 19.798248
O 42.541554 30.254848 19.662736
O 43.027271 39.262912 17.048280
O 48.832748 37.706245 19.798248
O 26.872219 36.022241 19.662736
O 43.609636 31.938852 17.048280
O 42.055011 37.744876 19.798248
O 44.556289 34.084992 23.132321
O 46.233170 33.876101 16.742209
O 49.540672 39.009668 16.877722
O 47.329337 35.851981 23.132321
O 46.671802 37.408647 16.742209
O 40.572252 37.706245 16.877722
O 44.412556 37.370017 23.132321
O 43.393211 36.022241 16.742209
O 46.185259 30.591077 16.877722
O 46.309166 37.453001 21.069261
O 48.762533 30.508093 15.777267
O 41.204180 35.432768 18.391723
O 45.455031 39.682125 15.641755
O 43.536118 35.686012 21.069261
O 48.323901 41.283145 15.777267
O 47.838184 32.275081 18.391723
O 42.032707 33.831748 15.641755
O 46.452899 34.167976 21.069261
O 39.211748 35.515752 15.777267
O 47.255819 39.599141 18.391723
O 48.810444 33.793117 15.641755
O 44.632285 37.661892 18.697794
O 49.464676 35.432768 21.312249
O 41.324783 32.528325 18.562281
O 44.193653 34.129346 18.697794
O 43.707936 39.428880 21.312249
O 25.511716 33.831748 18.562281
O 47.472244 35.515752 18.697794
O 43.125571 32.445341 21.312249
O 44.680196 40.946916 18.562281
In 49.562975 0.000000 1.657107
In 72.279339 32.192097 7.498159
In 53.693223 0.000000 7.498159
In 72.279339 39.345896 7.498159
In 74.344463 0.000000 10.418686
In 51.628099 39.345896 4.577633
In 70.214215 0.000000 4.577633
In 51.628099 32.192097 4.577633
In 74.205274 39.586979 1.460263
In 68.288281 42.681713 1.853950
In 51.767289 42.681713 4.774476
In 74.205274 39.586979 10.221842
In 52.521472 30.162564 1.460263
In 52.799851 37.798529 1.853950
In 73.451091 30.644730 4.774476
In 52.521472 30.162564 10.221842
In 71.525156 30.403647 1.460263
In 52.382283 33.980547 1.853950
In 73.033522 41.134346 4.774476
In 71.525156 30.403647 10.221842
In 70.353405 39.104813 4.774476
In 51.488910 36.010080 4.380790
In 72.140150 28.856280 7.301316
In 49.702165 31.951014 1.853950
In 54.864975 41.375429 4.774476
In 54.586596 33.739464 4.380790
In 50.456348 40.893263 7.301316
In 71.385967 41.375429 1.853950
In 73.033522 33.980547 4.774476
In 67.394908 30.403647 4.380790
In 50.873916 30.403647 7.301316
In 52.382283 41.134346 1.853950
O 73.468025 41.238791 2.688637
O 71.014657 33.876101 7.980630
O 53.791523 28.951426 5.366175
O 74.322160 39.009668 8.116143
O 51.459585 28.698181 2.688637
O 71.453290 37.408647 7.980630
O 71.939007 32.109113 5.366175
O 52.962996 30.552446 8.116143
O 73.324292 30.216218 2.688637
O 55.783955 28.868442 7.980630
O 72.521372 39.092652 5.366175
O 70.966746 30.591077 8.116143
O 73.468025 41.238791 11.450216
O 50.363418 41.029901 5.060104
O 70.312515 28.951426 2.445649
O 53.670920 31.855868 5.195616
O 51.459585 28.698181 11.450216
O 50.802050 30.254848 5.060104
O 51.287767 39.262912 2.445649
O 69.483987 30.552446 5.195616
O 73.324292 30.216218 11.450216
O 72.304947 28.868442 5.060104
O 51.870132 31.938852 2.445649
O 50.315507 37.744876 5.195616
O 50.439414 30.299202 9.387156
O 52.892781 37.661892 4.095162
O 70.115915 42.586567 6.709617
O 49.585279 32.528325 3.959650
O 72.447853 42.839812 9.387156
O 52.454149 34.129346 4.095162
O 51.968432 39.428880 6.709617
O 70.944443 40.985547 3.959650
O 50.583147 41.321776 9.387156
O 68.123484 42.669551 4.095162
O 51.386067 32.445341 6.709617
O 52.940692 40.946916 3.959650
O 50.439414 30.299202 0.625577
O 73.544021 30.508093 7.015688
O 53.594924 42.586567 9.630144
O 70.236519 39.682125 6.880176
O 72.447853 42.839812 0.625577
O 73.105389 41.283145 7.015688
O 72.619672 32.275081 9.630144
O 54.423451 40.985547 6.880176
O 50.583147 41.321776 0.625577
O 51.602492 42.669551 7.015688
O 72.037307 39.599141 9.630144
O 73.591932 33.793117 6.880176
In 61.953719 35.768997 1.657107
In 59.888595 39.345896 7.498159
In 66.083967 35.768997 7.498159
In 59.888595 32.192097 7.498159
In 61.953719 35.768997 10.418686
In 64.018843 32.192097 4.577633
In 57.823471 35.768997 4.577633
In 64.018843 39.345896 4.577633
In 61.814530 32.433180 1.460263
In 55.897537 35.527913 1.853950
In 64.158033 35.527913 4.774476
In 61.814530 32.433180 10.221842
In 64.912216 37.316363 1.460263
In 65.190595 30.644730 1.853950
In 61.060347 37.798529 4.774476
In 64.912216 37.316363 10.221842
In 59.134412 37.557446 1.460263
In 64.773027 41.134346 1.853950
In 60.642779 33.980547 4.774476
In 59.134412 37.557446 10.221842
In 57.962661 31.951014 4.774476
In 63.879654 28.856280 4.380790
In 59.749406 36.010080 7.301316
In 62.092909 39.104813 1.853950
In 67.255719 34.221630 4.774476
In 66.977340 40.893263 4.380790
In 62.847092 33.739464 7.301316
In 58.995223 34.221630 1.853950
In 60.642779 41.134346 4.774476
In 55.004164 37.557446 4.380790
In 63.264660 37.557446 7.301316
In 64.773027 33.980547 1.853950
O 61.077281 34.084992 2.688637
O 58.623913 41.029901 7.980630
O 66.182267 36.105225 5.366175
O 61.931416 31.855868 8.116143
O 63.850329 35.851981 2.688637
O 59.062546 30.254848 7.980630
O 59.548263 39.262912 5.366175
O 65.353739 37.706245 8.116143
O 60.933548 37.370017 2.688637
O 68.174699 36.022241 7.980630
O 60.130628 31.938852 5.366175
O 58.576003 37.744876 8.116143
O 61.077281 34.084992 11.450216
O 62.754161 33.876101 5.060104
O 57.921771 36.105225 2.445649
O 66.061664 39.009668 5.195616
O 63.850329 35.851981 11.450216
O 63.192794 37.408647 5.060104
O 63.678511 32.109113 2.445649
O 57.093244 37.706245 5.195616
O 60.933548 37.370017 11.450216
O 59.914203 36.022241 5.060104
O 64.260876 39.092652 2.445649
O 62.706250 30.591077 5.195616
O 62.830158 37.453001 9.387156
O 65.283525 30.508093 4.095162
O 57.725171 35.432768 6.709617
O 61.976023 39.682125 3.959650
O 60.057109 35.686012 9.387156
O 64.844893 41.283145 4.095162
O 64.359176 32.275081 6.709617
O 58.553699 33.831748 3.959650
O 62.973891 34.167976 9.387156
O 55.732740 35.515752 4.095162
O 63.776811 39.599141 6.709617
O 65.331436 33.793117 3.959650
O 62.830158 37.453001 0.625577
O 61.153277 37.661892 7.015688
O 65.985667 35.432768 9.630144
O 57.845775 32.528325 6.880176
O 60.057109 35.686012 0.625577
O 60.714645 34.129346 7.015688
O 60.228928 39.428880 9.630144
O 66.814195 33.831748 6.880176
O 62.973891 34.167976 0.625577
O 63.993236 35.515752 7.015688
O 59.646563 32.445341 9.630144
O 61.201188 40.946916 6.880176
In 53.693223 35.768997 7.498159
In 51.628099 39.345896 13.339212
In 57.823471 35.768997 13.339212
In 51.628099 32.192097 13.339212
In 55.758347 32.192097 10.418686
In 74.344463 35.768997 10.418686
In 55.758347 39.345896 10.418686
In 53.554034 32.433180 7.301316
In 72.418529 35.527913 7.695003
In 55.897537 35.527913 10.615529
In 56.651720 37.316363 7.301316
In 56.930099 30.644730 7.695003
In 52.799851 37.798529 10.615529
In 50.873916 37.557446 7.301316
In 56.512531 41.134346 7.695003
In 52.382283 33.980547 10.615529
In 49.702165 31.951014 10.615529
In 55.619158 28.856280 10.221842
In 51.488910 36.010080 13.142369
In 53.832413 39.104813 7.695003
In 58.995223 34.221630 10.615529
In 58.716844 40.893263 10.221842
In 54.586596 33.739464 13.142369
In 50.734727 34.221630 7.695003
In 52.382283 41.134346 10.615529
In 71.525156 37.557446 10.221842
In 55.004164 37.557446 13.142369
In 56.512531 33.980547 7.695003
O 52.816785 34.084992 8.529689
O 50.363418 41.029901 13.821683
O 57.921771 36.105225 11.207228
O 53.670920 31.855868 13.957195
O 55.589833 35.851981 8.529689
O 50.802050 30.254848 13.821683
O 51.287767 39.262912 11.207228
O 57.093244 37.706245 13.957195
O 52.673052 37.370017 8.529689
O 59.914203 36.022241 13.821683
O 51.870132 31.938852 11.207228
O 50.315507 37.744876 13.957195
O 54.493665 33.876101 10.901157
O 49.661275 36.105225 8.286701
O 57.801168 39.009668 11.036669
O 54.932298 37.408647 10.901157
O 55.418015 32.109113 8.286701
O 73.614235 37.706245 11.036669
O 51.653707 36.022241 10.901157
O 56.000380 39.092652 8.286701
O 54.445755 30.591077 11.036669
O 57.023029 30.508093 9.936215
O 74.246163 35.432768 12.550670
O 53.715527 39.682125 9.800702
O 56.584397 41.283145 9.936215
O 56.098680 32.275081 12.550670
O 50.293203 33.831748 9.800702
O 72.253732 35.515752 9.936215
O 55.516315 39.599141 12.550670
O 57.070940 33.793117 9.800702
O 54.569662 37.453001 6.466629
O 52.892781 37.661892 12.856741
O 49.585279 32.528325 12.721229
O 51.796614 35.686012 6.466629
O 52.454149 34.129346 12.856741
O 58.553699 33.831748 12.721229
O 54.713395 34.167976 6.466629
O 55.732740 35.515752 12.856741
O 52.940692 40.946916 12.721229
In 66.083967 0.000000 7.498159
In 64.018843 32.192097 13.339212
In 70.214215 0.000000 13.339212
In 64.018843 39.345896 13.339212
In 68.149091 39.345896 10.418686
In 61.953719 0.000000 10.418686
In 68.149091 32.192097 10.418686
In 65.944778 39.586979 7.301316
In 60.027785 42.681713 7.695003
In 68.288281 42.681713 10.615529
In 69.042464 30.162564 7.301316
In 69.320843 37.798529 7.695003
In 65.190595 30.644730 10.615529
In 63.264660 30.403647 7.301316
In 68.903275 33.980547 7.695003
In 64.773027 41.134346 10.615529
In 62.092909 39.104813 10.615529
In 68.009902 36.010080 10.221842
In 63.879654 28.856280 13.142369
In 66.223157 31.951014 7.695003
In 71.385967 41.375429 10.615529
In 71.107588 33.739464 10.221842
In 66.977340 40.893263 13.142369
In 63.125471 41.375429 7.695003
In 64.773027 33.980547 10.615529
In 59.134412 30.403647 10.221842
In 67.394908 30.403647 13.142369
In 68.903275 41.134346 7.695003
O 65.207529 41.238791 8.529689
O 62.754161 33.876101 13.821683
O 70.312515 28.951426 11.207228
O 66.061664 39.009668 13.957195
O 67.980577 28.698181 8.529689
O 63.192794 37.408647 13.821683
O 63.678511 32.109113 11.207228
O 69.483987 30.552446 13.957195
O 65.063796 30.216218 8.529689
O 72.304947 28.868442 13.821683
O 64.260876 39.092652 11.207228
O 62.706250 30.591077 13.957195
O 66.884409 41.029901 10.901157
O 62.052019 28.951426 8.286701
O 70.191912 31.855868 11.036669
O 67.323042 30.254848 10.901157
O 67.808759 39.262912 8.286701
O 61.223491 30.552446 11.036669
O 64.044451 28.868442 10.901157
O 68.391124 31.938852 8.286701
O 66.836498 37.744876 11.036669
O 69.413773 37.661892 9.936215
O 61.855419 42.586567 12.550670
O 66.106271 32.528325 9.800702
O 68.975141 34.129346 9.936215
O 68.489424 39.428880 12.550670
O 62.683947 40.985547 9.800702
O 59.862988 42.669551 9.936215
O 67.907059 32.445341 12.550670
O 69.461684 40.946916 9.800702
O 66.960406 30.299202 6.466629
O 65.283525 30.508093 12.856741
O 61.976023 39.682125 12.721229
O 64.187357 42.839812 6.466629
O 64.844893 41.283145 12.856741
O 70.944443 40.985547 12.721229
O 67.104139 41.321776 6.466629
O 68.123484 42.669551 12.856741
O 65.331436 33.793117 12.721229
In 57.823471 0.000000 13.339212
In 55.758347 32.192097 1.657107
In 61.953719 0.000000 1.657107
In 55.758347 39.345896 1.657107
In 57.823471 0.000000 4.577633
In 57.684282 39.586979 13.142369
In 51.767289 42.681713 13.536055
In 57.684282 39.586979 4.380790
In 60.781968 30.162564 13.142369
In 61.060347 37.798529 13.536055
In 60.781968 30.162564 4.380790
In 55.004164 30.403647 13.142369
In 60.642779 33.980547 13.536055
In 55.004164 30.403647 4.380790
In 55.619158 28.856280 1.460263
In 57.962661 31.951014 13.536055
In 58.716844 40.893263 1.460263
In 54.864975 41.375429 13.536055
In 59.134412 30.403647 1.460263
In 60.642779 41.134346 13.536055
O 56.947033 41.238791 14.370742
O 54.493665 33.876101 2.139578
O 57.801168 39.009668 2.275090
O 59.720081 28.698181 14.370742
O 54.932298 37.408647 2.139578
O 61.223491 30.552446 2.275090
O 56.803300 30.216218 14.370742
O 64.044451 28.868442 2.139578
O 54.445755 30.591077 2.275090
O 56.947033 41.238791 5.609163
O 53.791523 28.951426 14.127754
O 59.720081 28.698181 5.609163
O 59.548263 39.262912 14.127754
O 56.803300 30.216218 5.609163
O 60.130628 31.938852 14.127754
O 58.699910 30.299202 3.546103
O 53.594924 42.586567 0.868565
O 55.926862 42.839812 3.546103
O 60.228928 39.428880 0.868565
O 58.843643 41.321776 3.546103
O 59.646563 32.445341 0.868565
O 58.699910 30.299202 12.307682
O 57.023029 30.508093 1.174636
O 61.855419 42.586567 3.789091
O 53.715527 39.682125 1.039123
O 55.926862 42.839812 12.307682
O 56.584397 41.283145 1.174636
O 56.098680 32.275081 3.789091
O 62.683947 40.985547 1.039123
O 58.843643 41.321776 12.307682
O 59.862988 42.669551 1.174636
O 55.516315 39.599141 3.789091
O 57.070940 33.793117 1.039123
In 70.214215 35.768997 13.339212
In 68.149091 39.345896 1.657107
In 74.344463 35.768997 1.657107
In 68.149091 32.192097 1.657107
In 70.214215 35.768997 4.577633
In 70.075026 32.433180 13.142369
In 64.158033 35.527913 13.536055
In 70.075026 32.433180 4.380790
In 73.172712 37.316363 13.142369
In 73.451091 30.644730 13.536055
In 73.172712 37.316363 4.380790
In 67.394908 37.557446 13.142369
In 73.033522 41.134346 13.536055
In 67.394908 37.557446 4.380790
In 68.009902 36.010080 1.460263
In 70.353405 39.104813 13.536055
In 71.107588 33.739464 1.460263
In 67.255719 34.221630 13.536055
In 71.525156 37.557446 1.460263
In 73.033522 33.980547 13.536055
O 69.337777 34.084992 14.370742
O 66.884409 41.029901 2.139578
O 70.191912 31.855868 2.275090
O 72.110825 35.851981 14.370742
O 67.323042 30.254848 2.139578
O 73.614235 37.706245 2.275090
O 69.194044 37.370017 14.370742
O 51.653707 36.022241 2.139578
O 66.836498 37.744876 2.275090
O 69.337777 34.084992 5.609163
O 66.182267 36.105225 14.127754
O 72.110825 35.851981 5.609163
O 71.939007 32.109113 14.127754
O 69.194044 37.370017 5.609163
O 72.521372 39.092652 14.127754
O 71.090654 37.453001 3.546103
O 65.985667 35.432768 0.868565
O 68.317605 35.686012 3.546103
O 72.619672 32.275081 0.868565
O 71.234386 34.167976 3.546103
O 72.037307 39.599141 0.868565
O 71.090654 37.453001 12.307682
O 69.413773 37.661892 1.174636
O 74.246163 35.432768 3.789091
O 66.106271 32.528325 1.039123
O 68.317605 35.686012 12.307682
O 68.975141 34.129346 1.174636
O 68.489424 39.428880 3.789091
O 50.293203 33.831748 1.039123
O 71.234386 34.167976 12.307682
O 72.253732 35.515752 1.174636
O 67.907059 32.445341 3.789091
O 69.461684 40.946916 1.039123
In 49.562975 0.000000 19.180265
In 72.279339 32.192097 25.021317
In 53.693223 0.000000 25.021317
In 72.279339 39.345896 25.021317
In 74.344463 0.000000 27.941844
In 51.628099 39.345896 22.100791
In 70.214215 0.000000 22.100791
In 51.628099 32.192097 22.100791
In 74.205274 39.586979 18.983421
In 68.288281 42.681713 19.377108
In 51.767289 42.681713 22.297634
In 74.205274 39.586979 27.745000
In 52.521472 30.162564 18.983421
In 52.799851 37.798529 19.377108
In 73.451091 30.644730 22.297634
In 71.525156 30.403647 18.983421
In 52.382283 33.980547 19.377108
In 73.033522 41.134346 22.297634
In 70.353405 39.104813 22.297634
In 51.488910 36.010080 21.903948
In 49.702165 31.951014 19.377108
In 54.864975 41.375429 22.297634
In 54.586596 33.739464 21.903948
In 50.456348 40.893263 24.824474
In 71.385967 41.375429 19.377108
In 73.033522 33.980547 22.297634
In 67.394908 30.403647 21.903948
In 52.382283 41.134346 19.377108
O 73.468025 41.238791 20.211795
O 71.014657 33.876101 25.503788
O 74.322160 39.009668 25.639301
O 51.459585 28.698181 20.211795
O 71.453290 37.408647 25.503788
O 71.939007 32.109113 22.889333
O 73.324292 30.216218 20.211795
O 72.521372 39.092652 22.889333
O 73.468025 41.238791 28.973374
O 50.363418 41.029901 22.583262
O 70.312515 28.951426 19.968807
O 53.670920 31.855868 22.718774
O 50.802050 30.254848 22.583262
O 51.287767 39.262912 19.968807
O 69.483987 30.552446 22.718774
O 51.870132 31.938852 19.968807
O 50.315507 37.744876 22.718774
O 52.892781 37.661892 21.618320
O 70.115915 42.586567 24.232775
O 49.585279 32.528325 21.482808
O 72.447853 42.839812 26.910314
O 52.454149 34.129346 21.618320
O 51.968432 39.428880 24.232775
O 70.944443 40.985547 21.482808
O 50.583147 41.321776 26.910314
O 68.123484 42.669551 21.618320
O 51.386067 32.445341 24.232775
O 52.940692 40.946916 21.482808
O 50.439414 30.299202 18.148735
O 53.594924 42.586567 27.153302
O 70.236519 39.682125 24.403334
O 72.447853 42.839812 18.148735
O 73.105389 41.283145 24.538846
O 54.423451 40.985547 24.403334
O 50.583147 41.321776 18.148735
O 51.602492 42.669551 24.538846
O 72.037307 39.599141 27.153302
O 73.591932 33.793117 24.403334
In 61.953719 35.768997 19.180265
In 59.888595 39.345896 25.021317
In 66.083967 35.768997 25.021317
In 59.888595 32.192097 25.021317
In 61.953719 35.768997 27.941844
In 64.018843 32.192097 22.100791
In 57.823471 35.768997 22.100791
In 64.018843 39.345896 22.100791
In 61.814530 32.433180 18.983421
In 55.897537 35.527913 19.377108
In 64.158033 35.527913 22.297634
In 64.912216 37.316363 18.983421
In 65.190595 30.644730 19.377108
In 61.060347 37.798529 22.297634
In 64.912216 37.316363 27.745000
In 59.134412 37.557446 18.983421
In 64.773027 41.134346 19.377108
In 60.642779 33.980547 22.297634
In 59.134412 37.557446 27.745000
In 57.962661 31.951014 22.297634
In 63.879654 28.856280 21.903948
In 59.749406 36.010080 24.824474
In 62.092909 39.104813 19.377108
In 67.255719 34.221630 22.297634
In 66.977340 40.893263 21.903948
In 62.847092 33.739464 24.824474
In 58.995223 34.221630 19.377108
In 60.642779 41.134346 22.297634
In 55.004164 37.557446 21.903948
In 63.264660 37.557446 24.824474
In 64.773027 33.980547 19.377108
O 61.077281 34.084992 20.211795
O 58.623913 41.029901 25.503788
O 66.182267 36.105225 22.889333
O 61.931416 31.855868 25.639301
O 63.850329 35.851981 20.211795
O 59.548263 39.262912 22.889333
O 65.353739 37.706245 25.639301
O 60.933548 37.370017 20.211795
O 68.174699 36.022241 25.503788
O 60.130628 31.938852 22.889333
O 58.576003 37.744876 25.639301
O 62.754161 33.876101 22.583262
O 57.921771 36.105225 19.968807
O 66.061664 39.009668 22.718774
O 63.850329 35.851981 28.973374
O 63.192794 37.408647 22.583262
O 63.678511 32.109113 19.968807
O 57.093244 37.706245 22.718774
O 60.933548 37.370017 28.973374
O 59.914203 36.022241 22.583262
O 64.260876 39.092652 19.968807
O 62.706250 30.591077 22.718774
O 62.830158 37.453001 26.910314
O 65.283525 30.508093 21.618320
O 57.725171 35.432768 24.232775
O 61.976023 39.682125 21.482808
O 60.057109 35.686012 26.910314
O 64.844893 41.283145 21.618320
O 64.359176 32.275081 24.232775
O 58.553699 33.831748 21.482808
O 55.732740 35.515752 21.618320
O 63.776811 39.599141 24.232775
O 65.331436 33.793117 21.482808
O 62.830158 37.453001 18.148735
O 61.153277 37.661892 24.538846
O 65.985667 35.432768 27.153302
O 57.845775 32.528325 24.403334
O 60.057109 35.686012 18.148735
O 60.714645 34.129346 24.538846
O 60.228928 39.428880 27.153302
O 66.814195 33.831748 24.403334
O 62.973891 34.167976 18.148735
O 63.993236 35.515752 24.538846
O 61.201188 40.946916 24.403334
In 53.693223 35.768997 25.021317
In 53.693223 35.768997 16.259738
In 74.344463 35.768997 27.941844
In 55.758347 39.345896 27.941844
In 53.554034 32.433180 24.824474
In 72.418529 35.527913 25.218161
In 53.554034 32.433180 16.062895
In 56.651720 37.316363 24.824474
In 52.799851 37.798529 28.138687
In 56.651720 37.316363 16.062895
In 50.873916 37.557446 24.824474
In 56.512531 41.134346 25.218161
In 50.873916 37.557446 16.062895
In 53.832413 39.104813 25.218161
In 58.716844 40.893263 27.745000
In 50.734727 34.221630 25.218161
In 52.382283 41.134346 28.138687
In 71.525156 37.557446 27.745000
In 56.512531 33.980547 25.218161
O 52.816785 34.084992 26.052847
O 55.589833 35.851981 26.052847
O 51.287767 39.262912 28.730386
O 52.673052 37.370017 26.052847
O 52.816785 34.084992 17.291268
O 49.661275 36.105225 25.809859
O 57.801168 39.009668 28.559827
O 55.589833 35.851981 17.291268
O 54.932298 37.408647 28.424315
O 55.418015 32.109113 25.809859
O 73.614235 37.706245 28.559827
O 52.673052 37.370017 17.291268
O 51.653707 36.022241 28.424315
O 56.000380 39.092652 25.809859
O 54.569662 37.453001 15.228208
O 53.715527 39.682125 27.323860
O 51.796614 35.686012 15.228208
O 56.584397 41.283145 27.459373
O 54.713395 34.167976 15.228208
O 72.253732 35.515752 27.459373
O 54.569662 37.453001 23.989787
O 57.725171 35.432768 15.471196
O 51.796614 35.686012 23.989787
O 51.968432 39.428880 15.471196
O 54.713395 34.167976 23.989787
O 51.386067 32.445341 15.471196
In 66.083967 0.000000 25.021317
In 66.083967 0.000000 16.259738
In 68.149091 39.345896 27.941844
In 61.953719 0.000000 27.941844
In 65.944778 39.586979 24.824474
In 60.027785 42.681713 25.218161
In 68.288281 42.681713 28.138687
In 65.944778 39.586979 16.062895
In 69.320843 37.798529 25.218161
In 69.042464 30.162564 16.062895
In 68.903275 33.980547 25.218161
In 64.773027 41.134346 28.138687
In 63.264660 30.403647 16.062895
In 62.092909 39.104813 28.138687
In 68.009902 36.010080 27.745000
In 66.223157 31.951014 25.218161
In 71.385967 41.375429 28.138687
In 63.125471 41.375429 25.218161
In 68.903275 41.134346 25.218161
O 65.207529 41.238791 26.052847
O 64.260876 39.092652 28.730386
O 65.207529 41.238791 17.291268
O 66.884409 41.029901 28.424315
O 67.980577 28.698181 17.291268
O 67.808759 39.262912 25.809859
O 65.063796 30.216218 17.291268
O 68.391124 31.938852 25.809859
O 66.836498 37.744876 28.559827
O 66.960406 30.299202 15.228208
O 69.413773 37.661892 27.459373
O 64.187357 42.839812 15.228208
O 62.683947 40.985547 27.323860
O 67.104139 41.321776 15.228208
O 59.862988 42.669551 27.459373
O 69.461684 40.946916 27.323860
O 70.115915 42.586567 15.471196
O 64.187357 42.839812 23.989787
O 64.359176 32.275081 15.471196
O 67.104139 41.321776 23.989787
O 63.776811 39.599141 15.471196
In 55.758347 32.192097 19.180265
In 61.953719 0.000000 19.180265
In 55.758347 39.345896 19.180265
In 57.823471 0.000000 22.100791
In 59.888595 39.345896 16.259738
In 53.693223 0.000000 16.259738
In 59.888595 32.192097 16.259738
In 60.027785 42.681713 16.456582
In 57.684282 39.586979 21.903948
In 56.930099 30.644730 16.456582
In 60.781968 30.162564 21.903948
In 56.512531 41.134346 16.456582
In 55.004164 30.403647 21.903948
In 53.832413 39.104813 16.456582
In 59.749406 36.010080 16.062895
In 55.619158 28.856280 18.983421
In 63.125471 41.375429 16.456582
In 62.847092 33.739464 16.062895
In 58.716844 40.893263 18.983421
In 56.512531 33.980547 16.456582
In 50.873916 30.403647 16.062895
In 59.134412 30.403647 18.983421
O 54.493665 33.876101 19.662736
O 62.052019 28.951426 17.048280
O 57.801168 39.009668 19.798248
O 54.932298 37.408647 19.662736
O 55.418015 32.109113 17.048280
O 61.223491 30.552446 19.798248
O 64.044451 28.868442 19.662736
O 56.000380 39.092652 17.048280
O 54.445755 30.591077 19.798248
O 56.947033 41.238791 23.132321
O 58.623913 41.029901 16.742209
O 61.931416 31.855868 16.877722
O 59.062546 30.254848 16.742209
O 52.962996 30.552446 16.877722
O 56.803300 30.216218 23.132321
O 55.783955 28.868442 16.742209
O 58.576003 37.744876 16.877722
O 58.699910 30.299202 21.069261
O 61.153277 37.661892 15.777267
O 53.594924 42.586567 18.391723
O 57.845775 32.528325 15.641755
O 55.926862 42.839812 21.069261
O 60.714645 34.129346 15.777267
O 60.228928 39.428880 18.391723
O 54.423451 40.985547 15.641755
O 58.843643 41.321776 21.069261
O 51.602492 42.669551 15.777267
O 59.646563 32.445341 18.391723
O 61.201188 40.946916 15.641755
O 57.023029 30.508093 18.697794
O 61.855419 42.586567 21.312249
O 53.715527 39.682125 18.562281
O 56.584397 41.283145 18.697794
O 56.098680 32.275081 21.312249
O 62.683947 40.985547 18.562281
O 59.862988 42.669551 18.697794
O 55.516315 39.599141 21.312249
O 57.070940 33.793117 18.562281
In 68.149091 39.345896 19.180265
In 74.344463 35.768997 19.180265
In 68.149091 32.192097 19.180265
In 70.214215 35.768997 22.100791
In 72.279339 32.192097 16.259738
In 66.083967 35.768997 16.259738
In 72.279339 39.345896 16.259738
In 72.418529 35.527913 16.456582
In 70.075026 32.433180 21.903948
In 69.320843 37.798529 16.456582
In 73.172712 37.316363 21.903948
In 68.903275 33.980547 16.456582
In 67.394908 37.557446 21.903948
In 66.223157 31.951014 16.456582
In 72.140150 28.856280 16.062895
In 68.009902 36.010080 18.983421
In 50.734727 34.221630 16.456582
In 50.456348 40.893263 16.062895
In 71.107588 33.739464 18.983421
In 68.903275 41.134346 16.456582
In 63.264660 37.557446 16.062895
In 71.525156 37.557446 18.983421
O 66.884409 41.029901 19.662736
O 49.661275 36.105225 17.048280
O 70.191912 31.855868 19.798248
O 67.323042 30.254848 19.662736
O 67.808759 39.262912 17.048280
O 73.614235 37.706245 19.798248
O 51.653707 36.022241 19.662736
O 68.391124 31.938852 17.048280
O 66.836498 37.744876 19.798248
O 69.337777 34.084992 23.132321
O 71.014657 33.876101 16.742209
O 74.322160 39.009668 16.877722
O 72.110825 35.851981 23.132321
O 71.453290 37.408647 16.742209
O 65.353739 37.706245 16.877722
O 69.194044 37.370017 23.132321
O 68.174699 36.022241 16.742209
O 70.966746 30.591077 16.877722
O 71.090654 37.453001 21.069261
O 73.544021 30.508093 15.777267
O 65.985667 35.432768 18.391723
O 70.236519 39.682125 15.641755
O 68.317605 35.686012 21.069261
O 73.105389 41.283145 15.777267
O 72.619672 32.275081 18.391723
O 66.814195 33.831748 15.641755
O 71.234386 34.167976 21.069261
O 63.993236 35.515752 15.777267
O 72.037307 39.599141 18.391723
O 73.591932 33.793117 15.641755
O 69.413773 37.661892 18.697794
O 74.246163 35.432768 21.312249
O 66.106271 32.528325 18.562281
O 68.975141 34.129346 18.697794
O 68.489424 39.428880 21.312249
O 50.293203 33.831748 18.562281
O 72.253732 35.515752 18.697794
O 67.907059 32.445341 21.312249
O 69.461684 40.946916 18.562281
In 74.344463 0.000000 1.657107
In 97.060827 32.192097 7.498159
In 78.474711 0.000000 7.498159
In 97.060827 39.345896 7.498159
In 99.125951 0.000000 10.418686
In 76.409587 39.345896 4.577633
In 94.995703 0.000000 4.577633
In 76.409587 32.192097 4.577633
In 98.986762 39.586979 1.460263
In 93.069768 42.681713 1.853950
In 76.548777 42.681713 4.774476
In 98.986762 39.586979 10.221842
In 77.302960 30.162564 1.460263
In 77.581339 37.798529 1.853950
In 98.232578 30.644730 4.774476
In 77.302960 30.162564 10.221842
In 96.306644 30.403647 1.460263
In 77.163770 33.980547 1.853950
In 97.815010 41.134346 4.774476
In 96.306644 30.403647 10.221842
In 95.134892 39.104813 4.774476
In 76.270398 36.010080 4.380790
In 96.921638 28.856280 7.301316
In 74.483653 31.951014 1.853950
In 79.646462 41.375429 4.774476
In 79.368084 33.739464 4.380790
In 75.237836 40.893263 7.301316
In 96.167454 41.375429 1.853950
In 97.815010 33.980547 4.774476
In 92.176396 30.403647 4.380790
In 75.655404 30.403647 7.301316
In 77.163770 41.134346 1.853950
O 98.249512 41.238791 2.688637
O 95.796145 33.876101 7.980630
O 78.573011 28.951426 5.366175
O 99.103648 39.009668 8.116143
O 76.241073 28.698181 2.688637
O 96.234777 37.408647 7.980630
O 96.720495 32.109113 5.366175
O 77.744483 30.552446 8.116143
O 98.105780 30.216218 2.688637
O 80.565443 28.868442 7.980630
O 97.302859 39.092652 5.366175
O 95.748234 30.591077 8.116143
O 98.249512 41.238791 11.450216
O 75.144905 41.029901 5.060104
O 95.094003 28.951426 2.445649
O 78.452408 31.855868 5.195616
O 76.241073 28.698181 11.450216
O 75.583538 30.254848 5.060104
O 76.069255 39.262912 2.445649
O 94.265475 30.552446 5.195616
O 98.105780 30.216218 11.450216
O 97.086434 28.868442 5.060104
O 76.651620 31.938852 2.445649
O 75.096994 37.744876 5.195616
O 75.220902 30.299202 9.387156
O 77.674269 37.661892 4.095162
O 94.897403 42.586567 6.709617
O 74.366767 32.528325 3.959650
O 97.229341 42.839812 9.387156
O 77.235637 34.129346 4.095162
O 76.749920 39.428880 6.709617
O 95.725931 40.985547 3.959650
O 75.364634 41.321776 9.387156
O 92.904971 42.669551 4.095162
O 76.167555 32.445341 6.709617
O 77.722180 40.946916 3.959650
O 75.220902 30.299202 0.625577
O 98.325509 30.508093 7.015688
O 78.376411 42.586567 9.630144
O 95.018006 39.682125 6.880176
O 97.229341 42.839812 0.625577
O 97.886877 41.283145 7.015688
O 97.401159 32.275081 9.630144
O 79.204939 40.985547 6.880176
O 75.364634 41.321776 0.625577
O 76.383980 42.669551 7.015688
O 96.818794 39.599141 9.630144
O 98.373420 33.793117 6.880176
In 86.735207 35.768997 1.657107
In 84.670083 39.345896 7.498159
In 90.865455 35.768997 7.498159
In 84.670083 32.192097 7.498159
In 86.735207 35.768997 10.418686
In 88.800331 32.192097 4.577633
In 82.604959 35.768997 4.577633
In 88.800331 39.345896 4.577633
In 86.596018 32.433180 1.460263
In 80.679024 35.527913 1.853950
In 88.939520 35.527913 4.774476
In 86.596018 32.433180 10.221842
In 89.693704 37.316363 1.460263
In 89.972082 30.644730 1.853950
In 85.841834 37.798529 4.774476
In 89.693704 37.316363 10.221842
In 83.915900 37.557446 1.460263
In 89.554514 41.134346 1.853950
In 85.424266 33.980547 4.774476
In 83.915900 37.557446 10.221842
In 82.744148 31.951014 4.774476
In 88.661142 28.856280 4.380790
In 84.530894 36.010080 7.301316
In 86.874396 39.104813 1.853950
In 92.037206 34.221630 4.774476
In 91.758828 40.893263 4.380790
In 87.628580 33.739464 7.301316
In 83.776710 34.221630 1.853950
In 85.424266 41.134346 4.774476
In 79.785652 37.557446 4.380790
In 88.046148 37.557446 7.301316
In 89.554514 33.980547 1.853950
O 85.858768 34.084992 2.688637
O 83.405401 41.029901 7.980630
O 90.963755 36.105225 5.366175
O 86.712904 31.855868 8.116143
O 88.631817 35.851981 2.688637
O 83.844033 30.254848 7.980630
O 84.329751 39.262912 5.366175
O 90.135227 37.706245 8.116143
O 85.715036 37.370017 2.688637
O 92.956187 36.022241 7.980630
O 84.912116 31.938852 5.366175
O 83.357490 37.744876 8.116143
O 85.858768 34.084992 11.450216
O 87.535649 33.876101 5.060104
O 82.703259 36.105225 2.445649
O 90.843152 39.009668 5.195616
O 88.631817 35.851981 11.450216
O 87.974281 37.408647 5.060104
O 88.459999 32.109113 2.445649
O 81.874731 37.706245 5.195616
O 85.715036 37.370017 11.450216
O 84.695691 36.022241 5.060104
O 89.042364 39.092652 2.445649
O 87.487738 30.591077 5.195616
O 87.611646 37.453001 9.387156
O 90.065013 30.508093 4.095162
O 82.506659 35.432768 6.709617
O 86.757510 39.682125 3.959650
O 84.838597 35.686012 9.387156
O 89.626381 41.283145 4.095162
O 89.140663 32.275081 6.709617
O 83.335187 33.831748 3.959650
O 87.755378 34.167976 9.387156
O 80.514228 35.515752 4.095162
O 88.558298 39.599141 6.709617
O 90.112924 33.793117 3.959650
O 87.611646 37.453001 0.625577
O 85.934765 37.661892 7.015688
O 90.767155 35.432768 9.630144
O 82.627262 32.528325 6.880176
O 84.838597 35.686012 0.625577
O 85.496133 34.129346 7.015688
O 85.010416 39.428880 9.630144
O 91.595683 33.831748 6.880176
O 87.755378 34.167976 0.625577
O 88.774723 35.515752 7.015688
O 84.428051 32.445341 9.630144
O 85.982676 40.946916 6.880176
In 78.474711 35.768997 7.498159
In 76.409587 39.345896 13.339212
In 82.604959 35.768997 13.339212
In 76.409587 32.192097 13.339212
In 80.539835 32.192097 10.418686
In 99.125951 35.768997 10.418686
In 80.539835 39.345896 10.418686
In 78.335522 32.433180 7.301316
In 97.200016 35.527913 7.695003
In 80.679024 35.527913 10.615529
In 81.433208 37.316363 7.301316
In 81.711586 30.644730 7.695003
In 77.581339 37.798529 10.615529
In 75.655404 37.557446 7.301316
In 81.294018 41.134346 7.695003
In 77.163770 33.980547 10.615529
In 74.483653 31.951014 10.615529
In 80.400646 28.856280 10.221842
In 76.270398 36.010080 13.142369
In 78.613900 39.104813 7.695003
In 83.776710 34.221630 10.615529
In 83.498332 40.893263 10.221842
In 79.368084 33.739464 13.142369
In 75.516215 34.221630 7.695003
In 77.163770 41.134346 10.615529
In 96.306644 37.557446 10.221842
In 79.785652 37.557446 13.142369
In 81.294018 33.980547 7.695003
O 77.598273 34.084992 8.529689
O 75.144905 41.029901 13.821683
O 82.703259 36.105225 11.207228
O 78.452408 31.855868 13.957195
O 80.371321 35.851981 8.529689
O 75.583538 30.254848 13.821683
O 76.069255 39.262912 11.207228
O 81.874731 37.706245 13.957195
O 77.454540 37.370017 8.529689
O 84.695691 36.022241 13.821683
O 76.651620 31.938852 11.207228
O 75.096994 37.744876 13.957195
O 79.275153 33.876101 10.901157
O 74.442763 36.105225 8.286701
O 82.582656 39.009668 11.036669
O 79.713786 37.408647 10.901157
O 80.199503 32.109113 8.286701
O 98.395723 37.706245 11.036669
O 76.435195 36.022241 10.901157
O 80.781868 39.092652 8.286701
O 79.227242 30.591077 11.036669
O 81.804517 30.508093 9.936215
O 99.027651 35.432768 12.550670
O 78.497014 39.682125 9.800702
O 81.365885 41.283145 9.936215
O 80.880168 32.275081 12.550670
O 75.074691 33.831748 9.800702
O 97.035219 35.515752 9.936215
O 80.297803 39.599141 12.550670
O 81.852428 33.793117 9.800702
O 79.351150 37.453001 6.466629
O 77.674269 37.661892 12.856741
O 74.366767 32.528325 12.721229
O 76.578101 35.686012 6.466629
O 77.235637 34.129346 12.856741
O 83.335187 33.831748 12.721229
O 79.494882 34.167976 6.466629
O 80.514228 35.515752 12.856741
O 77.722180 40.946916 12.721229
In 90.865455 0.000000 7.498159
In 88.800331 32.192097 13.339212
In 94.995703 0.000000 13.339212
In 88.800331 39.345896 13.339212
In 92.930579 39.345896 10.418686
In 86.735207 0.000000 10.418686
In 92.930579 32.192097 10.418686
In 90.726266 39.586979 7.301316
In 84.809272 42.681713 7.695003
In 93.069768 42.681713 10.615529
In 93.823952 30.162564 7.301316
In 94.102330 37.798529 7.695003
In 89.972082 30.644730 10.615529
In 88.046148 30.403647 7.301316
In 93.684762 33.980547 7.695003
In 89.554514 41.134346 10.615529
In 86.874396 39.104813 10.615529
In 92.791390 36.010080 10.221842
In 88.661142 28.856280 13.142369
In 91.004644 31.951014 7.695003
In 96.167454 41.375429 10.615529
In 95.889076 33.739464 10.221842
In 91.758828 40.893263 13.142369
In 87.906958 41.375429 7.695003
In 89.554514 33.980547 10.615529
In 83.915900 30.403647 10.221842
In 92.176396 30.403647 13.142369
In 93.684762 41.134346 7.695003
O 89.989016 41.238791 8.529689
O 87.535649 33.876101 13.821683
O 95.094003 28.951426 11.207228
O 90.843152 39.009668 13.957195
O 92.762065 28.698181 8.529689
O 87.974281 37.408647 13.821683
O 88.459999 32.109113 11.207228
O 94.265475 30.552446 13.957195
O 89.845284 30.216218 8.529689
O 97.086434 28.868442 13.821683
O 89.042364 39.092652 11.207228
O 87.487738 30.591077 13.957195
O 91.665897 41.029901 10.901157
O 86.833507 28.951426 8.286701
O 94.973400 31.855868 11.036669
O 92.104529 30.254848 10.901157
O 92.590247 39.262912 8.286701
O 86.004979 30.552446 11.036669
O 88.825939 28.868442 10.901157
O 93.172612 31.938852 8.286701
O 91.617986 37.744876 11.036669
O 94.195261 37.661892 9.936215
O 86.636907 42.586567 12.550670
O 90.887758 32.528325 9.800702
O 93.756629 34.129346 9.936215
O 93.270911 39.428880 12.550670
O 87.465435 40.985547 9.800702
O 84.644476 42.669551 9.936215
O 92.688546 32.445341 12.550670
O 94.243172 40.946916 9.800702
O 91.741894 30.299202 6.466629
O 90.065013 30.508093 12.856741
O 86.757510 39.682125 12.721229
O 88.968845 42.839812 6.466629
O 89.626381 41.283145 12.856741
O 95.725931 40.985547 12.721229
O 91.885626 41.321776 6.466629
O 92.904971 42.669551 12.856741
O 90.112924 33.793117 12.721229
In 82.604959 0.000000 13.339212
In 80.539835 32.192097 1.657107
In 86.735207 0.000000 1.657107
In 80.539835 39.345896 1.657107
In 82.604959 0.000000 4.577633
In 82.465770 39.586979 13.142369
In 76.548777 42.681713 13.536055
In 82.465770 39.586979 4.380790
In 85.563456 30.162564 13.142369
In 85.841834 37.798529 13.536055
In 85.563456 30.162564 4.380790
In 79.785652 30.403647 13.142369
In 85.424266 33.980547 13.536055
In 79.785652 30.403647 4.380790
In 80.400646 28.856280 1.460263
In 82.744148 31.951014 13.536055
In 83.498332 40.893263 1.460263
In 79.646462 41.375429 13.536055
In 83.915900 30.403647 1.460263
In 85.424266 41.134346 13.536055
O 81.728520 41.238791 14.370742
O 79.275153 33.876101 2.139578
O 82.582656 39.009668 2.275090
O 84.501569 28.698181 14.370742
O 79.713786 37.408647 2.139578
O 86.004979 30.552446 2.275090
O 81.584788 30.216218 14.370742
O 88.825939 28.868442 2.139578
O 79.227242 30.591077 2.275090
O 81.728520 41.238791 5.609163
O 78.573011 28.951426 14.127754
O 84.501569 28.698181 5.609163
O 84.329751 39.262912 14.127754
O 81.584788 30.216218 5.609163
O 84.912116 31.938852 14.127754
O 83.481398 30.299202 3.546103
O 78.376411 42.586567 0.868565
O 80.708349 42.839812 3.546103
O 85.010416 39.428880 0.868565
O 83.625130 41.321776 3.546103
O 84.428051 32.445341 0.868565
O 83.481398 30.299202 12.307682
O 81.804517 30.508093 1.174636
O 86.636907 42.586567 3.789091
O 78.497014 39.682125 1.039123
O 80.708349 42.839812 12.307682
O 81.365885 41.283145 1.174636
O 80.880168 32.275081 3.789091
O 87.465435 40.985547 1.039123
O 83.625130 41.321776 12.307682
O 84.644476 42.669551 1.174636
O 80.297803 39.599141 3.789091
O 81.852428 33.793117 1.039123
In 94.995703 35.768997 13.339212
In 92.930579 39.345896 1.657107
In 99.125951 35.768997 1.657107
In 92.930579 32.192097 1.657107
In 94.995703 35.768997 4.577633
In 94.856514 32.433180 13.142369
In 88.939520 35.527913 13.536055
In 94.856514 32.433180 4.380790
In 97.954200 37.316363 13.142369
In 98.232578 30.644730 13.536055
In 97.954200 37.316363 4.380790
In 92.176396 37.557446 13.142369
In 97.815010 41.134346 13.536055
In 92.176396 37.557446 4.380790
In 92.791390 36.010080 1.460263
In 95.134892 39.104813 13.536055
In 95.889076 33.739464 1.460263
In 92.037206 34.221630 13.536055
In 96.306644 37.557446 1.460263
In 97.815010 33.980547 13.536055
O 94.119264 34.084992 14.370742
O 91.665897 41.029901 2.139578
O 94.973400 31.855868 2.275090
O 96.892313 35.851981 14.370742
O 92.104529 30.254848 2.139578
O 98.395723 37.706245 2.275090
O 93.975532 37.370017 14.370742
O 76.435195 36.022241 2.139578
O 91.617986 37.744876 2.275090
O 94.119264 34.084992 5.609163
O 90.963755 36.105225 14.127754
O 96.892313 35.851981 5.609163
O 96.720495 32.109113 14.127754
O 93.975532 37.370017 5.609163
O 97.302859 39.092652 14.127754
O 95.872142 37.453001 3.546103
O 90.767155 35.432768 0.868565
O 93.099093 35.686012 3.546103
O 97.401159 32.275081 0.868565
O 96.015874 34.167976 3.546103
O 96.818794 39.599141 0.868565
O 95.872142 37.453001 12.307682
O 94.195261 37.661892 1.174636
O 99.027651 35.432768 3.789091
O 90.887758 32.528325 1.039123
O 93.099093 35.686012 12.307682
O 93.756629 34.129346 1.174636
O 93.270911 39.428880 3.789091
O 75.074691 33.831748 1.039123
O 96.015874 34.167976 12.307682
O 97.035219 35.515752 1.174636
O 92.688546 32.445341 3.789091
O 94.243172 40.946916 1.039123
In 74.344463 0.000000 19.180265
In 97.060827 32.192097 25.021317
In 78.474711 0.000000 25.021317
In 97.060827 39.345896 25.021317
In 99.125951 0.000000 27.941844
In 76.409587 39.345896 22.100791
In 94.995703 0.000000 22.100791
In 76.409587 32.192097 22.100791
In 98.986762 39.586979 18.983421
In 93.069768 42.681713 19.377108
In 76.548777 42.681713 22.297634
In 98.986762 39.586979 27.745000
In 77.302960 30.162564 18.983421
In 77.581339 37.798529 19.377108
In 98.232578 30.644730 22.297634
In 96.306644 30.403647 18.983421
In 77.163770 33.980547 19.377108
In 97.815010 41.134346 22.297634
In 95.134892 39.104813 22.297634
In 76.270398 36.010080 21.903948
In 74.483653 31.951014 19.377108
In 79.646462 41.375429 22.297634
In 79.368084 33.739464 21.903948
In 75.237836 40.893263 24.824474
In 96.167454 41.375429 19.377108
In 97.815010 33.980547 22.297634
In 92.176396 30.403647 21.903948
In 77.163770 41.134346 19.377108
O 98.249512 41.238791 20.211795
O 95.796145 33.876101 25.503788
O 99.103648 39.009668 25.639301
O 76.241073 28.698181 20.211795
O 96.234777 37.408647 25.503788
O 96.720495 32.109113 22.889333
O 98.105780 30.216218 20.211795
O 97.302859 39.092652 22.889333
O 98.249512 41.238791 28.973374
O 75.144905 41.029901 22.583262
O 95.094003 28.951426 19.968807
O 78.452408 31.855868 22.718774
O 75.583538 30.254848 22.583262
O 76.069255 39.262912 19.968807
O 94.265475 30.552446 22.718774
O 76.651620 31.938852 19.968807
O 75.096994 37.744876 22.718774
O 77.674269 37.661892 21.618320
O 94.897403 42.586567 24.232775
O 74.366767 32.528325 21.482808
O 97.229341 42.839812 26.910314
O 77.235637 34.129346 21.618320
O 76.749920 39.428880 24.232775
O 95.725931 40.985547 21.482808
O 75.364634 41.321776 26.910314
O 92.904971 42.669551 21.618320
O 76.167555 32.445341 24.232775
O 77.722180 40.946916 21.482808
O 75.220902 30.299202 18.148735
O 78.376411 42.586567 27.153302
O 95.018006 39.682125 24.403334
O 97.229341 42.839812 18.148735
O 97.886877 41.283145 24.538846
O 79.204939 40.985547 24.403334
O 75.364634 41.321776 18.148735
O 76.383980 42.669551 24.538846
O 96.818794 39.599141 27.153302
O 98.373420 33.793117 24.403334
In 86.735207 35.768997 19.180265
In 84.670083 39.345896 25.021317
In 90.865455 35.768997 25.021317
In 84.670083 32.192097 25.021317
In 86.735207 35.768997 27.941844
In 88.800331 32.192097 22.100791
In 82.604959 35.768997 22.100791
In 88.800331 39.345896 22.100791
In 86.596018 32.433180 18.983421
In 80.679024 35.527913 19.377108
In 88.939520 35.527913 22.297634
In 89.693704 37.316363 18.983421
In 89.972082 30.644730 19.377108
In 85.841834 37.798529 22.297634
In 89.693704 37.316363 27.745000
In 83.915900 37.557446 18.983421
In 89.554514 41.134346 19.377108
In 85.424266 33.980547 22.297634
In 83.915900 37.557446 27.745000
In 82.744148 31.951014 22.297634
In 88.661142 28.856280 21.903948
In 84.530894 36.010080 24.824474
In 86.874396 39.104813 19.377108
In 92.037206 34.221630 22.297634
In 91.758828 40.893263 21.903948
In 87.628580 33.739464 24.824474
In 83.776710 34.221630 19.377108
In 85.424266 41.134346 22.297634
In 79.785652 37.557446 21.903948
In 88.046148 37.557446 24.824474
In 89.554514 33.980547 19.377108
O 85.858768 34.084992 20.211795
O 83.405401 41.029901 25.503788
O 90.963755 36.105225 22.889333
O 86.712904 31.855868 25.639301
O 88.631817 35.851981 20.211795
O 84.329751 39.262912 22.889333
O 90.135227 37.706245 25.639301
O 85.715036 37.370017 20.211795
O 92.956187 36.022241 25.503788
O 84.912116 31.938852 22.889333
O 83.357490 37.744876 25.639301
O 87.535649 33.876101 22.583262
O 82.703259 36.105225 19.968807
O 90.843152 39.009668 22.718774
O 88.631817 35.851981 28.973374
O 87.974281 37.408647 22.583262
O 88.459999 32.109113 19.968807
O 81.874731 37.706245 22.718774
O 85.715036 37.370017 28.973374
O 84.695691 36.022241 22.583262
O 89.042364 39.092652 19.968807
O 87.487738 30.591077 22.718774
O 87.611646 37.453001 26.910314
O 90.065013 30.508093 21.618320
O 82.506659 35.432768 24.232775
O 86.757510 39.682125 21.482808
O 84.838597 35.686012 26.910314
O 89.626381 41.283145 21.618320
O 89.140663 32.275081 24.232775
O 83.335187 33.831748 21.482808
O 80.514228 35.515752 21.618320
O 88.558298 39.599141 24.232775
O 90.112924 33.793117 21.482808
O 87.611646 37.453001 18.148735
O 85.934765 37.661892 24.538846
O 90.767155 35.432768 27.153302
O 82.627262 32.528325 24.403334
O 84.838597 35.686012 18.148735
O 85.496133 34.129346 24.538846
O 85.010416 39.428880 27.153302
O 91.595683 33.831748 24.403334
O 87.755378 34.167976 18.148735
O 88.774723 35.515752 24.538846
O 85.982676 40.946916 24.403334
In 78.474711 35.768997 25.021317
In 78.474711 35.768997 16.259738
In 99.125951 35.768997 27.941844
In 80.539835 39.345896 27.941844
In 78.335522 32.433180 24.824474
In 97.200016 35.527913 25.218161
In 78.335522 32.433180 16.062895
In 81.433208 37.316363 24.824474
In 77.581339 37.798529 28.138687
In 81.433208 37.316363 16.062895
In 75.655404 37.557446 24.824474
In 81.294018 41.134346 25.218161
In 75.655404 37.557446 16.062895
In 78.613900 39.104813 25.218161
In 83.498332 40.893263 27.745000
In 75.516215 34.221630 25.218161
In 77.163770 41.134346 28.138687
In 96.306644 37.557446 27.745000
In 81.294018 33.980547 25.218161
O 77.598273 34.084992 26.052847
O 80.371321 35.851981 26.052847
O 76.069255 39.262912 28.730386
O 77.454540 37.370017 26.052847
O 77.598273 34.084992 17.291268
O 74.442763 36.105225 25.809859
O 82.582656 39.009668 28.559827
O 80.371321 35.851981 17.291268
O 79.713786 37.408647 28.424315
O 80.199503 32.109113 25.809859
O 98.395723 37.706245 28.559827
O 77.454540 37.370017 17.291268
O 76.435195 36.022241 28.424315
O 80.781868 39.092652 25.809859
O 79.351150 37.453001 15.228208
O 78.497014 39.682125 27.323860
O 76.578101 35.686012 15.228208
O 81.365885 41.283145 27.459373
O 79.494882 34.167976 15.228208
O 97.035219 35.515752 27.459373
O 79.351150 37.453001 23.989787
O 82.506659 35.432768 15.471196
O 76.578101 35.686012 23.989787
O 76.749920 39.428880 15.471196
O 79.494882 34.167976 23.989787
O 76.167555 32.445341 15.471196
In 90.865455 0.000000 25.021317
In 90.865455 0.000000 16.259738
In 92.930579 39.345896 27.941844
In 86.735207 0.000000 27.941844
In 90.726266 39.586979 24.824474
In 84.809272 42.681713 25.218161
In 93.069768 42.681713 28.138687
In 90.726266 39.586979 16.062895
In 94.102330 37.798529 25.218161
In 93.823952 30.162564 16.062895
In 93.684762 33.980547 25.218161
In 89.554514 41.134346 28.138687
In 88.046148 30.403647 16.062895
In 86.874396 39.104813 28.138687
In 92.791390 36.010080 27.745000
In 91.004644 31.951014 25.218161
In 96.167454 41.375429 28.138687
In 87.906958 41.375429 25.218161
In 93.684762 41.134346 25.218161
O 89.989016 41.238791 26.052847
O 89.042364 39.092652 28.730386
O 89.989016 41.238791 17.291268
O 91.665897 41.029901 28.424315
O 92.762065 28.698181 17.291268
O 92.590247 39.262912 25.809859
O 89.845284 30.216218 17.291268
O 93.172612 31.938852 25.809859
O 91.617986 37.744876 28.559827
O 91.741894 30.299202 15.228208
O 94.195261 37.661892 27.459373
O 88.968845 42.839812 15.228208
O 87.465435 40.985547 27.323860
O 91.885626 41.321776 15.228208
O 84.644476 42.669551 27.459373
O 94.243172 40.946916 27.323860
O 94.897403 42.586567 15.471196
O 88.968845 42.839812 23.989787
O 89.140663 32.275081 15.471196
O 91.885626 41.321776 23.989787
O 88.558298 39.599141 15.471196
In 80.539835 32.192097 19.180265
In 86.735207 0.000000 19.180265
In 80.539835 39.345896 19.180265
In 82.604959 0.000000 22.100791
In 84.670083 39.345896 16.259738
In 78.474711 0.000000 16.259738
In 84.670083 32.192097 16.259738
In 84.809272 42.681713 16.456582
In 82.465770 39.586979 21.903948
In 81.711586 30.644730 16.456582
In 85.563456 30.162564 21.903948
In 81.294018 41.134346 16.456582
In 79.785652 30.403647 21.903948
In 78.613900 39.104813 16.456582
In 84.530894 36.010080 16.062895
In 80.400646 28.856280 18.983421
In 87.906958 41.375429 16.456582
In 87.628580 33.739464 16.062895
In 83.498332 40.893263 18.983421
In 81.294018 33.980547 16.456582
In 75.655404 30.403647 16.062895
In 83.915900 30.403647 18.983421
O 79.275153 33.876101 19.662736
O 86.833507 28.951426 17.048280
O 82.582656 39.009668 19.798248
O 79.713786 37.408647 19.662736
O 80.199503 32.109113 17.048280
O 86.004979 30.552446 19.798248
O 88.825939 28.868442 19.662736
O 80.781868 39.092652 17.048280
O 79.227242 30.591077 19.798248
O 81.728520 41.238791 23.132321
O 83.405401 41.029901 16.742209
O 86.712904 31.855868 16.877722
O 83.844033 30.254848 16.742209
O 77.744483 30.552446 16.877722
O 81.584788 30.216218 23.132321
O 80.565443 28.868442 16.742209
O 83.357490 37.744876 16.877722
O 83.481398 30.299202 21.069261
O 85.934765 37.661892 15.777267
O 78.376411 42.586567 18.391723
O 82.627262 32.528325 15.641755
O 80.708349 42.839812 21.069261
O 85.496133 34.129346 15.777267
O 85.010416 39.428880 18.391723
O 79.204939 40.985547 15.641755
O 83.625130 41.321776 21.069261
O 76.383980 42.669551 15.777267
O 84.428051 32.445341 18.391723
O 85.982676 40.946916 15.641755
O 81.804517 30.508093 18.697794
O 86.636907 42.586567 21.312249
O 78.497014 39.682125 18.562281
O 81.365885 41.283145 18.697794
O 80.880168 32.275081 21.312249
O 87.465435 40.985547 18.562281
O 84.644476 42.669551 18.697794
O 80.297803 39.599141 21.312249
O 81.852428 33.793117 18.562281
In 92.930579 39.345896 19.180265
In 99.125951 35.768997 19.180265
In 92.930579 32.192097 19.180265
In 94.995703 35.768997 22.100791
In 97.060827 32.192097 16.259738
In 90.865455 35.768997 16.259738
In 97.060827 39.345896 16.259738
In 97.200016 35.527913 16.456582
In 94.856514 32.433180 21.903948
In 94.102330 37.798529 16.456582
In 97.954200 37.316363 21.903948
In 93.684762 33.980547 16.456582
In 92.176396 37.557446 21.903948
In 91.004644 31.951014 16.456582
In 96.921638 28.856280 16.062895
In 92.791390 36.010080 18.983421
In 75.516215 34.221630 16.456582
In 75.237836 40.893263 16.062895
In 95.889076 33.739464 18.983421
In 93.684762 41.134346 16.456582
In 88.046148 37.557446 16.062895
In 96.306644 37.557446 18.983421
O 91.665897 41.029901 19.662736
O 74.442763 36.105225 17.048280
O 94.973400 31.855868 19.798248
O 92.104529 30.254848 19.662736
O 92.590247 39.262912 17.048280
O 98.395723 37.706245 19.798248
O 76.435195 36.022241 19.662736
O 93.172612 31.938852 17.048280
O 91.617986 37.744876 19.798248
O 94.119264 34.084992 23.132321
O 95.796145 33.876101 16.742209
O 99.103648 39.009668 16.877722
O 96.892313 35.851981 23.132321
O 96.234777 37.408647 16.742209
O 90.135227 37.706245 16.877722
O 93.975532 37.370017 23.132321
O 92.956187 36.022241 16.742209
O 95.748234 30.591077 16.877722
O 95.872142 37.453001 21.069261
O 98.325509 30.508093 15.777267
O 90.767155 35.432768 18.391723
O 95.018006 39.682125 15.641755
O 93.099093 35.686012 21.069261
O 97.886877 41.283145 15.777267
O 97.401159 32.275081 18.391723
O 91.595683 33.831748 15.641755
O 96.015874 34.167976 21.069261
O 88.774723 35.515752 15.777267
O 96.818794 39.599141 18.391723
O 98.373420 33.793117 15.641755
O 94.195261 37.661892 18.697794
O 99.027651 35.432768 21.312249
O 90.887758 32.528325 18.562281
O 93.756629 34.129346 18.697794
O 93.270911 39.428880 21.312249
O 75.074691 33.831748 18.562281
O 97.035219 35.515752 18.697794
O 92.688546 32.445341 21.312249
O 94.243172 40.946916 18.562281
In 99.125951 0.000000 1.657107
In 121.842315 32.192097 7.498159
In 103.256199 0.000000 7.498159
In 121.842315 39.345896 7.498159
In 0.000000 0.000000 10.418686
In 101.191075 39.345896 4.577633
In 119.777191 0.000000 4.577633
In 101.191075 32.192097 4.577633
In 123.768249 39.586979 1.460263
In 117.851256 42.681713 1.853950
In 101.330264 42.681713 4.774476
In 123.768249 39.586979 10.221842
In 102.084448 30.162564 1.460263
In 102.362826 37.798529 1.853950
In 123.014066 30.644730 4.774476
In 102.084448 30.162564 10.221842
In 121.088131 30.403647 1.460263
In 101.945258 33.980547 1.853950
In 122.596498 41.134346 4.774476
In 121.088131 30.403647 10.221842
In 119.916380 39.104813 4.774476
In 101.051886 36.010080 4.380790
In 121.703125 28.856280 7.301316
In 99.265140 31.951014 1.853950
In 104.427950 41.375429 4.774476
In 104.149571 33.739464 4.380790
In 100.019324 40.893263 7.301316
In 120.948942 41.375429 1.853950
In 122.596498 33.980547 4.774476
In 116.957883 30.403647 4.380790
In 100.436892 30.403647 7.301316
In 101.945258 41.134346 1.853950
O 123.031000 41.238791 2.688637
O 120.577633 33.876101 7.980630
O 103.354499 28.951426 5.366175
O 123.885135 39.009668 8.116143
O 101.022561 28.698181 2.688637
O 121.016265 37.408647 7.980630
O 121.501982 32.109113 5.366175
O 102.525971 30.552446 8.116143
O 122.887267 30.216218 2.688637
O 105.346930 28.868442 7.980630
O 122.084347 39.092652 5.366175
O 120.529722 30.591077 8.116143
O 123.031000 41.238791 11.450216
O 99.926393 41.029901 5.060104
O 119.875491 28.951426 2.445649
O 103.233896 31.855868 5.195616
O 101.022561 28.698181 11.450216
O 100.365025 30.254848 5.060104
O 100.850742 39.262912 2.445649
O 119.046963 30.552446 5.195616
O 122.887267 30.216218 11.450216
O 121.867922 28.868442 5.060104
O 101.433107 31.938852 2.445649
O 99.878482 37.744876 5.195616
O 100.002390 30.299202 9.387156
O 102.455757 37.661892 4.095162
O 119.678891 42.586567 6.709617
O 99.148254 32.528325 3.959650
O 122.010829 42.839812 9.387156
O 102.017124 34.129346 4.095162
O 101.531407 39.428880 6.709617
O 120.507419 40.985547 3.959650
O 100.146122 41.321776 9.387156
O 117.686459 42.669551 4.095162
O 100.949042 32.445341 6.709617
O 102.503668 40.946916 3.959650
O 100.002390 30.299202 0.625577
O 123.106997 30.508093 7.015688
O 103.157899 42.586567 9.630144
O 119.799494 39.682125 6.880176
O 122.010829 42.839812 0.625577
O 122.668364 41.283145 7.015688
O 122.182647 32.275081 9.630144
O 103.986427 40.985547 6.880176
O 100.146122 41.321776 0.625577
O 101.165467 42.669551 7.015688
O 121.600282 39.599141 9.630144
O 123.154907 33.793117 6.880176
In 111.516695 35.768997 1.657107
In 109.451571 39.345896 7.498159
In 115.646943 35.768997 7.498159
In 109.451571 32.192097 7.498159
In 111.516695 35.768997 10.418686
In 113.581819 32.192097 4.577633
In 107.386447 35.768997 4.577633
In 113.581819 39.345896 4.577633
In 111.377505 32.433180 1.460263
In 105.460512 35.527913 1.853950
In 113.721008 35.527913 4.774476
In 111.377505 32.433180 10.221842
In 114.475191 37.316363 1.460263
In 114.753570 30.644730 1.853950
In 110.623322 37.798529 4.774476
In 114.475191 37.316363 10.221842
In 108.697388 37.557446 1.460263
In 114.336002 41.134346 1.853950
In 110.205754 33.980547 4.774476
In 108.697388 37.557446 10.221842
In 107.525636 31.951014 4.774476
In 113.442629 28.856280 4.380790
In 109.312381 36.010080 7.301316
In 111.655884 39.104813 1.853950
In 116.818694 34.221630 4.774476
In 116.540315 40.893263 4.380790
In 112.410067 33.739464 7.301316
In 108.558198 34.221630 1.853950
In 110.205754 41.134346 4.774476
In 104.567140 37.557446 4.380790
In 112.827635 37.557446 7.301316
In 114.336002 33.980547 1.853950
O 110.640256 34.084992 2.688637
O 108.186889 41.029901 7.980630
O 115.745243 36.105225 5.366175
O 111.494391 31.855868 8.116143
O 113.413305 35.851981 2.688637
O 108.625521 30.254848 7.980630
O 109.111238 39.262912 5.366175
O 114.916715 37.706245 8.116143
O 110.496524 37.370017 2.688637
O 117.737674 36.022241 7.980630
O 109.693603 31.938852 5.366175
O 108.138978 37.744876 8.116143
O 110.640256 34.084992 11.450216
O 112.317137 33.876101 5.060104
O 107.484747 36.105225 2.445649
O 115.624639 39.009668 5.195616
O 113.413305 35.851981 11.450216
O 112.755769 37.408647 5.060104
O 113.241486 32.109113 2.445649
O 106.656219 37.706245 5.195616
O 110.496524 37.370017 11.450216
O 109.477178 36.022241 5.060104
O 113.823851 39.092652 2.445649
O 112.269226 30.591077 5.195616
O 112.393133 37.453001 9.387156
O 114.846501 30.508093 4.095162
O 107.288147 35.432768 6.709617
O 111.538998 39.682125 3.959650
O 109.620085 35.686012 9.387156
O 114.407868 41.283145 4.095162
O 113.922151 32.275081 6.709617
O 108.116675 33.831748 3.959650
O 112.536866 34.167976 9.387156
O 105.295715 35.515752 4.095162
O 113.339786 39.599141 6.709617
O 114.894412 33.793117 3.959650
O 112.393133 37.453001 0.625577
O 110.716253 37.661892 7.015688
O 115.548643 35.432768 9.630144
O 107.408750 32.528325 6.880176
O 109.620085 35.686012 0.625577
O 110.277620 34.129346 7.015688
O 109.791903 39.428880 9.630144
O 116.377171 33.831748 6.880176
O 112.536866 34.167976 0.625577
O 113.556211 35.515752 7.015688
O 109.209538 32.445341 9.630144
O 110.764164 40.946916 6.880176
In 103.256199 35.768997 7.498159
In 101.191075 39.345896 13.339212
In 107.386447 35.768997 13.339212
In 101.191075 32.192097 13.339212
In 105.321323 32.192097 10.418686
In 0.000000 35.768997 10.418686
In 105.321323 39.345896 10.418686
In 103.117010 32.433180 7.301316
In 121.981504 35.527913 7.695003
In 105.460512 35.527913 10.615529
In 106.214695 37.316363 7.301316
In 106.493074 30.644730 7.695003
In 102.362826 37.798529 10.615529
In 100.436892 37.557446 7.301316
In 106.075506 41.134346 7.695003
In 101.945258 33.980547 10.615529
In 99.265140 31.951014 10.615529
In 105.182133 28.856280 10.221842
In 101.051886 36.010080 13.142369
In 103.395388 39.104813 7.695003
In 108.558198 34.221630 10.615529
In 108.279819 40.893263 10.221842
In 104.149571 33.739464 13.142369
In 100.297702 34.221630 7.695003
In 101.945258 41.134346 10.615529
In 121.088131 37.557446 10.221842
In 104.567140 37.557446 13.142369
In 106.075506 33.980547 7.695003
O 102.379760 34.084992 8.529689
O 99.926393 41.029901 13.821683
O 107.484747 36.105225 11.207228
O 103.233896 31.855868 13.957195
O 105.152809 35.851981 8.529689
O 100.365025 30.254848 13.821683
O 100.850742 39.262912 11.207228
O 106.656219 37.706245 13.957195
O 102.236028 37.370017 8.529689
O 109.477178 36.022241 13.821683
O 101.433107 31.938852 11.207228
O 99.878482 37.744876 13.957195
O 104.056641 33.876101 10.901157
O 99.224251 36.105225 8.286701
O 107.364143 39.009668 11.036669
O 104.495273 37.408647 10.901157
O 104.980990 32.109113 8.286701
O 123.177211 37.706245 11.036669
O 101.216682 36.022241 10.901157
O 105.563355 39.092652 8.286701
O 104.008730 30.591077 11.036669
O 106.586005 30.508093 9.936215
O 123.809139 35.432768 12.550670
O 103.278502 39.682125 9.800702
O 106.147372 41.283145 9.936215
O 105.661655 32.275081 12.550670
O 99.856179 33.831748 9.800702
O 121.816707 35.515752 9.936215
O 105.079290 39.599141 12.550670
O 106.633916 33.793117 9.800702
O 104.132637 37.453001 6.466629
O 102.455757 37.661892 12.856741
O 99.148254 32.528325 12.721229
O 101.359589 35.686012 6.466629
O 102.017124 34.129346 12.856741
O 108.116675 33.831748 12.721229
O 104.276370 34.167976 6.466629
O 105.295715 35.515752 12.856741
O 102.503668 40.946916 12.721229
In 115.646943 0.000000 7.498159
In 113.581819 32.192097 13.339212
In 119.777191 0.000000 13.339212
In 113.581819 39.345896 13.339212
In 117.712067 39.345896 10.418686
In 111.516695 0.000000 10.418686
In 117.712067 32.192097 10.418686
In 115.507753 39.586979 7.301316
In 109.590760 42.681713 7.695003
In 117.851256 42.681713 10.615529
In 118.605439 30.162564 7.301316
In 118.883818 37.798529 7.695003
In 114.753570 30.644730 10.615529
In 112.827635 30.403647 7.301316
In 118.466250 33.980547 7.695003
In 114.336002 41.134346 10.615529
In 111.655884 39.104813 10.615529
In 117.572877 36.010080 10.221842
In 113.442629 28.856280 13.142369
In 115.786132 31.951014 7.695003
In 120.948942 41.375429 10.615529
In 120.670563 33.739464 10.221842
In 116.540315 40.893263 13.142369
In 112.688446 41.375429 7.695003
In 114.336002 33.980547 10.615529
In 108.697388 30.403647 10.221842
In 116.957883 30.403647 13.142369
In 118.466250 41.134346 7.695003
O 114.770504 41.238791 8.529689
O 112.317137 33.876101 13.821683
O 119.875491 28.951426 11.207228
O 115.624639 39.009668 13.957195
O 117.543553 28.698181 8.529689
O 112.755769 37.408647 13.821683
O 113.241486 32.109113 11.207228
O 119.046963 30.552446 13.957195
O 114.626771 30.216218 8.529689
O 121.867922 28.868442 13.821683
O 113.823851 39.092652 11.207228
O 112.269226 30.591077 13.957195
O 116.447385 41.029901 10.901157
O 111.614995 28.951426 8.286701
O 119.754887 31.855868 11.036669
O 116.886017 30.254848 10.901157
O 117.371734 39.262912 8.286701
O 110.786467 30.552446 11.036669
O 113.607426 28.868442 10.901157
O 117.954099 31.938852 8.286701
O 116.399474 37.744876 11.036669
O 118.976749 37.661892 9.936215
O 111.418395 42.586567 12.550670
O 115.669246 32.528325 9.800702
O 118.538116 34.129346 9.936215
O 118.052399 39.428880 12.550670
O 112.246923 40.985547 9.800702
O 109.425963 42.669551 9.936215
O 117.470034 32.445341 12.550670
O 119.024660 40.946916 9.800702
O 116.523381 30.299202 6.466629
O 114.846501 30.508093 12.856741
O 111.538998 39.682125 12.721229
O 113.750333 42.839812 6.466629
O 114.407868 41.283145 12.856741
O 120.507419 40.985547 12.721229
O 116.667114 41.321776 6.466629
O 117.686459 42.669551 12.856741
O 114.894412 33.793117 12.721229
In 107.386447 0.000000 13.339212
In 105.321323 32.192097 1.657107
In 111.516695 0.000000 1.657107
In 105.321323 39.345896 1.657107
In 107.386447 0.000000 4.577633
In 107.247257 39.586979 13.142369
In 101.330264 42.681713 13.536055
In 107.247257 39.586979 4.380790
In 110.344943 30.162564 13.142369
In 110.623322 37.798529 13.536055
In 110.344943 30.162564 4.380790
In 104.567140 30.403647 13.142369
In 110.205754 33.980547 13.536055
In 104.567140 30.403647 4.380790
In 105.182133 28.856280 1.460263
In 107.525636 31.951014 13.536055
In 108.279819 40.893263 1.460263
In 104.427950 41.375429 13.536055
In 108.697388 30.403647 1.460263
In 110.205754 41.134346 13.536055
O 106.510008 41.238791 14.370742
O 104.056641 33.876101 2.139578
O 107.364143 39.009668 2.275090
O 109.283057 28.698181 14.370742
O 104.495273 37.408647 2.139578
O 110.786467 30.552446 2.275090
O 106.366276 30.216218 14.370742
O 113.607426 28.868442 2.139578
O 104.008730 30.591077 2.275090
O 106.510008 41.238791 5.609163
O 103.354499 28.951426 14.127754
O 109.283057 28.698181 5.609163
O 109.111238 39.262912 14.127754
O 106.366276 30.216218 5.609163
O 109.693603 31.938852 14.127754
O 108.262885 30.299202 3.546103
O 103.157899 42.586567 0.868565
O 105.489837 42.839812 3.546103
O 109.791903 39.428880 0.868565
O 108.406618 41.321776 3.546103
O 109.209538 32.445341 0.868565
O 108.262885 30.299202 12.307682
O 106.586005 30.508093 1.174636
O 111.418395 42.586567 3.789091
O 103.278502 39.682125 1.039123
O 105.489837 42.839812 12.307682
O 106.147372 41.283145 1.174636
O 105.661655 32.275081 3.789091
O 112.246923 40.985547 1.039123
O 108.406618 41.321776 12.307682
O 109.425963 42.669551 1.174636
O 105.079290 39.599141 3.789091
O 106.633916 33.793117 1.039123
In 119.777191 35.768997 13.339212
In 117.712067 39.345896 1.657107
In 123.907439 35.768997 1.657107
In 117.712067 32.192097 1.657107
In 119.777191 35.768997 4.577633
In 119.638001 32.433180 13.142369
In 113.721008 35.527913 13.536055
In 119.638001 32.433180 4.380790
In 122.735687 37.316363 13.142369
In 123.014066 30.644730 13.536055
In 122.735687 37.316363 4.380790
In 116.957883 37.557446 13.142369
In 122.596498 41.134346 13.536055
In 116.957883 37.557446 4.380790
In 117.572877 36.010080 1.460263
In 119.916380 39.104813 13.536055
In 120.670563 33.739464 1.460263
In 116.818694 34.221630 13.536055
In 121.088131 37.557446 1.460263
In 122.596498 33.980547 13.536055
O 118.900752 34.084992 14.370742
O 116.447385 41.029901 2.139578
O 119.754887 31.855868 2.275090
O 121.673801 35.851981 14.370742
O 116.886017 30.254848 2.139578
O 123.177211 37.706245 2.275090
O 118.757019 37.370017 14.370742
O 101.216682 36.022241 2.139578
O 116.399474 37.744876 2.275090
O 118.900752 34.084992 5.609163
O 115.745243 36.105225 14.127754
O 121.673801 35.851981 5.609163
O 121.501982 32.109113 14.127754
O 118.757019 37.370017 5.609163
O 122.084347 39.092652 14.127754
O 120.653629 37.453001 3.546103
O 115.548643 35.432768 0.868565
O 117.880581 35.686012 3.546103
O 122.182647 32.275081 0.868565
O 120.797362 34.167976 3.546103
O 121.600282 39.599141 0.868565
O 120.653629 37.453001 12.307682
O 118.976749 37.661892 1.174636
O 123.809139 35.432768 3.789091
O 115.669246 32.528325 1.039123
O 117.880581 35.686012 12.307682
O 118.538116 34.129346 1.174636
O 118.052399 39.428880 3.789091
O 99.856179 33.831748 1.039123
O 120.797362 34.167976 12.307682
O 121.816707 35.515752 1.174636
O 117.470034 32.445341 3.789091
O 119.024660 40.946916 1.039123
In 99.125951 0.000000 19.180265
In 121.842315 32.192097 25.021317
In 103.256199 0.000000 25.021317
In 121.842315 39.345896 25.021317
In 0.000000 0.000000 27.941844
In 101.191075 39.345896 22.100791
In 119.777191 0.000000 22.100791
In 101.191075 32.192097 22.100791
In 123.768249 39.586979 18.983421
In 117.851256 42.681713 19.377108
In 101.330264 42.681713 22.297634
In 123.768249 39.586979 27.745000
In 102.084448 30.162564 18.983421
In 102.362826 37.798529 19.377108
In 123.014066 30.644730 22.297634
In 121.088131 30.403647 18.983421
In 101.945258 33.980547 19.377108
In 122.596498 41.134346 22.297634
In 119.916380 39.104813 22.297634
In 101.051886 36.010080 21.903948
In 99.265140 31.951014 19.377108
In 104.427950 41.375429 22.297634
In 104.149571 33.739464 21.903948
In 100.019324 40.893263 24.824474
In 120.948942 41.375429 19.377108
In 122.596498 33.980547 22.297634
In 116.957883 30.403647 21.903948
In 101.945258 41.134346 19.377108
O 123.031000 41.238791 20.211795
O 120.577633 33.876101 25.503788
O 123.885135 39.009668 25.639301
O 101.022561 28.698181 20.211795
O 121.016265 37.408647 25.503788
O 121.501982 32.109113 22.889333
O 122.887267 30.216218 20.211795
O 122.084347 39.092652 22.889333
O 123.031000 41.238791 28.973374
O 99.926393 41.029901 22.583262
O 119.875491 28.951426 19.968807
O 103.233896 31.855868 22.718774
O 100.365025 30.254848 22.583262
O 100.850742 39.262912 19.968807
O 119.046963 30.552446 22.718774
O 101.433107 31.938852 19.968807
O 99.878482 37.744876 22.718774
O 102.455757 37.661892 21.618320
O 119.678891 42.586567 24.232775
O 99.148254 32.528325 21.482808
O 122.010829 42.839812 26.910314
O 102.017124 34.129346 21.618320
O 101.531407 39.428880 24.232775
O 120.507419 40.985547 21.482808
O 100.146122 41.321776 26.910314
O 117.686459 42.669551 21.618320
O 100.949042 32.445341 24.232775
O 102.503668 40.946916 21.482808
O 100.002390 30.299202 18.148735
O 103.157899 42.586567 27.153302
O 119.799494 39.682125 24.403334
O 122.010829 42.839812 18.148735
O 122.668364 41.283145 24.538846
O 103.986427 40.985547 24.403334
O 100.146122 41.321776 18.148735
O 101.165467 42.669551 24.538846
O 121.600282 39.599141 27.153302
O 123.154907 33.793117 24.403334
In 111.516695 35.768997 19.180265
In 109.451571 39.345896 25.021317
In 115.646943 35.768997 25.021317
In 109.451571 32.192097 25.021317
In 111.516695 35.768997 27.941844
In 113.581819 32.192097 22.100791
In 107.386447 35.768997 22.100791
In 113.581819 39.345896 22.100791
In 111.377505 32.433180 18.983421
In 105.460512 35.527913 19.377108
In 113.721008 35.527913 22.297634
In 114.475191 37.316363 18.983421
In 114.753570 30.644730 19.377108
In 110.623322 37.798529 22.297634
In 114.475191 37.316363 27.745000
In 108.697388 37.557446 18.983421
In 114.336002 41.134346 19.377108
In 110.205754 33.980547 22.297634
In 108.697388 37.557446 27.745000
In 107.525636 31.951014 22.297634
In 113.442629 28.856280 21.903948
In 109.312381 36.010080 24.824474
In 111.655884 39.104813 19.377108
In 116.818694 34.221630 22.297634
In 116.540315 40.893263 21.903948
In 112.410067 33.739464 24.824474
In 108.558198 34.221630 19.377108
In 110.205754 41.134346 22.297634
In 104.567140 37.557446 21.903948
In 112.827635 37.557446 24.824474
In 114.336002 33.980547 19.377108
O 110.640256 34.084992 20.211795
O 108.186889 41.029901 25.503788
O 115.745243 36.105225 22.889333
O 111.494391 31.855868 25.639301
O 113.413305 35.851981 20.211795
O 109.111238 39.262912 22.889333
O 114.916715 37.706245 25.639301
O 110.496524 37.370017 20.211795
O 117.737674 36.022241 25.503788
O 109.693603 31.938852 22.889333
O 108.138978 37.744876 25.639301
O 112.317137 33.876101 22.583262
O 107.484747 36.105225 19.968807
O 115.624639 39.009668 22.718774
O 113.413305 35.851981 28.973374
O 112.755769 37.408647 22.583262
O 113.241486 32.109113 19.968807
O 106.656219 37.706245 22.718774
O 110.496524 37.370017 28.973374
O 109.477178 36.022241 22.583262
O 113.823851 39.092652 19.968807
O 112.269226 30.591077 22.718774
O 112.393133 37.453001 26.910314
O 114.846501 30.508093 21.618320
O 107.288147 35.432768 24.232775
O 111.538998 39.682125 21.482808
O 109.620085 35.686012 26.910314
O 114.407868 41.283145 21.618320
O 113.922151 32.275081 24.232775
O 108.116675 33.831748 21.482808
O 105.295715 35.515752 21.618320
O 113.339786 39.599141 24.232775
O 114.894412 33.793117 21.482808
O 112.393133 37.453001 18.148735
O 110.716253 37.661892 24.538846
O 115.548643 35.432768 27.153302
O 107.408750 32.528325 24.403334
O 109.620085 35.686012 18.148735
O 110.277620 34.129346 24.538846
O 109.791903 39.428880 27.153302
O 116.377171 33.831748 24.403334
O 112.536866 34.167976 18.148735
O 113.556211 35.515752 24.538846
O 110.764164 40.946916 24.403334
In 103.256199 35.768997 25.021317
In 103.256199 35.768997 16.259738
In 0.000000 35.768997 27.941844
In 105.321323 39.345896 27.941844
In 103.117010 32.433180 24.824474
In 121.981504 35.527913 25.218161
In 103.117010 32.433180 16.062895
In 106.214695 37.316363 24.824474
In 102.362826 37.798529 28.138687
In 106.214695 37.316363 16.062895
In 100.436892 37.557446 24.824474
In 106.075506 41.134346 25.218161
In 100.436892 37.557446 16.062895
In 103.395388 39.104813 25.218161
In 108.279819 40.893263 27.745000
In 100.297702 34.221630 25.218161
In 101.945258 41.134346 28.138687
In 121.088131 37.557446 27.745000
In 106.075506 33.980547 25.218161
O 102.379760 34.084992 26.052847
O 105.152809 35.851981 26.052847
O 100.850742 39.262912 28.730386
O 102.236028 37.370017 26.052847
O 102.379760 34.084992 17.291268
O 99.224251 36.105225 25.809859
O 107.364143 39.009668 28.559827
O 105.152809 35.851981 17.291268
O 104.495273 37.408647 28.424315
O 104.980990 32.109113 25.809859
O 123.177211 37.706245 28.559827
O 102.236028 37.370017 17.291268
O 101.216682 36.022241 28.424315
O 105.563355 39.092652 25.809859
O 104.132637 37.453001 15.228208
O 103.278502 39.682125 27.323860
O 101.359589 35.686012 15.228208
O 106.147372 41.283145 27.459373
O 104.276370 34.167976 15.228208
O 121.816707 35.515752 27.459373
O 104.132637 37.453001 23.989787
O 107.288147 35.432768 15.471196
O 101.359589 35.686012 23.989787
O 101.531407 39.428880 15.471196
O 104.276370 34.167976 23.989787
O 100.949042 32.445341 15.471196
In 115.646943 0.000000 25.021317
In 115.646943 0.000000 16.259738
In 117.712067 39.345896 27.941844
In 111.516695 0.000000 27.941844
In 115.507753 39.586979 24.824474
In 109.590760 42.681713 25.218161
In 117.851256 42.681713 28.138687
In 115.507753 39.586979 16.062895
In 118.883818 37.798529 25.218161
In 118.605439 30.162564 16.062895
In 118.466250 33.980547 25.218161
In 114.336002 41.134346 28.138687
In 112.827635 30.403647 16.062895
In 111.655884 39.104813 28.138687
In 117.572877 36.010080 27.745000
In 115.786132 31.951014 25.218161
In 120.948942 41.375429 28.138687
In 112.688446 41.375429 25.218161
In 118.466250 41.134346 25.218161
O 114.770504 41.238791 26.052847
O 113.823851 39.092652 28.730386
O 114.770504 41.238791 17.291268
O 116.447385 41.029901 28.424315
O 117.543553 28.698181 17.291268
O 117.371734 39.262912 25.809859
O 114.626771 30.216218 17.291268
O 117.954099 31.938852 25.809859
O 116.399474 37.744876 28.559827
O 116.523381 30.299202 15.228208
O 118.976749 37.661892 27.459373
O 113.750333 42.839812 15.228208
O 112.246923 40.985547 27.323860
O 116.667114 41.321776 15.228208
O 109.425963 42.669551 27.459373
O 119.024660 40.946916 27.323860
O 119.678891 42.586567 15.471196
O 113.750333 42.839812 23.989787
O 113.922151 32.275081 15.471196
O 116.667114 41.321776 23.989787
O 113.339786 39.599141 15.471196
In 105.321323 32.192097 19.180265
In 111.516695 0.000000 19.180265
In 105.321323 39.345896 19.180265
In 107.386447 0.000000 22.100791
In 109.451571 39.345896 16.259738
In 103.256199 0.000000 16.259738
In 109.451571 32.192097 16.259738
In 109.590760 42.681713 16.456582
In 107.247257 39.586979 21.903948
In 106.493074 30.644730 16.456582
In 110.344943 30.162564 21.903948
In 106.075506 41.134346 16.456582
In 104.567140 30.403647 21.903948
In 103.395388 39.104813 16.456582
In 109.312381 36.010080 16.062895
In 105.182133 28.856280 18.983421
In 112.688446 41.375429 16.456582
In 112.410067 33.739464 16.062895
In 108.279819 40.893263 18.983421
In 106.075506 33.980547 16.456582
In 100.436892 30.403647 16.062895
In 108.697388 30.403647 18.983421
O 104.056641 33.876101 19.662736
O 111.614995 28.951426 17.048280
O 107.364143 39.009668 19.798248
O 104.495273 37.408647 19.662736
O 104.980990 32.109113 17.048280
O 110.786467 30.552446 19.798248
O 113.607426 28.868442 19.662736
O 105.563355 39.092652 17.048280
O 104.008730 30.591077 19.798248
O 106.510008 41.238791 23.132321
O 108.186889 41.029901 16.742209
O 111.494391 31.855868 16.877722
O 108.625521 30.254848 16.742209
O 102.525971 30.552446 16.877722
O 106.366276 30.216218 23.132321
O 105.346930 28.868442 16.742209
O 108.138978 37.744876 16.877722
O 108.262885 30.299202 21.069261
O 110.716253 37.661892 15.777267
O 103.157899 42.586567 18.391723
O 107.408750 32.528325 15.641755
O 105.489837 42.839812 21.069261
O 110.277620 34.129346 15.777267
O 109.791903 39.428880 18.391723
O 103.986427 40.985547 15.641755
O 108.406618 41.321776 21.069261
O 101.165467 42.669551 15.777267
O 109.209538 32.445341 18.391723
O 110.764164 40.946916 15.641755
O 106.586005 30.508093 18.697794
O 111.418395 42.586567 21.312249
O 103.278502 39.682125 18.562281
O 106.147372 41.283145 18.697794
O 105.661655 32.275081 21.312249
O 112.246923 40.985547 18.562281
O 109.425963 42.669551 18.697794
O 105.079290 39.599141 21.312249
O 106.633916 33.793117 18.562281
In 117.712067 39.345896 19.180265
In 123.907439 35.768997 19.180265
In 117.712067 32.192097 19.180265
In 119.777191 35.768997 22.100791
In 121.842315 32.192097 16.259738
In 115.646943 35.768997 16.259738
In 121.842315 39.345896 16.259738
In 121.981504 35.527913 16.456582
In 119.638001 32.433180 21.903948
In 118.883818 37.798529 16.456582
In 122.735687 37.316363 21.903948
In 118.466250 33.980547 16.456582
In 116.957883 37.557446 21.903948
In 115.786132 31.951014 16.456582
In 121.703125 28.856280 16.062895
In 117.572877 36.010080 18.983421
In 100.297702 34.221630 16.456582
In 100.019324 40.893263 16.062895
In 120.670563 33.739464 18.983421
In 118.466250 41.134346 16.456582
In 112.827635 37.557446 16.062895
In 121.088131 37.557446 18.983421
O 116.447385 41.029901 19.662736
O 99.224251 36.105225 17.048280
O 119.754887 31.855868 19.798248
O 116.886017 30.254848 19.662736
O 117.371734 39.262912 17.048280
O 123.177211 37.706245 19.798248
O 101.216682 36.022241 19.662736
O 117.954099 31.938852 17.048280
O 116.399474 37.744876 19.798248
O 118.900752 34.084992 23.132321
O 120.577633 33.876101 16.742209
O 123.885135 39.009668 16.877722
O 121.673801 35.851981 23.132321
O 121.016265 37.408647 16.742209
O 114.916715 37.706245 16.877722
O 118.757019 37.370017 23.132321
O 117.737674 36.022241 16.742209
O 120.529722 30.591077 16.877722
O 120.653629 37.453001 21.069261
O 123.106997 30.508093 15.777267
O 115.548643 35.432768 18.391723
O 119.799494 39.682125 15.641755
O 117.880581 35.686012 21.069261
O 122.668364 41.283145 15.777267
O 122.182647 32.275081 18.391723
O 116.377171 33.831748 15.641755
O 120.797362 34.167976 21.069261
O 113.556211 35.515752 15.777267
O 121.600282 39.599141 18.391723
O 123.154907 33.793117 15.641755
O 118.976749 37.661892 18.697794
O 123.809139 35.432768 21.312249
O 115.669246 32.528325 18.562281
O 118.538116 34.129346 18.697794
O 118.052399 39.428880 21.312249
O 99.856179 33.831748 18.562281
O 121.816707 35.515752 18.697794
O 117.470034 32.445341 21.312249
O 119.024660 40.946916 18.562281
In 0.000000 28.615197 1.657107
In 22.716364 17.884498 7.498159
In 4.130248 28.615197 7.498159
In 22.716364 25.038298 7.498159
In 24.781488 28.615197 10.418686
In 2.065124 25.038298 4.577633
In 20.651240 28.615197 4.577633
In 2.065124 17.884498 4.577633
In 24.642298 25.279381 1.460263
In 18.725305 28.374114 1.853950
In 2.204313 28.374114 4.774476
In 24.642298 25.279381 10.221842
In 2.958497 15.854965 1.460263
In 3.236875 23.490931 1.853950
In 23.888115 16.337131 4.774476
In 2.958497 15.854965 10.221842
In 21.962180 16.096048 1.460263
In 2.819307 19.672948 1.853950
In 23.470547 26.826747 4.774476
In 21.962180 16.096048 10.221842
In 20.790429 24.797215 4.774476
In 1.925935 21.702481 4.380790
In 22.577174 14.548682 7.301316
In 0.139189 17.643415 1.853950
In 5.301999 27.067830 4.774476
In 5.023621 19.431865 4.380790
In 0.893373 26.585664 7.301316
In 21.822991 27.067830 1.853950
In 23.470547 19.672948 4.774476
In 17.831933 16.096048 4.380790
In 1.310941 16.096048 7.301316
In 2.819307 26.826747 1.853950
O 23.905049 26.931193 2.688637
O 21.451682 19.568503 7.980630
O 4.228548 14.643827 5.366175
O 24.759184 24.702069 8.116143
O 1.896610 14.390583 2.688637
O 21.890314 23.101049 7.980630
O 22.376031 17.801514 5.366175
O 3.400020 16.244847 8.116143
O 23.761316 15.908619 2.688637
O 6.220979 14.560843 7.980630
O 22.958396 24.785053 5.366175
O 21.403771 16.283478 8.116143
O 23.905049 26.931193 11.450216
O 0.800442 26.722302 5.060104
O 20.749540 14.643827 2.445649
O 4.107945 17.548270 5.195616
O 1.896610 14.390583 11.450216
O 1.239074 15.947249 5.060104
O 1.724792 24.955313 2.445649
O 19.921012 16.244847 5.195616
O 23.761316 15.908619 11.450216
O 22.741971 14.560843 5.060104
O 2.307157 17.631254 2.445649
O 0.752531 23.437277 5.195616
O 0.876439 15.991603 9.387156
O 3.329806 23.354293 4.095162
O 20.552940 28.278969 6.709617
O 0.022303 18.220727 3.959650
O 22.884878 28.532213 9.387156
O 2.891174 19.821747 4.095162
O 2.405456 25.121282 6.709617
O 21.381468 26.677948 3.959650
O 1.020171 27.014177 9.387156
O 18.560508 28.361953 4.095162
O 1.823091 18.137743 6.709617
O 3.377717 26.639318 3.959650
O 0.876439 15.991603 0.625577
O 23.981046 16.200494 7.015688
O 4.031948 28.278969 9.630144
O 20.673543 25.374526 6.880176
O 22.884878 28.532213 0.625577
O 23.542413 26.975546 7.015688
O 23.056696 17.967482 9.630144
O 4.860476 26.677948 6.880176
O 1.020171 27.014177 0.625577
O 2.039516 28.361953 7.015688
O 22.474331 25.291542 9.630144
O 24.028957 19.485519 6.880176
In 12.390744 21.461398 1.657107
In 10.325620 25.038298 7.498159
In 16.520992 21.461398 7.498159
In 10.325620 17.884498 7.498159
In 12.390744 21.461398 10.418686
In 14.455868 17.884498 4.577633
In 8.260496 21.461398 4.577633
In 14.455868 25.038298 4.577633
In 12.251555 18.125581 1.460263
In 6.334561 21.220315 1.853950
In 14.595057 21.220315 4.774476
In 12.251555 18.125581 10.221842
In 15.349240 23.008765 1.460263
In 15.627619 16.337131 1.853950
In 11.497371 23.490931 4.774476
In 15.349240 23.008765 10.221842
In 9.571437 23.249848 1.460263
In 15.210051 26.826747 1.853950
In 11.079803 19.672948 4.774476
In 9.571437 23.249848 10.221842
In 8.399685 17.643415 4.774476
In 14.316678 14.548682 4.380790
In 10.186431 21.702481 7.301316
In 12.529933 24.797215 1.853950
In 17.692743 19.914031 4.774476
In 17.414364 26.585664 4.380790
In 13.284116 19.431865 7.301316
In 9.432247 19.914031 1.853950
In 11.079803 26.826747 4.774476
In 5.441189 23.249848 4.380790
In 13.701685 23.249848 7.301316
In 15.210051 19.672948 1.853950
O 11.514305 19.777394 2.688637
O 9.060938 26.722302 7.980630
O 16.619292 21.797626 5.366175
O 12.368441 17.548270 8.116143
O 14.287354 21.544382 2.688637
O 9.499570 15.947249 7.980630
O 9.985287 24.955313 5.366175
O 15.790764 23.398647 8.116143
O 11.370573 23.062418 2.688637
O 18.611723 21.714642 7.980630
O 10.567652 17.631254 5.366175
O 9.013027 23.437277 8.116143
O 11.514305 19.777394 11.450216
O 13.191186 19.568503 5.060104
O 8.358796 21.797626 2.445649
O 16.498688 24.702069 5.195616
O 14.287354 21.544382 11.450216
O 13.629818 23.101049 5.060104
O 14.115535 17.801514 2.445649
O 7.530268 23.398647 5.195616
O 11.370573 23.062418 11.450216
O 10.351227 21.714642 5.060104
O 14.697900 24.785053 2.445649
O 13.143275 16.283478 5.195616
O 13.267182 23.145402 9.387156
O 15.720550 16.200494 4.095162
O 8.162196 21.125169 6.709617
O 12.413047 25.374526 3.959650
O 10.494134 21.378414 9.387156
O 15.281917 26.975546 4.095162
O 14.796200 17.967482 6.709617
O 8.990724 19.524149 3.959650
O 13.410915 19.860378 9.387156
O 6.169764 21.208153 4.095162
O 14.213835 25.291542 6.709617
O 15.768461 19.485519 3.959650
O 13.267182 23.145402 0.625577
O 11.590302 23.354293 7.015688
O 16.422692 21.125169 9.630144
O 8.282799 18.220727 6.880176
O 10.494134 21.378414 0.625577
O 11.151669 19.821747 7.015688
O 10.665952 25.121282 9.630144
O 17.251220 19.524149 6.880176
O 13.410915 19.860378 0.625577
O 14.430260 21.208153 7.015688
O 10.083587 18.137743 9.630144
O 11.638213 26.639318 6.880176
In 4.130248 21.461398 7.498159
In 2.065124 25.038298 13.339212
In 8.260496 21.461398 13.339212
In 2.065124 17.884498 13.339212
In 6.195372 17.884498 10.418686
In 24.781488 21.461398 10.418686
In 6.195372 25.038298 10.418686
In 3.991059 18.125581 7.301316
In 22.855553 21.220315 7.695003
In 6.334561 21.220315 10.615529
In 7.088745 23.008765 7.301316
In 7.367123 16.337131 7.695003
In 3.236875 23.490931 10.615529
In 1.310941 23.249848 7.301316
In 6.949555 26.826747 7.695003
In 2.819307 19.672948 10.615529
In 0.139189 17.643415 10.615529
In 6.056183 14.548682 10.221842
In 1.925935 21.702481 13.142369
In 4.269437 24.797215 7.695003
In 9.432247 19.914031 10.615529
In 9.153869 26.585664 10.221842
In 5.023621 19.431865 13.142369
In 1.171751 19.914031 7.695003
In 2.819307 26.826747 10.615529
In 21.962180 23.249848 10.221842
In 5.441189 23.249848 13.142369
In 6.949555 19.672948 7.695003
O 3.253809 19.777394 8.529689
O 0.800442 26.722302 13.821683
O 8.358796 21.797626 11.207228
O 4.107945 17.548270 13.957195
O 6.026858 21.544382 8.529689
O 1.239074 15.947249 13.821683
O 1.724792 24.955313 11.207228
O 7.530268 23.398647 13.957195
O 3.110077 23.062418 8.529689
O 10.351227 21.714642 13.821683
O 2.307157 17.631254 11.207228
O 0.752531 23.437277 13.957195
O 4.930690 19.568503 10.901157
O 0.098300 21.797626 8.286701
O 8.238193 24.702069 11.036669
O 5.369322 23.101049 10.901157
O 5.855040 17.801514 8.286701
O 24.051260 23.398647 11.036669
O 2.090732 21.714642 10.901157
O 6.437404 24.785053 8.286701
O 4.882779 16.283478 11.036669
O 7.460054 16.200494 9.936215
O 24.683188 21.125169 12.550670
O 4.152551 25.374526 9.800702
O 7.021422 26.975546 9.936215
O 6.535704 17.967482 12.550670
O 0.730228 19.524149 9.800702
O 22.690756 21.208153 9.936215
O 5.953339 25.291542 12.550670
O 7.507965 19.485519 9.800702
O 5.006687 23.145402 6.466629
O 3.329806 23.354293 12.856741
O 0.022303 18.220727 12.721229
O 2.233638 21.378414 6.466629
O 2.891174 19.821747 12.856741
O 8.990724 19.524149 12.721229
O 5.150419 19.860378 6.466629
O 6.169764 21.208153 12.856741
O 3.377717 26.639318 12.721229
In 16.520992 28.615197 7.498159
In 14.455868 17.884498 13.339212
In 20.651240 28.615197 13.339212
In 14.455868 25.038298 13.339212
In 18.586116 25.038298 10.418686
In 12.390744 28.615197 10.418686
In 18.586116 17.884498 10.418686
In 16.381802 25.279381 7.301316
In 10.464809 28.374114 7.695003
In 18.725305 28.374114 10.615529
In 19.479488 15.854965 7.301316
In 19.757867 23.490931 7.695003
In 15.627619 16.337131 10.615529
In 13.701685 16.096048 7.301316
In 19.340299 19.672948 7.695003
In 15.210051 26.826747 10.615529
In 12.529933 24.797215 10.615529
In 18.446926 21.702481 10.221842
In 14.316678 14.548682 13.142369
In 16.660181 17.643415 7.695003
In 21.822991 27.067830 10.615529
In 21.544612 19.431865 10.221842
In 17.414364 26.585664 13.142369
In 13.562495 27.067830 7.695003
In 15.210051 19.672948 10.615529
In 9.571437 16.096048 10.221842
In 17.831933 16.096048 13.142369
In 19.340299 26.826747 7.695003
O 15.644553 26.931193 8.529689
O 13.191186 19.568503 13.821683
O 20.749540 14.643827 11.207228
O 16.498688 24.702069 13.957195
O 18.417602 14.390583 8.529689
O 13.629818 23.101049 13.821683
O 14.115535 17.801514 11.207228
O 19.921012 16.244847 13.957195
O 15.500821 15.908619 8.529689
O 22.741971 14.560843 13.821683
O 14.697900 24.785053 11.207228
O 13.143275 16.283478 13.957195
O 17.321434 26.722302 10.901157
O 12.489044 14.643827 8.286701
O 20.628936 17.548270 11.036669
O 17.760066 15.947249 10.901157
O 18.245783 24.955313 8.286701
O 11.660516 16.244847 11.036669
O 14.481475 14.560843 10.901157
O 18.828148 17.631254 8.286701
O 17.273523 23.437277 11.036669
O 19.850798 23.354293 9.936215
O 12.292444 28.278969 12.550670
O 16.543295 18.220727 9.800702
O 19.412165 19.821747 9.936215
O 18.926448 25.121282 12.550670
O 13.120972 26.677948 9.800702
O 10.300012 28.361953 9.936215
O 18.344083 18.137743 12.550670
O 19.898709 26.639318 9.800702
O 17.397430 15.991603 6.466629
O 15.720550 16.200494 12.856741
O 12.413047 25.374526 12.721229
O 14.624382 28.532213 6.466629
O 15.281917 26.975546 12.856741
O 21.381468 26.677948 12.721229
O 17.541163 27.014177 6.466629
O 18.560508 28.361953 12.856741
O 15.768461 19.485519 12.721229
In 8.260496 28.615197 13.339212
In 6.195372 17.884498 1.657107
In 12.390744 28.615197 1.657107
In 6.195372 25.038298 1.657107
In 8.260496 28.615197 4.577633
In 8.121307 25.279381 13.142369
In 2.204313 28.374114 13.536055
In 8.121307 25.279381 4.380790
In 11.218993 15.854965 13.142369
In 11.497371 23.490931 13.536055
In 11.218993 15.854965 4.380790
In 5.441189 16.096048 13.142369
In 11.079803 19.672948 13.536055
In 5.441189 16.096048 4.380790
In 6.056183 14.548682 1.460263
In 8.399685 17.643415 13.536055
In 9.153869 26.585664 1.460263
In 5.301999 27.067830 13.536055
In 9.571437 16.096048 1.460263
In 11.079803 26.826747 13.536055
O 7.384057 26.931193 14.370742
O 4.930690 19.568503 2.139578
O 8.238193 24.702069 2.275090
O 10.157106 14.390583 14.370742
O 5.369322 23.101049 2.139578
O 11.660516 16.244847 2.275090
O 7.240325 15.908619 14.370742
O 14.481475 14.560843 2.139578
O 4.882779 16.283478 2.275090
O 7.384057 26.931193 5.609163
O 4.228548 14.643827 14.127754
O 10.157106 14.390583 5.609163
O 9.985287 24.955313 14.127754
O 7.240325 15.908619 5.609163
O 10.567652 17.631254 14.127754
O 9.136935 15.991603 3.546103
O 4.031948 28.278969 0.868565
O 6.363886 28.532213 3.546103
O 10.665952 25.121282 0.868565
O 9.280667 27.014177 3.546103
O 10.083587 18.137743 0.868565
O 9.136935 15.991603 12.307682
O 7.460054 16.200494 1.174636
O 12.292444 28.278969 3.789091
O 4.152551 25.374526 1.039123
O 6.363886 28.532213 12.307682
O 7.021422 26.975546 1.174636
O 6.535704 17.967482 3.789091
O 13.120972 26.677948 1.039123
O 9.280667 27.014177 12.307682
O 10.300012 28.361953 1.174636
O 5.953339 25.291542 3.789091
O 7.507965 19.485519 1.039123
In 20.651240 21.461398 13.339212
In 18.586116 25.038298 1.657107
In 24.781488 21.461398 1.657107
In 18.586116 17.884498 1.657107
In 20.651240 21.461398 4.577633
In 20.512050 18.125581 13.142369
In 14.595057 21.220315 13.536055
In 20.512050 18.125581 4.380790
In 23.609736 23.008765 13.142369
In 23.888115 16.337131 13.536055
In 23.609736 23.008765 4.380790
In 17.831933 23.249848 13.142369
In 23.470547 26.826747 13.536055
In 17.831933 23.249848 4.380790
In 18.446926 21.702481 1.460263
In 20.790429 24.797215 13.536055
In 21.544612 19.431865 1.460263
In 17.692743 19.914031 13.536055
In 21.962180 23.249848 1.460263
In 23.470547 19.672948 13.536055
O 19.774801 19.777394 14.370742
O 17.321434 26.722302 2.139578
O 20.628936 17.548270 2.275090
O 22.547850 21.544382 14.370742
O 17.760066 15.947249 2.139578
O 24.051260 23.398647 2.275090
O 19.631069 23.062418 14.370742
O 2.090732 21.714642 2.139578
O 17.273523 23.437277 2.275090
O 19.774801 19.777394 5.609163
O 16.619292 21.797626 14.127754
O 22.547850 21.544382 5.609163
O 22.376031 17.801514 14.127754
O 19.631069 23.062418 5.609163
O 22.958396 24.785053 14.127754
O 21.527678 23.145402 3.546103
O 16.422692 21.125169 0.868565
O 18.754630 21.378414 3.546103
O 23.056696 17.967482 0.868565
O 21.671411 19.860378 3.546103
O 22.474331 25.291542 0.868565
O 21.527678 23.145402 12.307682
O 19.850798 23.354293 1.174636
O 24.683188 21.125169 3.789091
O 16.543295 18.220727 1.039123
O 18.754630 21.378414 12.307682
O 19.412165 19.821747 1.174636
O 18.926448 25.121282 3.789091
O 0.730228 19.524149 1.039123
O 21.671411 19.860378 12.307682
O 22.690756 21.208153 1.174636
O 18.344083 18.137743 3.789091
O 19.898709 26.639318 1.039123
In 0.000000 28.615197 19.180265
In 18.725305 28.374114 19.377108
In 2.958497 15.854965 18.983421
In 21.962180 16.096048 18.983421
In 21.822991 27.067830 19.377108
In 2.819307 26.826747 19.377108
O 23.905049 26.931193 20.211795
O 1.896610 14.390583 20.211795
O 23.761316 15.908619 20.211795
O 20.749540 14.643827 19.968807
O 0.876439 15.991603 18.148735
O 22.884878 28.532213 18.148735
O 1.020171 27.014177 18.148735
In 15.627619 16.337131 19.377108
In 15.210051 26.826747 19.377108
In 3.991059 18.125581 16.062895
In 7.088745 23.008765 16.062895
In 1.310941 23.249848 16.062895
O 3.253809 19.777394 17.291268
O 3.110077 23.062418 17.291268
O 5.006687 23.145402 15.228208
O 5.150419 19.860378 15.228208
O 2.405456 25.121282 15.471196
O 1.823091 18.137743 15.471196
In 16.520992 28.615197 16.259738
In 16.381802 25.279381 16.062895
In 19.479488 15.854965 16.062895
In 13.701685 16.096048 16.062895
O 15.644553 26.931193 17.291268
O 18.417602 14.390583 17.291268
O 15.500821 15.908619 17.291268
O 17.397430 15.991603 15.228208
O 14.624382 28.532213 15.228208
O 17.541163 27.014177 15.228208
O 20.552940 28.278969 15.471196
O 14.796200 17.967482 15.471196
O 14.213835 25.291542 15.471196
In 12.390744 28.615197 19.180265
In 10.325620 25.038298 16.259738
In 4.130248 28.615197 16.259738
In 10.325620 17.884498 16.259738
In 10.464809 28.374114 16.456582
In 7.367123 16.337131 16.456582
In 6.949555 26.826747 16.456582
In 4.269437 24.797215 16.456582
In 6.056183 14.548682 18.983421
In 13.562495 27.067830 16.456582
In 13.284116 19.431865 16.062895
In 9.153869 26.585664 18.983421
In 6.949555 19.672948 16.456582
In 1.310941 16.096048 16.062895
In 9.571437 16.096048 18.983421
O 12.489044 14.643827 17.048280
O 5.855040 17.801514 17.048280
O 11.660516 16.244847 19.798248
O 14.481475 14.560843 19.662736
O 6.437404 24.785053 17.048280
O 4.882779 16.283478 19.798248
O 9.060938 26.722302 16.742209
O 12.368441 17.548270 16.877722
O 9.499570 15.947249 16.742209
O 3.400020 16.244847 16.877722
O 6.220979 14.560843 16.742209
O 9.013027 23.437277 16.877722
O 11.590302 23.354293 15.777267
O 4.031948 28.278969 18.391723
O 8.282799 18.220727 15.641755
O 11.151669 19.821747 15.777267
O 4.860476 26.677948 15.641755
O 2.039516 28.361953 15.777267
O 11.638213 26.639318 15.641755
O 7.460054 16.200494 18.697794
O 7.021422 26.975546 18.697794
O 13.120972 26.677948 18.562281
O 10.300012 28.361953 18.697794
In 22.716364 17.884498 16.259738
In 22.716364 25.038298 16.259738
In 19.757867 23.490931 16.456582
In 19.340299 19.672948 16.456582
In 16.660181 17.643415 16.456582
In 22.577174 14.548682 16.062895
In 1.171751 19.914031 16.456582
In 0.893373 26.585664 16.062895
In 19.340299 26.826747 16.456582
In 13.701685 23.249848 16.062895
O 17.321434 26.722302 19.662736
O 17.760066 15.947249 19.662736
O 18.245783 24.955313 17.048280
O 18.828148 17.631254 17.048280
O 21.451682 19.568503 16.742209
O 24.759184 24.702069 16.877722
O 21.890314 23.101049 16.742209
O 15.790764 23.398647 16.877722
O 21.403771 16.283478 16.877722
O 23.981046 16.200494 15.777267
O 20.673543 25.374526 15.641755
O 23.542413 26.975546 15.777267
O 17.251220 19.524149 15.641755
O 24.028957 19.485519 15.641755
O 19.898709 26.639318 18.562281
In 24.781488 28.615197 1.657107
In 47.497851 17.884498 7.498159
In 28.911736 28.615197 7.498159
In 47.497851 25.038298 7.498159
In 49.562975 28.615197 10.418686
In 26.846612 25.038298 4.577633
In 45.432728 28.615197 4.577633
In 26.846612 17.884498 4.577633
In 49.423786 25.279381 1.460263
In 43.506793 28.374114 1.853950
In 26.985801 28.374114 4.774476
In 49.423786 25.279381 10.221842
In 27.739984 15.854965 1.460263
In 28.018363 23.490931 1.853950
In 48.669603 16.337131 4.774476
In 27.739984 15.854965 10.221842
In 46.743668 16.096048 1.460263
In 27.600795 19.672948 1.853950
In 48.252035 26.826747 4.774476
In 46.743668 16.096048 10.221842
In 45.571917 24.797215 4.774476
In 26.707422 21.702481 4.380790
In 47.358662 14.548682 7.301316
In 24.920677 17.643415 1.853950
In 30.083487 27.067830 4.774476
In 29.805108 19.431865 4.380790
In 25.674860 26.585664 7.301316
In 46.604479 27.067830 1.853950
In 48.252035 19.672948 4.774476
In 42.613420 16.096048 4.380790
In 26.092428 16.096048 7.301316
In 27.600795 26.826747 1.853950
O 48.686537 26.931193 2.688637
O 46.233170 19.568503 7.980630
O 29.010036 14.643827 5.366175
O 49.540672 24.702069 8.116143
O 26.678098 14.390583 2.688637
O 46.671802 23.101049 7.980630
O 47.157519 17.801514 5.366175
O 28.181508 16.244847 8.116143
O 48.542804 15.908619 2.688637
O 31.002467 14.560843 7.980630
O 47.739884 24.785053 5.366175
O 46.185259 16.283478 8.116143
O 48.686537 26.931193 11.450216
O 25.581930 26.722302 5.060104
O 45.531027 14.643827 2.445649
O 28.889432 17.548270 5.195616
O 26.678098 14.390583 11.450216
O 26.020562 15.947249 5.060104
O 26.506279 24.955313 2.445649
O 44.702500 16.244847 5.195616
O 48.542804 15.908619 11.450216
O 47.523459 14.560843 5.060104
O 27.088644 17.631254 2.445649
O 25.534019 23.437277 5.195616
O 25.657926 15.991603 9.387156
O 28.111294 23.354293 4.095162
O 45.334428 28.278969 6.709617
O 24.803791 18.220727 3.959650
O 47.666366 28.532213 9.387156
O 27.672661 19.821747 4.095162
O 27.186944 25.121282 6.709617
O 46.162955 26.677948 3.959650
O 25.801659 27.014177 9.387156
O 43.341996 28.361953 4.095162
O 26.604579 18.137743 6.709617
O 28.159205 26.639318 3.959650
O 25.657926 15.991603 0.625577
O 48.762533 16.200494 7.015688
O 28.813436 28.278969 9.630144
O 45.455031 25.374526 6.880176
O 47.666366 28.532213 0.625577
O 48.323901 26.975546 7.015688
O 47.838184 17.967482 9.630144
O 29.641964 26.677948 6.880176
O 25.801659 27.014177 0.625577
O 26.821004 28.361953 7.015688
O 47.255819 25.291542 9.630144
O 48.810444 19.485519 6.880176
In 37.172232 21.461398 1.657107
In 35.107108 25.038298 7.498159
In 41.302480 21.461398 7.498159
In 35.107108 17.884498 7.498159
In 37.172232 21.461398 10.418686
In 39.237356 17.884498 4.577633
In 33.041984 21.461398 4.577633
In 39.237356 25.038298 4.577633
In 37.033042 18.125581 1.460263
In 31.116049 21.220315 1.853950
In 39.376545 21.220315 4.774476
In 37.033042 18.125581 10.221842
In 40.130728 23.008765 1.460263
In 40.409107 16.337131 1.853950
In 36.278859 23.490931 4.774476
In 40.130728 23.008765 10.221842
In 34.352924 23.249848 1.460263
In 39.991539 26.826747 1.853950
In 35.861291 19.672948 4.774476
In 34.352924 23.249848 10.221842
In 33.181173 17.643415 4.774476
In 39.098166 14.548682 4.380790
In 34.967918 21.702481 7.301316
In 37.311421 24.797215 1.853950
In 42.474231 19.914031 4.774476
In 42.195852 26.585664 4.380790
In 38.065604 19.431865 7.301316
In 34.213735 19.914031 1.853950
In 35.861291 26.826747 4.774476
In 30.222676 23.249848 4.380790
In 38.483172 23.249848 7.301316
In 39.991539 19.672948 1.853950
O 36.295793 19.777394 2.688637
O 33.842426 26.722302 7.980630
O 41.400779 21.797626 5.366175
O 37.149928 17.548270 8.116143
O 39.068841 21.544382 2.688637
O 34.281058 15.947249 7.980630
O 34.766775 24.955313 5.366175
O 40.572252 23.398647 8.116143
O 36.152060 23.062418 2.688637
O 43.393211 21.714642 7.980630
O 35.349140 17.631254 5.366175
O 33.794515 23.437277 8.116143
O 36.295793 19.777394 11.450216
O 37.972674 19.568503 5.060104
O 33.140284 21.797626 2.445649
O 41.280176 24.702069 5.195616
O 39.068841 21.544382 11.450216
O 38.411306 23.101049 5.060104
O 38.897023 17.801514 2.445649
O 32.311756 23.398647 5.195616
O 36.152060 23.062418 11.450216
O 35.132715 21.714642 5.060104
O 39.479388 24.785053 2.445649
O 37.924763 16.283478 5.195616
O 38.048670 23.145402 9.387156
O 40.502037 16.200494 4.095162
O 32.943684 21.125169 6.709617
O 37.194535 25.374526 3.959650
O 35.275622 21.378414 9.387156
O 40.063405 26.975546 4.095162
O 39.577688 17.967482 6.709617
O 33.772211 19.524149 3.959650
O 38.192403 19.860378 9.387156
O 30.951252 21.208153 4.095162
O 38.995323 25.291542 6.709617
O 40.549948 19.485519 3.959650
O 38.048670 23.145402 0.625577
O 36.371790 23.354293 7.015688
O 41.204180 21.125169 9.630144
O 33.064287 18.220727 6.880176
O 35.275622 21.378414 0.625577
O 35.933157 19.821747 7.015688
O 35.447440 25.121282 9.630144
O 42.032707 19.524149 6.880176
O 38.192403 19.860378 0.625577
O 39.211748 21.208153 7.015688
O 34.865075 18.137743 9.630144
O 36.419700 26.639318 6.880176
In 28.911736 21.461398 7.498159
In 26.846612 25.038298 13.339212
In 33.041984 21.461398 13.339212
In 26.846612 17.884498 13.339212
In 30.976860 17.884498 10.418686
In 49.562975 21.461398 10.418686
In 30.976860 25.038298 10.418686
In 28.772546 18.125581 7.301316
In 47.637041 21.220315 7.695003
In 31.116049 21.220315 10.615529
In 31.870232 23.008765 7.301316
In 32.148611 16.337131 7.695003
In 28.018363 23.490931 10.615529
In 26.092428 23.249848 7.301316
In 31.731043 26.826747 7.695003
In 27.600795 19.672948 10.615529
In 24.920677 17.643415 10.615529
In 30.837670 14.548682 10.221842
In 26.707422 21.702481 13.142369
In 29.050925 24.797215 7.695003
In 34.213735 19.914031 10.615529
In 33.935356 26.585664 10.221842
In 29.805108 19.431865 13.142369
In 25.953239 19.914031 7.695003
In 27.600795 26.826747 10.615529
In 46.743668 23.249848 10.221842
In 30.222676 23.249848 13.142369
In 31.731043 19.672948 7.695003
O 28.035297 19.777394 8.529689
O 25.581930 26.722302 13.821683
O 33.140284 21.797626 11.207228
O 28.889432 17.548270 13.957195
O 30.808346 21.544382 8.529689
O 26.020562 15.947249 13.821683
O 26.506279 24.955313 11.207228
O 32.311756 23.398647 13.957195
O 27.891564 23.062418 8.529689
O 35.132715 21.714642 13.821683
O 27.088644 17.631254 11.207228
O 25.534019 23.437277 13.957195
O 29.712178 19.568503 10.901157
O 24.879788 21.797626 8.286701
O 33.019680 24.702069 11.036669
O 30.150810 23.101049 10.901157
O 30.636527 17.801514 8.286701
O 48.832748 23.398647 11.036669
O 26.872219 21.714642 10.901157
O 31.218892 24.785053 8.286701
O 29.664267 16.283478 11.036669
O 32.241542 16.200494 9.936215
O 49.464676 21.125169 12.550670
O 28.934039 25.374526 9.800702
O 31.802909 26.975546 9.936215
O 31.317192 17.967482 12.550670
O 25.511716 19.524149 9.800702
O 47.472244 21.208153 9.936215
O 30.734827 25.291542 12.550670
O 32.289452 19.485519 9.800702
O 29.788174 23.145402 6.466629
O 28.111294 23.354293 12.856741
O 24.803791 18.220727 12.721229
O 27.015126 21.378414 6.466629
O 27.672661 19.821747 12.856741
O 33.772211 19.524149 12.721229
O 29.931907 19.860378 6.466629
O 30.951252 21.208153 12.856741
O 28.159205 26.639318 12.721229
In 41.302480 28.615197 7.498159
In 39.237356 17.884498 13.339212
In 45.432728 28.615197 13.339212
In 39.237356 25.038298 13.339212
In 43.367604 25.038298 10.418686
In 37.172232 28.615197 10.418686
In 43.367604 17.884498 10.418686
In 41.163290 25.279381 7.301316
In 35.246297 28.374114 7.695003
In 43.506793 28.374114 10.615529
In 44.260976 15.854965 7.301316
In 44.539355 23.490931 7.695003
In 40.409107 16.337131 10.615529
In 38.483172 16.096048 7.301316
In 44.121787 19.672948 7.695003
In 39.991539 26.826747 10.615529
In 37.311421 24.797215 10.615529
In 43.228414 21.702481 10.221842
In 39.098166 14.548682 13.142369
In 41.441669 17.643415 7.695003
In 46.604479 27.067830 10.615529
In 46.326100 19.431865 10.221842
In 42.195852 26.585664 13.142369
In 38.343983 27.067830 7.695003
In 39.991539 19.672948 10.615529
In 34.352924 16.096048 10.221842
In 42.613420 16.096048 13.142369
In 44.121787 26.826747 7.695003
O 40.426041 26.931193 8.529689
O 37.972674 19.568503 13.821683
O 45.531027 14.643827 11.207228
O 41.280176 24.702069 13.957195
O 43.199089 14.390583 8.529689
O 38.411306 23.101049 13.821683
O 38.897023 17.801514 11.207228
O 44.702500 16.244847 13.957195
O 40.282308 15.908619 8.529689
O 47.523459 14.560843 13.821683
O 39.479388 24.785053 11.207228
O 37.924763 16.283478 13.957195
O 42.102922 26.722302 10.901157
O 37.270531 14.643827 8.286701
O 45.410424 17.548270 11.036669
O 42.541554 15.947249 10.901157
O 43.027271 24.955313 8.286701
O 36.442004 16.244847 11.036669
O 39.262963 14.560843 10.901157
O 43.609636 17.631254 8.286701
O 42.055011 23.437277 11.036669
O 44.632285 23.354293 9.936215
O 37.073932 28.278969 12.550670
O 41.324783 18.220727 9.800702
O 44.193653 19.821747 9.936215
O 43.707936 25.121282 12.550670
O 37.902459 26.677948 9.800702
O 35.081500 28.361953 9.936215
O 43.125571 18.137743 12.550670
O 44.680196 26.639318 9.800702
O 42.178918 15.991603 6.466629
O 40.502037 16.200494 12.856741
O 37.194535 25.374526 12.721229
O 39.405870 28.532213 6.466629
O 40.063405 26.975546 12.856741
O 46.162955 26.677948 12.721229
O 42.322651 27.014177 6.466629
O 43.341996 28.361953 12.856741
O 40.549948 19.485519 12.721229
In 33.041984 28.615197 13.339212
In 30.976860 17.884498 1.657107
In 37.172232 28.615197 1.657107
In 30.976860 25.038298 1.657107
In 33.041984 28.615197 4.577633
In 32.902794 25.279381 13.142369
In 26.985801 28.374114 13.536055
In 32.902794 25.279381 4.380790
In 36.000480 15.854965 13.142369
In 36.278859 23.490931 13.536055
In 36.000480 15.854965 4.380790
In 30.222676 16.096048 13.142369
In 35.861291 19.672948 13.536055
In 30.222676 16.096048 4.380790
In 30.837670 14.548682 1.460263
In 33.181173 17.643415 13.536055
In 33.935356 26.585664 1.460263
In 30.083487 27.067830 13.536055
In 34.352924 16.096048 1.460263
In 35.861291 26.826747 13.536055
O 32.165545 26.931193 14.370742
O 29.712178 19.568503 2.139578
O 33.019680 24.702069 2.275090
O 34.938593 14.390583 14.370742
O 30.150810 23.101049 2.139578
O 36.442004 16.244847 2.275090
O 32.021812 15.908619 14.370742
O 39.262963 14.560843 2.139578
O 29.664267 16.283478 2.275090
O 32.165545 26.931193 5.609163
O 29.010036 14.643827 14.127754
O 34.938593 14.390583 5.609163
O 34.766775 24.955313 14.127754
O 32.021812 15.908619 5.609163
O 35.349140 17.631254 14.127754
O 33.918422 15.991603 3.546103
O 28.813436 28.278969 0.868565
O 31.145374 28.532213 3.546103
O 35.447440 25.121282 0.868565
O 34.062155 27.014177 3.546103
O 34.865075 18.137743 0.868565
O 33.918422 15.991603 12.307682
O 32.241542 16.200494 1.174636
O 37.073932 28.278969 3.789091
O 28.934039 25.374526 1.039123
O 31.145374 28.532213 12.307682
O 31.802909 26.975546 1.174636
O 31.317192 17.967482 3.789091
O 37.902459 26.677948 1.039123
O 34.062155 27.014177 12.307682
O 35.081500 28.361953 1.174636
O 30.734827 25.291542 3.789091
O 32.289452 19.485519 1.039123
In 45.432728 21.461398 13.339212
In 43.367604 25.038298 1.657107
In 49.562975 21.461398 1.657107
In 43.367604 17.884498 1.657107
In 45.432728 21.461398 4.577633
In 45.293538 18.125581 13.142369
In 39.376545 21.220315 13.536055
In 45.293538 18.125581 4.380790
In 48.391224 23.008765 13.142369
In 48.669603 16.337131 13.536055
In 48.391224 23.008765 4.380790
In 42.613420 23.249848 13.142369
In 48.252035 26.826747 13.536055
In 42.613420 23.249848 4.380790
In 43.228414 21.702481 1.460263
In 45.571917 24.797215 13.536055
In 46.326100 19.431865 1.460263
In 42.474231 19.914031 13.536055
In 46.743668 23.249848 1.460263
In 48.252035 19.672948 13.536055
O 44.556289 19.777394 14.370742
O 42.102922 26.722302 2.139578
O 45.410424 17.548270 2.275090
O 47.329337 21.544382 14.370742
O 42.541554 15.947249 2.139578
O 48.832748 23.398647 2.275090
O 44.412556 23.062418 14.370742
O 26.872219 21.714642 2.139578
O 42.055011 23.437277 2.275090
O 44.556289 19.777394 5.609163
O 41.400779 21.797626 14.127754
O 47.329337 21.544382 5.609163
O 47.157519 17.801514 14.127754
O 44.412556 23.062418 5.609163
O 47.739884 24.785053 14.127754
O 46.309166 23.145402 3.546103
O 41.204180 21.125169 0.868565
O 43.536118 21.378414 3.546103
O 47.838184 17.967482 0.868565
O 46.452899 19.860378 3.546103
O 47.255819 25.291542 0.868565
O 46.309166 23.145402 12.307682
O 44.632285 23.354293 1.174636
O 49.464676 21.125169 3.789091
O 41.324783 18.220727 1.039123
O 43.536118 21.378414 12.307682
O 44.193653 19.821747 1.174636
O 43.707936 25.121282 3.789091
O 25.511716 19.524149 1.039123
O 46.452899 19.860378 12.307682
O 47.472244 21.208153 1.174636
O 43.125571 18.137743 3.789091
O 44.680196 26.639318 1.039123
In 24.781488 28.615197 19.180265
In 43.506793 28.374114 19.377108
In 27.739984 15.854965 18.983421
In 46.743668 16.096048 18.983421
In 46.604479 27.067830 19.377108
In 27.600795 26.826747 19.377108
O 48.686537 26.931193 20.211795
O 26.678098 14.390583 20.211795
O 48.542804 15.908619 20.211795
O 45.531027 14.643827 19.968807
O 25.657926 15.991603 18.148735
O 47.666366 28.532213 18.148735
O 25.801659 27.014177 18.148735
In 40.409107 16.337131 19.377108
In 39.991539 26.826747 19.377108
In 28.772546 18.125581 16.062895
In 31.870232 23.008765 16.062895
In 26.092428 23.249848 16.062895
O 28.035297 19.777394 17.291268
O 27.891564 23.062418 17.291268
O 29.788174 23.145402 15.228208
O 29.931907 19.860378 15.228208
O 27.186944 25.121282 15.471196
O 26.604579 18.137743 15.471196
In 41.302480 28.615197 16.259738
In 41.163290 25.279381 16.062895
In 44.260976 15.854965 16.062895
In 38.483172 16.096048 16.062895
O 40.426041 26.931193 17.291268
O 43.199089 14.390583 17.291268
O 40.282308 15.908619 17.291268
O 42.178918 15.991603 15.228208
O 39.405870 28.532213 15.228208
O 42.322651 27.014177 15.228208
O 45.334428 28.278969 15.471196
O 39.577688 17.967482 15.471196
O 38.995323 25.291542 15.471196
In 37.172232 28.615197 19.180265
In 35.107108 25.038298 16.259738
In 28.911736 28.615197 16.259738
In 35.107108 17.884498 16.259738
In 35.246297 28.374114 16.456582
In 32.148611 16.337131 16.456582
In 31.731043 26.826747 16.456582
In 29.050925 24.797215 16.456582
In 30.837670 14.548682 18.983421
In 38.343983 27.067830 16.456582
In 38.065604 19.431865 16.062895
In 33.935356 26.585664 18.983421
In 31.731043 19.672948 16.456582
In 26.092428 16.096048 16.062895
In 34.352924 16.096048 18.983421
O 37.270531 14.643827 17.048280
O 30.636527 17.801514 17.048280
O 36.442004 16.244847 19.798248
O 39.262963 14.560843 19.662736
O 31.218892 24.785053 17.048280
O 29.664267 16.283478 19.798248
O 33.842426 26.722302 16.742209
O 37.149928 17.548270 16.877722
O 34.281058 15.947249 16.742209
O 28.181508 16.244847 16.877722
O 31.002467 14.560843 16.742209
O 33.794515 23.437277 16.877722
O 36.371790 23.354293 15.777267
O 28.813436 28.278969 18.391723
O 33.064287 18.220727 15.641755
O 35.933157 19.821747 15.777267
O 29.641964 26.677948 15.641755
O 26.821004 28.361953 15.777267
O 36.419700 26.639318 15.641755
O 32.241542 16.200494 18.697794
O 31.802909 26.975546 18.697794
O 37.902459 26.677948 18.562281
O 35.081500 28.361953 18.697794
In 47.497851 17.884498 16.259738
In 47.497851 25.038298 16.259738
In 44.539355 23.490931 16.456582
In 44.121787 19.672948 16.456582
In 41.441669 17.643415 16.456582
In 47.358662 14.548682 16.062895
In 25.953239 19.914031 16.456582
In 25.674860 26.585664 16.062895
In 44.121787 26.826747 16.456582
In 38.483172 23.249848 16.062895
O 42.102922 26.722302 19.662736
O 42.541554 15.947249 19.662736
O 43.027271 24.955313 17.048280
O 43.609636 17.631254 17.048280
O 46.233170 19.568503 16.742209
O 49.540672 24.702069 16.877722
O 46.671802 23.101049 16.742209
O 40.572252 23.398647 16.877722
O 46.185259 16.283478 16.877722
O 48.762533 16.200494 15.777267
O 45.455031 25.374526 15.641755
O 48.323901 26.975546 15.777267
O 42.032707 19.524149 15.641755
O 48.810444 19.485519 15.641755
O 44.680196 26.639318 18.562281
In 49.562975 28.615197 1.657107
In 72.279339 17.884498 7.498159
In 53.693223 28.615197 7.498159
In 72.279339 25.038298 7.498159
In 74.344463 28.615197 10.418686
In 51.628099 25.038298 4.577633
In 70.214215 28.615197 4.577633
In 51.628099 17.884498 4.577633
In 74.205274 25.279381 1.460263
In 68.288281 28.374114 1.853950
In 51.767289 28.374114 4.774476
In 74.205274 25.279381 10.221842
In 52.521472 15.854965 1.460263
In 52.799851 23.490931 1.853950
In 73.451091 16.337131 4.774476
In 52.521472 15.854965 10.221842
In 71.525156 16.096048 1.460263
In 52.382283 19.672948 1.853950
In 73.033522 26.826747 4.774476
In 71.525156 16.096048 10.221842
In 70.353405 24.797215 4.774476
In 51.488910 21.702481 4.380790
In 72.140150 14.548682 7.301316
In 49.702165 17.643415 1.853950
In 54.864975 27.067830 4.774476
In 54.586596 19.431865 4.380790
In 50.456348 26.585664 7.301316
In 71.385967 27.067830 1.853950
In 73.033522 19.672948 4.774476
In 67.394908 16.096048 4.380790
In 50.873916 16.096048 7.301316
In 52.382283 26.826747 1.853950
O 73.468025 26.931193 2.688637
O 71.014657 19.568503 7.980630
O 53.791523 14.643827 5.366175
O 74.322160 24.702069 8.116143
O 51.459585 14.390583 2.688637
O 71.453290 23.101049 7.980630
O 71.939007 17.801514 5.366175
O 52.962996 16.244847 8.116143
O 73.324292 15.908619 2.688637
O 55.783955 14.560843 7.980630
O 72.521372 24.785053 5.366175
O 70.966746 16.283478 8.116143
O 73.468025 26.931193 11.450216
O 50.363418 26.722302 5.060104
O 70.312515 14.643827 2.445649
O 53.670920 17.548270 5.195616
O 51.459585 14.390583 11.450216
O 50.802050 15.947249 5.060104
O 51.287767 24.955313 2.445649
O 69.483987 16.244847 5.195616
O 73.324292 15.908619 11.450216
O 72.304947 14.560843 5.060104
O 51.870132 17.631254 2.445649
O 50.315507 23.437277 5.195616
O 50.439414 15.991603 9.387156
O 52.892781 23.354293 4.095162
O 70.115915 28.278969 6.709617
O 49.585279 18.220727 3.959650
O 72.447853 28.532213 9.387156
O 52.454149 19.821747 4.095162
O 51.968432 25.121282 6.709617
O 70.944443 26.677948 3.959650
O 50.583147 27.014177 9.387156
O 68.123484 28.361953 4.095162
O 51.386067 18.137743 6.709617
O 52.940692 26.639318 3.959650
O 50.439414 15.991603 0.625577
O 73.544021 16.200494 7.015688
O 53.594924 28.278969 9.630144
O 70.236519 25.374526 6.880176
O 72.447853 28.532213 0.625577
O 73.105389 26.975546 7.015688
O 72.619672 17.967482 9.630144
O 54.423451 26.677948 6.880176
O 50.583147 27.014177 0.625577
O 51.602492 28.361953 7.015688
O 72.037307 25.291542 9.630144
O 73.591932 19.485519 6.880176
In 61.953719 21.461398 1.657107
In 59.888595 25.038298 7.498159
In 66.083967 21.461398 7.498159
In 59.888595 17.884498 7.498159
In 61.953719 21.461398 10.418686
In 64.018843 17.884498 4.577633
In 57.823471 21.461398 4.577633
In 64.018843 25.038298 4.577633
In 61.814530 18.125581 1.460263
In 55.897537 21.220315 1.853950
In 64.158033 21.220315 4.774476
In 61.814530 18.125581 10.221842
In 64.912216 23.008765 1.460263
In 65.190595 16.337131 1.853950
In 61.060347 23.490931 4.774476
In 64.912216 23.008765 10.221842
In 59.134412 23.249848 1.460263
In 64.773027 26.826747 1.853950
In 60.642779 19.672948 4.774476
In 59.134412 23.249848 10.221842
In 57.962661 17.643415 4.774476
In 63.879654 14.548682 4.380790
In 59.749406 21.702481 7.301316
In 62.092909 24.797215 1.853950
In 67.255719 19.914031 4.774476
In 66.977340 26.585664 4.380790
In 62.847092 19.431865 7.301316
In 58.995223 19.914031 1.853950
In 60.642779 26.826747 4.774476
In 55.004164 23.249848 4.380790
In 63.264660 23.249848 7.301316
In 64.773027 19.672948 1.853950
O 61.077281 19.777394 2.688637
O 58.623913 26.722302 7.980630
O 66.182267 21.797626 5.366175
O 61.931416 17.548270 8.116143
O 63.850329 21.544382 2.688637
O 59.062546 15.947249 7.980630
O 59.548263 24.955313 5.366175
O 65.353739 23.398647 8.116143
O 60.933548 23.062418 2.688637
O 68.174699 21.714642 7.980630
O 60.130628 17.631254 5.366175
O 58.576003 23.437277 8.116143
O 61.077281 19.777394 11.450216
O 62.754161 19.568503 5.060104
O 57.921771 21.797626 2.445649
O 66.061664 24.702069 5.195616
O 63.850329 21.544382 11.450216
O 63.192794 23.101049 5.060104
O 63.678511 17.801514 2.445649
O 57.093244 23.398647 5.195616
O 60.933548 23.062418 11.450216
O 59.914203 21.714642 5.060104
O 64.260876 24.785053 2.445649
O 62.706250 16.283478 5.195616
O 62.830158 23.145402 9.387156
O 65.283525 16.200494 4.095162
O 57.725171 21.125169 6.709617
O 61.976023 25.374526 3.959650
O 60.057109 21.378414 9.387156
O 64.844893 26.975546 4.095162
O 64.359176 17.967482 6.709617
O 58.553699 19.524149 3.959650
O 62.973891 19.860378 9.387156
O 55.732740 21.208153 4.095162
O 63.776811 25.291542 6.709617
O 65.331436 19.485519 3.959650
O 62.830158 23.145402 0.625577
O 61.153277 23.354293 7.015688
O 65.985667 21.125169 9.630144
O 57.845775 18.220727 6.880176
O 60.057109 21.378414 0.625577
O 60.714645 19.821747 7.015688
O 60.228928 25.121282 9.630144
O 66.814195 19.524149 6.880176
O 62.973891 19.860378 0.625577
O 63.993236 21.208153 7.015688
O 59.646563 18.137743 9.630144
O 61.201188 26.639318 6.880176
In 53.693223 21.461398 7.498159
In 51.628099 25.038298 13.339212
In 57.823471 21.461398 13.339212
In 51.628099 17.884498 13.339212
In 55.758347 17.884498 10.418686
In 74.344463 21.461398 10.418686
In 55.758347 25.038298 10.418686
In 53.554034 18.125581 7.301316
In 72.418529 21.220315 7.695003
In 55.897537 21.220315 10.615529
In 56.651720 23.008765 7.301316
In 56.930099 16.337131 7.695003
In 52.799851 23.490931 10.615529
In 50.873916 23.249848 7.301316
In 56.512531 26.826747 7.695003
In 52.382283 19.672948 10.615529
In 49.702165 17.643415 10.615529
In 55.619158 14.548682 10.221842
In 51.488910 21.702481 13.142369
In 53.832413 24.797215 7.695003
In 58.995223 19.914031 10.615529
In 58.716844 26.585664 10.221842
In 54.586596 19.431865 13.142369
In 50.734727 19.914031 7.695003
In 52.382283 26.826747 10.615529
In 71.525156 23.249848 10.221842
In 55.004164 23.249848 13.142369
In 56.512531 19.672948 7.695003
O 52.816785 19.777394 8.529689
O 50.363418 26.722302 13.821683
O 57.921771 21.797626 11.207228
O 53.670920 17.548270 13.957195
O 55.589833 21.544382 8.529689
O 50.802050 15.947249 13.821683
O 51.287767 24.955313 11.207228
O 57.093244 23.398647 13.957195
O 52.673052 23.062418 8.529689
O 59.914203 21.714642 13.821683
O 51.870132 17.631254 11.207228
O 50.315507 23.437277 13.957195
O 54.493665 19.568503 10.901157
O 49.661275 21.797626 8.286701
O 57.801168 24.702069 11.036669
O 54.932298 23.101049 10.901157
O 55.418015 17.801514 8.286701
O 73.614235 23.398647 11.036669
O 51.653707 21.714642 10.901157
O 56.000380 24.785053 8.286701
O 54.445755 16.283478 11.036669
O 57.023029 16.200494 9.936215
O 74.246163 21.125169 12.550670
O 53.715527 25.374526 9.800702
O 56.584397 26.975546 9.936215
O 56.098680 17.967482 12.550670
O 50.293203 19.524149 9.800702
O 72.253732 21.208153 9.936215
O 55.516315 25.291542 12.550670
O 57.070940 19.485519 9.800702
O 54.569662 23.145402 6.466629
O 52.892781 23.354293 12.856741
O 49.585279 18.220727 12.721229
O 51.796614 21.378414 6.466629
O 52.454149 19.821747 12.856741
O 58.553699 19.524149 12.721229
O 54.713395 19.860378 6.466629
O 55.732740 21.208153 12.856741
O 52.940692 26.639318 12.721229
In 66.083967 28.615197 7.498159
In 64.018843 17.884498 13.339212
In 70.214215 28.615197 13.339212
In 64.018843 25.038298 13.339212
In 68.149091 25.038298 10.418686
In 61.953719 28.615197 10.418686
In 68.149091 17.884498 10.418686
In 65.944778 25.279381 7.301316
In 60.027785 28.374114 7.695003
In 68.288281 28.374114 10.615529
In 69.042464 15.854965 7.301316
In 69.320843 23.490931 7.695003
In 65.190595 16.337131 10.615529
In 63.264660 16.096048 7.301316
In 68.903275 19.672948 7.695003
In 64.773027 26.826747 10.615529
In 62.092909 24.797215 10.615529
In 68.009902 21.702481 10.221842
In 63.879654 14.548682 13.142369
In 66.223157 17.643415 7.695003
In 71.385967 27.067830 10.615529
In 71.107588 19.431865 10.221842
In 66.977340 26.585664 13.142369
In 63.125471 27.067830 7.695003
In 64.773027 19.672948 10.615529
In 59.134412 16.096048 10.221842
In 67.394908 16.096048 13.142369
In 68.903275 26.826747 7.695003
O 65.207529 26.931193 8.529689
O 62.754161 19.568503 13.821683
O 70.312515 14.643827 11.207228
O 66.061664 24.702069 13.957195
O 67.980577 14.390583 8.529689
O 63.192794 23.101049 13.821683
O 63.678511 17.801514 11.207228
O 69.483987 16.244847 13.957195
O 65.063796 15.908619 8.529689
O 72.304947 14.560843 13.821683
O 64.260876 24.785053 11.207228
O 62.706250 16.283478 13.957195
O 66.884409 26.722302 10.901157
O 62.052019 14.643827 8.286701
O 70.191912 17.548270 11.036669
O 67.323042 15.947249 10.901157
O 67.808759 24.955313 8.286701
O 61.223491 16.244847 11.036669
O 64.044451 14.560843 10.901157
O 68.391124 17.631254 8.286701
O 66.836498 23.437277 11.036669
O 69.413773 23.354293 9.936215
O 61.855419 28.278969 12.550670
O 66.106271 18.220727 9.800702
O 68.975141 19.821747 9.936215
O 68.489424 25.121282 12.550670
O 62.683947 26.677948 9.800702
O 59.862988 28.361953 9.936215
O 67.907059 18.137743 12.550670
O 69.461684 26.639318 9.800702
O 66.960406 15.991603 6.466629
O 65.283525 16.200494 12.856741
O 61.976023 25.374526 12.721229
O 64.187357 28.532213 6.466629
O 64.844893 26.975546 12.856741
O 70.944443 26.677948 12.721229
O 67.104139 27.014177 6.466629
O 68.123484 28.361953 12.856741
O 65.331436 19.485519 12.721229
In 57.823471 28.615197 13.339212
In 55.758347 17.884498 1.657107
In 61.953719 28.615197 1.657107
In 55.758347 25.038298 1.657107
In 57.823471 28.615197 4.577633
In 57.684282 25.279381 13.142369
In 51.767289 28.374114 13.536055
In 57.684282 25.279381 4.380790
In 60.781968 15.854965 13.142369
In 61.060347 23.490931 13.536055
In 60.781968 15.854965 4.380790
In 55.004164 16.096048 13.142369
In 60.642779 19.672948 13.536055
In 55.004164 16.096048 4.380790
In 55.619158 14.548682 1.460263
In 57.962661 17.643415 13.536055
In 58.716844 26.585664 1.460263
In 54.864975 27.067830 13.536055
In 59.134412 16.096048 1.460263
In 60.642779 26.826747 13.536055
O 56.947033 26.931193 14.370742
O 54.493665 19.568503 2.139578
O 57.801168 24.702069 2.275090
O 59.720081 14.390583 14.370742
O 54.932298 23.101049 2.139578
O 61.223491 16.244847 2.275090
O 56.803300 15.908619 14.370742
O 64.044451 14.560843 2.139578
O 54.445755 16.283478 2.275090
O 56.947033 26.931193 5.609163
O 53.791523 14.643827 14.127754
O 59.720081 14.390583 5.609163
O 59.548263 24.955313 14.127754
O 56.803300 15.908619 5.609163
O 60.130628 17.631254 14.127754
O 58.699910 15.991603 3.546103
O 53.594924 28.278969 0.868565
O 55.926862 28.532213 3.546103
O 60.228928 25.121282 0.868565
O 58.843643 27.014177 3.546103
O 59.646563 18.137743 0.868565
O 58.699910 15.991603 12.307682
O 57.023029 16.200494 1.174636
O 61.855419 28.278969 3.789091
O 53.715527 25.374526 1.039123
O 55.926862 28.532213 12.307682
O 56.584397 26.975546 1.174636
O 56.098680 17.967482 3.789091
O 62.683947 26.677948 1.039123
O 58.843643 27.014177 12.307682
O 59.862988 28.361953 1.174636
O 55.516315 25.291542 3.789091
O 57.070940 19.485519 1.039123
In 70.214215 21.461398 13.339212
In 68.149091 25.038298 1.657107
In 74.344463 21.461398 1.657107
In 68.149091 17.884498 1.657107
In 70.214215 21.461398 4.577633
In 70.075026 18.125581 13.142369
In 64.158033 21.220315 13.536055
In 70.075026 18.125581 4.380790
In 73.172712 23.008765 13.142369
In 73.451091 16.337131 13.536055
In 73.172712 23.008765 4.380790
In 67.394908 23.249848 13.142369
In 73.033522 26.826747 13.536055
In 67.394908 23.249848 4.380790
In 68.009902 21.702481 1.460263
In 70.353405 24.797215 13.536055
In 71.107588 19.431865 1.460263
In 67.255719 19.914031 13.536055
In 71.525156 23.249848 1.460263
In 73.033522 19.672948 13.536055
O 69.337777 19.777394 14.370742
O 66.884409 26.722302 2.139578
O 70.191912 17.548270 2.275090
O 72.110825 21.544382 14.370742
O 67.323042 15.947249 2.139578
O 73.614235 23.398647 2.275090
O 69.194044 23.062418 14.370742
O 51.653707 21.714642 2.139578
O 66.836498 23.437277 2.275090
O 69.337777 19.777394 5.609163
O 66.182267 21.797626 14.127754
O 72.110825 21.544382 5.609163
O 71.939007 17.801514 14.127754
O 69.194044 23.062418 5.609163
O 72.521372 24.785053 14.127754
O 71.090654 23.145402 3.546103
O 65.985667 21.125169 0.868565
O 68.317605 21.378414 3.546103
O 72.619672 17.967482 0.868565
O 71.234386 19.860378 3.546103
O 72.037307 25.291542 0.868565
O 71.090654 23.145402 12.307682
O 69.413773 23.354293 1.174636
O 74.246163 21.125169 3.789091
O 66.106271 18.220727 1.039123
O 68.317605 21.378414 12.307682
O 68.975141 19.821747 1.174636
O 68.489424 25.121282 3.789091
O 50.293203 19.524149 1.039123
O 71.234386 19.860378 12.307682
O 72.253732 21.208153 1.174636
O 67.907059 18.137743 3.789091
O 69.461684 26.639318 1.039123
In 49.562975 28.615197 19.180265
In 68.288281 28.374114 19.377108
In 52.521472 15.854965 18.983421
In 71.525156 16.096048 18.983421
In 71.385967 27.067830 19.377108
In 52.382283 26.826747 19.377108
O 73.468025 26.931193 20.211795
O 51.459585 14.390583 20.211795
O 73.324292 15.908619 20.211795
O 70.312515 14.643827 19.968807
O 50.439414 15.991603 18.148735
O 72.447853 28.532213 18.148735
O 50.583147 27.014177 18.148735
In 65.190595 16.337131 19.377108
In 64.773027 26.826747 19.377108
In 53.554034 18.125581 16.062895
In 56.651720 23.008765 16.062895
In 50.873916 23.249848 16.062895
O 52.816785 19.777394 17.291268
O 52.673052 23.062418 17.291268
O 54.569662 23.145402 15.228208
O 54.713395 19.860378 15.228208
O 51.968432 25.121282 15.471196
O 51.386067 18.137743 15.471196
In 66.083967 28.615197 16.259738
In 65.944778 25.279381 16.062895
In 69.042464 15.854965 16.062895
In 63.264660 16.096048 16.062895
O 65.207529 26.931193 17.291268
O 67.980577 14.390583 17.291268
O 65.063796 15.908619 17.291268
O 66.960406 15.991603 15.228208
O 64.187357 28.532213 15.228208
O 67.104139 27.014177 15.228208
O 70.115915 28.278969 15.471196
O 64.359176 17.967482 15.471196
O 63.776811 25.291542 15.471196
In 61.953719 28.615197 19.180265
In 59.888595 25.038298 16.259738
In 53.693223 28.615197 16.259738
In 59.888595 17.884498 16.259738
In 60.027785 28.374114 16.456582
In 56.930099 16.337131 16.456582
In 56.512531 26.826747 16.456582
In 53.832413 24.797215 16.456582
In 55.619158 14.548682 18.983421
In 63.125471 27.067830 16.456582
In 62.847092 19.431865 16.062895
In 58.716844 26.585664 18.983421
In 56.512531 19.672948 16.456582
In 50.873916 16.096048 16.062895
In 59.134412 16.096048 18.983421
O 62.052019 14.643827 17.048280
O 55.418015 17.801514 17.048280
O 61.223491 16.244847 19.798248
O 64.044451 14.560843 19.662736
O 56.000380 24.785053 17.048280
O 54.445755 16.283478 19.798248
O 58.623913 26.722302 16.742209
O 61.931416 17.548270 16.877722
O 59.062546 15.947249 16.742209
O 52.962996 16.244847 16.877722
O 55.783955 14.560843 16.742209
O 58.576003 23.437277 16.877722
O 61.153277 23.354293 15.777267
O 53.594924 28.278969 18.391723
O 57.845775 18.220727 15.641755
O 60.714645 19.821747 15.777267
O 54.423451 26.677948 15.641755
O 51.602492 28.361953 15.777267
O 61.201188 26.639318 15.641755
O 57.023029 16.200494 18.697794
O 56.584397 26.975546 18.697794
O 62.683947 26.677948 18.562281
O 59.862988 28.361953 18.697794
In 72.279339 17.884498 16.259738
In 72.279339 25.038298 16.259738
In 69.320843 23.490931 16.456582
In 68.903275 19.672948 16.456582
In 66.223157 17.643415 16.456582
In 72.140150 14.548682 16.062895
In 50.734727 19.914031 16.456582
In 50.456348 26.585664 16.062895
In 68.903275 26.826747 16.456582
In 63.264660 23.249848 16.062895
O 66.884409 26.722302 19.662736
O 67.323042 15.947249 19.662736
O 67.808759 24.955313 17.048280
O 68.391124 17.631254 17.048280
O 71.014657 19.568503 16.742209
O 74.322160 24.702069 16.877722
O 71.453290 23.101049 16.742209
O 65.353739 23.398647 16.877722
O 70.966746 16.283478 16.877722
O 73.544021 16.200494 15.777267
O 70.236519 25.374526 15.641755
O 73.105389 26.975546 15.777267
O 66.814195 19.524149 15.641755
O 73.591932 19.485519 15.641755
O 69.461684 26.639318 18.562281
In 74.344463 28.615197 1.657107
In 97.060827 17.884498 7.498159
In 78.474711 28.615197 7.498159
In 97.060827 25.038298 7.498159
In 99.125951 28.615197 10.418686
In 76.409587 25.038298 4.577633
In 94.995703 28.615197 4.577633
In 76.409587 17.884498 4.577633
In 98.986762 25.279381 1.460263
In 93.069768 28.374114 1.853950
In 76.548777 28.374114 4.774476
In 98.986762 25.279381 10.221842
In 77.302960 15.854965 1.460263
In 77.581339 23.490931 1.853950
In 98.232578 16.337131 4.774476
In 77.302960 15.854965 10.221842
In 96.306644 16.096048 1.460263
In 77.163770 19.672948 1.853950
In 97.815010 26.826747 4.774476
In 96.306644 16.096048 10.221842
In 95.134892 24.797215 4.774476
In 76.270398 21.702481 4.380790
In 96.921638 14.548682 7.301316
In 74.483653 17.643415 1.853950
In 79.646462 27.067830 4.774476
In 79.368084 19.431865 4.380790
In 75.237836 26.585664 7.301316
In 96.167454 27.067830 1.853950
In 97.815010 19.672948 4.774476
In 92.176396 16.096048 4.380790
In 75.655404 16.096048 7.301316
In 77.163770 26.826747 1.853950
O 98.249512 26.931193 2.688637
O 95.796145 19.568503 7.980630
O 78.573011 14.643827 5.366175
O 99.103648 24.702069 8.116143
O 76.241073 14.390583 2.688637
O 96.234777 23.101049 7.980630
O 96.720495 17.801514 5.366175
O 77.744483 16.244847 8.116143
O 98.105780 15.908619 2.688637
O 80.565443 14.560843 7.980630
O 97.302859 24.785053 5.366175
O 95.748234 16.283478 8.116143
O 98.249512 26.931193 11.450216
O 75.144905 26.722302 5.060104
O 95.094003 14.643827 2.445649
O 78.452408 17.548270 5.195616
O 76.241073 14.390583 11.450216
O 75.583538 15.947249 5.060104
O 76.069255 24.955313 2.445649
O 94.265475 16.244847 5.195616
O 98.105780 15.908619 11.450216
O 97.086434 14.560843 5.060104
O 76.651620 17.631254 2.445649
O 75.096994 23.437277 5.195616
O 75.220902 15.991603 9.387156
O 77.674269 23.354293 4.095162
O 94.897403 28.278969 6.709617
O 74.366767 18.220727 3.959650
O 97.229341 28.532213 9.387156
O 77.235637 19.821747 4.095162
O 76.749920 25.121282 6.709617
O 95.725931 26.677948 3.959650
O 75.364634 27.014177 9.387156
O 92.904971 28.361953 4.095162
O 76.167555 18.137743 6.709617
O 77.722180 26.639318 3.959650
O 75.220902 15.991603 0.625577
O 98.325509 16.200494 7.015688
O 78.376411 28.278969 9.630144
O 95.018006 25.374526 6.880176
O 97.229341 28.532213 0.625577
O 97.886877 26.975546 7.015688
O 97.401159 17.967482 9.630144
O 79.204939 26.677948 6.880176
O 75.364634 27.014177 0.625577
O 76.383980 28.361953 7.015688
O 96.818794 25.291542 9.630144
O 98.373420 19.485519 6.880176
In 86.735207 21.461398 1.657107
In 84.670083 25.038298 7.498159
In 90.865455 21.461398 7.498159
In 84.670083 17.884498 7.498159
In 86.735207 21.461398 10.418686
In 88.800331 17.884498 4.577633
In 82.604959 21.461398 4.577633
In 88.800331 25.038298 4.577633
In 86.596018 18.125581 1.460263
In 80.679024 21.220315 1.853950
In 88.939520 21.220315 4.774476
In 86.596018 18.125581 10.221842
In 89.693704 23.008765 1.460263
In 89.972082 16.337131 1.853950
In 85.841834 23.490931 4.774476
In 89.693704 23.008765 10.221842
In 83.915900 23.249848 1.460263
In 89.554514 26.826747 1.853950
In 85.424266 19.672948 4.774476
In 83.915900 23.249848 10.221842
In 82.744148 17.643415 4.774476
In 88.661142 14.548682 4.380790
In 84.530894 21.702481 7.301316
In 86.874396 24.797215 1.853950
In 92.037206 19.914031 4.774476
In 91.758828 26.585664 4.380790
In 87.628580 19.431865 7.301316
In 83.776710 19.914031 1.853950
In 85.424266 26.826747 4.774476
In 79.785652 23.249848 4.380790
In 88.046148 23.249848 7.301316
In 89.554514 19.672948 1.853950
O 85.858768 19.777394 2.688637
O 83.405401 26.722302 7.980630
O 90.963755 21.797626 5.366175
O 86.712904 17.548270 8.116143
O 88.631817 21.544382 2.688637
O 83.844033 15.947249 7.980630
O 84.329751 24.955313 5.366175
O 90.135227 23.398647 8.116143
O 85.715036 23.062418 2.688637
O 92.956187 21.714642 7.980630
O 84.912116 17.631254 5.366175
O 83.357490 23.437277 8.116143
O 85.858768 19.777394 11.450216
O 87.535649 19.568503 5.060104
O 82.703259 21.797626 2.445649
O 90.843152 24.702069 5.195616
O 88.631817 21.544382 11.450216
O 87.974281 23.101049 5.060104
O 88.459999 17.801514 2.445649
O 81.874731 23.398647 5.195616
O 85.715036 23.062418 11.450216
O 84.695691 21.714642 5.060104
O 89.042364 24.785053 2.445649
O 87.487738 16.283478 5.195616
O 87.611646 23.145402 9.387156
O 90.065013 16.200494 4.095162
O 82.506659 21.125169 6.709617
O 86.757510 25.374526 3.959650
O 84.838597 21.378414 9.387156
O 89.626381 26.975546 4.095162
O 89.140663 17.967482 6.709617
O 83.335187 19.524149 3.959650
O 87.755378 19.860378 9.387156
O 80.514228 21.208153 4.095162
O 88.558298 25.291542 6.709617
O 90.112924 19.485519 3.959650
O 87.611646 23.145402 0.625577
O 85.934765 23.354293 7.015688
O 90.767155 21.125169 9.630144
O 82.627262 18.220727 6.880176
O 84.838597 21.378414 0.625577
O 85.496133 19.821747 7.015688
O 85.010416 25.121282 9.630144
O 91.595683 19.524149 6.880176
O 87.755378 19.860378 0.625577
O 88.774723 21.208153 7.015688
O 84.428051 18.137743 9.630144
O 85.982676 26.639318 6.880176
In 78.474711 21.461398 7.498159
In 76.409587 25.038298 13.339212
In 82.604959 21.461398 13.339212
In 76.409587 17.884498 13.339212
In 80.539835 17.884498 10.418686
In 99.125951 21.461398 10.418686
In 80.539835 25.038298 10.418686
In 78.335522 18.125581 7.301316
In 97.200016 21.220315 7.695003
In 80.679024 21.220315 10.615529
In 81.433208 23.008765 7.301316
In 81.711586 16.337131 7.695003
In 77.581339 23.490931 10.615529
In 75.655404 23.249848 7.301316
In 81.294018 26.826747 7.695003
In 77.163770 19.672948 10.615529
In 74.483653 17.643415 10.615529
In 80.400646 14.548682 10.221842
In 76.270398 21.702481 13.142369
In 78.613900 24.797215 7.695003
In 83.776710 19.914031 10.615529
In 83.498332 26.585664 10.221842
In 79.368084 19.431865 13.142369
In 75.516215 19.914031 7.695003
In 77.163770 26.826747 10.615529
In 96.306644 23.249848 10.221842
In 79.785652 23.249848 13.142369
In 81.294018 19.672948 7.695003
O 77.598273 19.777394 8.529689
O 75.144905 26.722302 13.821683
O 82.703259 21.797626 11.207228
O 78.452408 17.548270 13.957195
O 80.371321 21.544382 8.529689
O 75.583538 15.947249 13.821683
O 76.069255 24.955313 11.207228
O 81.874731 23.398647 13.957195
O 77.454540 23.062418 8.529689
O 84.695691 21.714642 13.821683
O 76.651620 17.631254 11.207228
O 75.096994 23.437277 13.957195
O 79.275153 19.568503 10.901157
O 74.442763 21.797626 8.286701
O 82.582656 24.702069 11.036669
O 79.713786 23.101049 10.901157
O 80.199503 17.801514 8.286701
O 98.395723 23.398647 11.036669
O 76.435195 21.714642 10.901157
O 80.781868 24.785053 8.286701
O 79.227242 16.283478 11.036669
O 81.804517 16.200494 9.936215
O 99.027651 21.125169 12.550670
O 78.497014 25.374526 9.800702
O 81.365885 26.975546 9.936215
O 80.880168 17.967482 12.550670
O 75.074691 19.524149 9.800702
O 97.035219 21.208153 9.936215
O 80.297803 25.291542 12.550670
O 81.852428 19.485519 9.800702
O 79.351150 23.145402 6.466629
O 77.674269 23.354293 12.856741
O 74.366767 18.220727 12.721229
O 76.578101 21.378414 6.466629
O 77.235637 19.821747 12.856741
O 83.335187 19.524149 12.721229
O 79.494882 19.860378 6.466629
O 80.514228 21.208153 12.856741
O 77.722180 26.639318 12.721229
In 90.865455 28.615197 7.498159
In 88.800331 17.884498 13.339212
In 94.995703 28.615197 13.339212
In 88.800331 25.038298 13.339212
In 92.930579 25.038298 10.418686
In 86.735207 28.615197 10.418686
In 92.930579 17.884498 10.418686
In 90.726266 25.279381 7.301316
In 84.809272 28.374114 7.695003
In 93.069768 28.374114 10.615529
In 93.823952 15.854965 7.301316
In 94.102330 23.490931 7.695003
In 89.972082 16.337131 10.615529
In 88.046148 16.096048 7.301316
In 93.684762 19.672948 7.695003
In 89.554514 26.826747 10.615529
In 86.874396 24.797215 10.615529
In 92.791390 21.702481 10.221842
In 88.661142 14.548682 13.142369
In 91.004644 17.643415 7.695003
In 96.167454 27.067830 10.615529
In 95.889076 19.431865 10.221842
In 91.758828 26.585664 13.142369
In 87.906958 27.067830 7.695003
In 89.554514 19.672948 10.615529
In 83.915900 16.096048 10.221842
In 92.176396 16.096048 13.142369
In 93.684762 26.826747 7.695003
O 89.989016 26.931193 8.529689
O 87.535649 19.568503 13.821683
O 95.094003 14.643827 11.207228
O 90.843152 24.702069 13.957195
O 92.762065 14.390583 8.529689
O 87.974281 23.101049 13.821683
O 88.459999 17.801514 11.207228
O 94.265475 16.244847 13.957195
O 89.845284 15.908619 8.529689
O 97.086434 14.560843 13.821683
O 89.042364 24.785053 11.207228
O 87.487738 16.283478 13.957195
O 91.665897 26.722302 10.901157
O 86.833507 14.643827 8.286701
O 94.973400 17.548270 11.036669
O 92.104529 15.947249 10.901157
O 92.590247 24.955313 8.286701
O 86.004979 16.244847 11.036669
O 88.825939 14.560843 10.901157
O 93.172612 17.631254 8.286701
O 91.617986 23.437277 11.036669
O 94.195261 23.354293 9.936215
O 86.636907 28.278969 12.550670
O 90.887758 18.220727 9.800702
O 93.756629 19.821747 9.936215
O 93.270911 25.121282 12.550670
O 87.465435 26.677948 9.800702
O 84.644476 28.361953 9.936215
O 92.688546 18.137743 12.550670
O 94.243172 26.639318 9.800702
O 91.741894 15.991603 6.466629
O 90.065013 16.200494 12.856741
O 86.757510 25.374526 12.721229
O 88.968845 28.532213 6.466629
O 89.626381 26.975546 12.856741
O 95.725931 26.677948 12.721229
O 91.885626 27.014177 6.466629
O 92.904971 28.361953 12.856741
O 90.112924 19.485519 12.721229
In 82.604959 28.615197 13.339212
In 80.539835 17.884498 1.657107
In 86.735207 28.615197 1.657107
In 80.539835 25.038298 1.657107
In 82.604959 28.615197 4.577633
In 82.465770 25.279381 13.142369
In 76.548777 28.374114 13.536055
In 82.465770 25.279381 4.380790
In 85.563456 15.854965 13.142369
In 85.841834 23.490931 13.536055
In 85.563456 15.854965 4.380790
In 79.785652 16.096048 13.142369
In 85.424266 19.672948 13.536055
In 79.785652 16.096048 4.380790
In 80.400646 14.548682 1.460263
In 82.744148 17.643415 13.536055
In 83.498332 26.585664 1.460263
In 79.646462 27.067830 13.536055
In 83.915900 16.096048 1.460263
In 85.424266 26.826747 13.536055
O 81.728520 26.931193 14.370742
O 79.275153 19.568503 2.139578
O 82.582656 24.702069 2.275090
O 84.501569 14.390583 14.370742
O 79.713786 23.101049 2.139578
O 86.004979 16.244847 2.275090
O 81.584788 15.908619 14.370742
O 88.825939 14.560843 2.139578
O 79.227242 16.283478 2.275090
O 81.728520 26.931193 5.609163
O 78.573011 14.643827 14.127754
O 84.501569 14.390583 5.609163
O 84.329751 24.955313 14.127754
O 81.584788 15.908619 5.609163
O 84.912116 17.631254 14.127754
O 83.481398 15.991603 3.546103
O 78.376411 28.278969 0.868565
O 80.708349 28.532213 3.546103
O 85.010416 25.121282 0.868565
O 83.625130 27.014177 3.546103
O 84.428051 18.137743 0.868565
O 83.481398 15.991603 12.307682
O 81.804517 16.200494 1.174636
O 86.636907 28.278969 3.789091
O 78.497014 25.374526 1.039123
O 80.708349 28.532213 12.307682
O 81.365885 26.975546 1.174636
O 80.880168 17.967482 3.789091
O 87.465435 26.677948 1.039123
O 83.625130 27.014177 12.307682
O 84.644476 28.361953 1.174636
O 80.297803 25.291542 3.789091
O 81.852428 19.485519 1.039123
In 94.995703 21.461398 13.339212
In 92.930579 25.038298 1.657107
In 99.125951 21.461398 1.657107
In 92.930579 17.884498 1.657107
In 94.995703 21.461398 4.577633
In 94.856514 18.125581 13.142369
In 88.939520 21.220315 13.536055
In 94.856514 18.125581 4.380790
In 97.954200 23.008765 13.142369
In 98.232578 16.337131 13.536055
In 97.954200 23.008765 4.380790
In 92.176396 23.249848 13.142369
In 97.815010 26.826747 13.536055
In 92.176396 23.249848 4.380790
In 92.791390 21.702481 1.460263
In 95.134892 24.797215 13.536055
In 95.889076 19.431865 1.460263
In 92.037206 19.914031 13.536055
In 96.306644 23.249848 1.460263
In 97.815010 19.672948 13.536055
O 94.119264 19.777394 14.370742
O 91.665897 26.722302 2.139578
O 94.973400 17.548270 2.275090
O 96.892313 21.544382 14.370742
O 92.104529 15.947249 2.139578
O 98.395723 23.398647 2.275090
O 93.975532 23.062418 14.370742
O 76.435195 21.714642 2.139578
O 91.617986 23.437277 2.275090
O 94.119264 19.777394 5.609163
O 90.963755 21.797626 14.127754
O 96.892313 21.544382 5.609163
O 96.720495 17.801514 14.127754
O 93.975532 23.062418 5.609163
O 97.302859 24.785053 14.127754
O 95.872142 23.145402 3.546103
O 90.767155 21.125169 0.868565
O 93.099093 21.378414 3.546103
O 97.401159 17.967482 0.868565
O 96.015874 19.860378 3.546103
O 96.818794 25.291542 0.868565
O 95.872142 23.145402 12.307682
O 94.195261 23.354293 1.174636
O 99.027651 21.125169 3.789091
O 90.887758 18.220727 1.039123
O 93.099093 21.378414 12.307682
O 93.756629 19.821747 1.174636
O 93.270911 25.121282 3.789091
O 75.074691 19.524149 1.039123
O 96.015874 19.860378 12.307682
O 97.035219 21.208153 1.174636
O 92.688546 18.137743 3.789091
O 94.243172 26.639318 1.039123
In 74.344463 28.615197 19.180265
In 93.069768 28.374114 19.377108
In 77.302960 15.854965 18.983421
In 96.306644 16.096048 18.983421
In 96.167454 27.067830 19.377108
In 77.163770 26.826747 19.377108
O 98.249512 26.931193 20.211795
O 76.241073 14.390583 20.211795
O 98.105780 15.908619 20.211795
O 95.094003 14.643827 19.968807
O 75.220902 15.991603 18.148735
O 97.229341 28.532213 18.148735
O 75.364634 27.014177 18.148735
In 89.972082 16.337131 19.377108
In 89.554514 26.826747 19.377108
In 78.335522 18.125581 16.062895
In 81.433208 23.008765 16.062895
In 75.655404 23.249848 16.062895
O 77.598273 19.777394 17.291268
O 77.454540 23.062418 17.291268
O 79.351150 23.145402 15.228208
O 79.494882 19.860378 15.228208
O 76.749920 25.121282 15.471196
O 76.167555 18.137743 15.471196
In 90.865455 28.615197 16.259738
In 90.726266 25.279381 16.062895
In 93.823952 15.854965 16.062895
In 88.046148 16.096048 16.062895
O 89.989016 26.931193 17.291268
O 92.762065 14.390583 17.291268
O 89.845284 15.908619 17.291268
O 91.741894 15.991603 15.228208
O 88.968845 28.532213 15.228208
O 91.885626 27.014177 15.228208
O 94.897403 28.278969 15.471196
O 89.140663 17.967482 15.471196
O 88.558298 25.291542 15.471196
In 86.735207 28.615197 19.180265
In 84.670083 25.038298 16.259738
In 78.474711 28.615197 16.259738
In 84.670083 17.884498 16.259738
In 84.809272 28.374114 16.456582
In 81.711586 16.337131 16.456582
In 81.294018 26.826747 16.456582
In 78.613900 24.797215 16.456582
In 80.400646 14.548682 18.983421
In 87.906958 27.067830 16.456582
In 87.628580 19.431865 16.062895
In 83.498332 26.585664 18.983421
In 81.294018 19.672948 16.456582
In 75.655404 16.096048 16.062895
In 83.915900 16.096048 18.983421
O 86.833507 14.643827 17.048280
O 80.199503 17.801514 17.048280
O 86.004979 16.244847 19.798248
O 88.825939 14.560843 19.662736
O 80.781868 24.785053 17.048280
O 79.227242 16.283478 19.798248
O 83.405401 26.722302 16.742209
O 86.712904 17.548270 16.877722
O 83.844033 15.947249 16.742209
O 77.744483 16.244847 16.877722
O 80.565443 14.560843 16.742209
O 83.357490 23.437277 16.877722
O 85.934765 23.354293 15.777267
O 78.376411 28.278969 18.391723
O 82.627262 18.220727 15.641755
O 85.496133 19.821747 15.777267
O 79.204939 26.677948 15.641755
O 76.383980 28.361953 15.777267
O 85.982676 26.639318 15.641755
O 81.804517 16.200494 18.697794
O 81.365885 26.975546 18.697794
O 87.465435 26.677948 18.562281
O 84.644476 28.361953 18.697794
In 97.060827 17.884498 16.259738
In 97.060827 25.038298 16.259738
In 94.102330 23.490931 16.456582
In 93.684762 19.672948 16.456582
In 91.004644 17.643415 16.456582
In 96.921638 14.548682 16.062895
In 75.516215 19.914031 16.456582
In 75.237836 26.585664 16.062895
In 93.684762 26.826747 16.456582
In 88.046148 23.249848 16.062895
O 91.665897 26.722302 19.662736
O 92.104529 15.947249 19.662736
O 92.590247 24.955313 17.048280
O 93.172612 17.631254 17.048280
O 95.796145 19.568503 16.742209
O 99.103648 24.702069 16.877722
O 96.234777 23.101049 16.742209
O 90.135227 23.398647 16.877722
O 95.748234 16.283478 16.877722
O 98.325509 16.200494 15.777267
O 95.018006 25.374526 15.641755
O 97.886877 26.975546 15.777267
O 91.595683 19.524149 15.641755
O 98.373420 19.485519 15.641755
O 94.243172 26.639318 18.562281
In 99.125951 28.615197 1.657107
In 121.842315 17.884498 7.498159
In 103.256199 28.615197 7.498159
In 121.842315 25.038298 7.498159
In 0.000000 28.615197 10.418686
In 101.191075 25.038298 4.577633
In 119.777191 28.615197 4.577633
In 101.191075 17.884498 4.577633
In 123.768249 25.279381 1.460263
In 117.851256 28.374114 1.853950
In 101.330264 28.374114 4.774476
In 123.768249 25.279381 10.221842
In 102.084448 15.854965 1.460263
In 102.362826 23.490931 1.853950
In 123.014066 16.337131 4.774476
In 102.084448 15.854965 10.221842
In 121.088131 16.096048 1.460263
In 101.945258 19.672948 1.853950
In 122.596498 26.826747 4.774476
In 121.088131 16.096048 10.221842
In 119.916380 24.797215 4.774476
In 101.051886 21.702481 4.380790
In 121.703125 14.548682 7.301316
In 99.265140 17.643415 1.853950
In 104.427950 27.067830 4.774476
In 104.149571 19.431865 4.380790
In 100.019324 26.585664 7.301316
In 120.948942 27.067830 1.853950
In 122.596498 19.672948 4.774476
In 116.957883 16.096048 4.380790
In 100.436892 16.096048 7.301316
In 101.945258 26.826747 1.853950
O 123.031000 26.931193 2.688637
O 120.577633 19.568503 7.980630
O 103.354499 14.643827 5.366175
O 123.885135 24.702069 8.116143
O 101.022561 14.390583 2.688637
O 121.016265 23.101049 7.980630
O 121.501982 17.801514 5.366175
O 102.525971 16.244847 8.116143
O 122.887267 15.908619 2.688637
O 105.346930 14.560843 7.980630
O 122.084347 24.785053 5.366175
O 120.529722 16.283478 8.116143
O 123.031000 26.931193 11.450216
O 99.926393 26.722302 5.060104
O 119.875491 14.643827 2.445649
O 103.233896 17.548270 5.195616
O 101.022561 14.390583 11.450216
O 100.365025 15.947249 5.060104
O 100.850742 24.955313 2.445649
O 119.046963 16.244847 5.195616
O 122.887267 15.908619 11.450216
O 121.867922 14.560843 5.060104
O 101.433107 17.631254 2.445649
O 99.878482 23.437277 5.195616
O 100.002390 15.991603 9.387156
O 102.455757 23.354293 4.095162
O 119.678891 28.278969 6.709617
O 99.148254 18.220727 3.959650
O 122.010829 28.532213 9.387156
O 102.017124 19.821747 4.095162
O 101.531407 25.121282 6.709617
O 120.507419 26.677948 3.959650
O 100.146122 27.014177 9.387156
O 117.686459 28.361953 4.095162
O 100.949042 18.137743 6.709617
O 102.503668 26.639318 3.959650
O 100.002390 15.991603 0.625577
O 123.106997 16.200494 7.015688
O 103.157899 28.278969 9.630144
O 119.799494 25.374526 6.880176
O 122.010829 28.532213 0.625577
O 122.668364 26.975546 7.015688
O 122.182647 17.967482 9.630144
O 103.986427 26.677948 6.880176
O 100.146122 27.014177 0.625577
O 101.165467 28.361953 7.015688
O 121.600282 25.291542 9.630144
O 123.154907 19.485519 6.880176
In 111.516695 21.461398 1.657107
In 109.451571 25.038298 7.498159
In 115.646943 21.461398 7.498159
In 109.451571 17.884498 7.498159
In 111.516695 21.461398 10.418686
In 113.581819 17.884498 4.577633
In 107.386447 21.461398 4.577633
In 113.581819 25.038298 4.577633
In 111.377505 18.125581 1.460263
In 105.460512 21.220315 1.853950
In 113.721008 21.220315 4.774476
In 111.377505 18.125581 10.221842
In 114.475191 23.008765 1.460263
In 114.753570 16.337131 1.853950
In 110.623322 23.490931 4.774476
In 114.475191 23.008765 10.221842
In 108.697388 23.249848 1.460263
In 114.336002 26.826747 1.853950
In 110.205754 19.672948 4.774476
In 108.697388 23.249848 10.221842
In 107.525636 17.643415 4.774476
In 113.442629 14.548682 4.380790
In 109.312381 21.702481 7.301316
In 111.655884 24.797215 1.853950
In 116.818694 19.914031 4.774476
In 116.540315 26.585664 4.380790
In 112.410067 19.431865 7.301316
In 108.558198 19.914031 1.853950
In 110.205754 26.826747 4.774476
In 104.567140 23.249848 4.380790
In 112.827635 23.249848 7.301316
In 114.336002 19.672948 1.853950
O 110.640256 19.777394 2.688637
O 108.186889 26.722302 7.980630
O 115.745243 21.797626 5.366175
O 111.494391 17.548270 8.116143
O 113.413305 21.544382 2.688637
O 108.625521 15.947249 7.980630
O 109.111238 24.955313 5.366175
O 114.916715 23.398647 8.116143
O 110.496524 23.062418 2.688637
O 117.737674 21.714642 7.980630
O 109.693603 17.631254 5.366175
O 108.138978 23.437277 8.116143
O 110.640256 19.777394 11.450216
O 112.317137 19.568503 5.060104
O 107.484747 21.797626 2.445649
O 115.624639 24.702069 5.195616
O 113.413305 21.544382 11.450216
O 112.755769 23.101049 5.060104
O 113.241486 17.801514 2.445649
O 106.656219 23.398647 5.195616
O 110.496524 23.062418 11.450216
O 109.477178 21.714642 5.060104
O 113.823851 24.785053 2.445649
O 112.269226 16.283478 5.195616
O 112.393133 23.145402 9.387156
O 114.846501 16.200494 4.095162
O 107.288147 21.125169 6.709617
O 111.538998 25.374526 3.959650
O 109.620085 21.378414 9.387156
O 114.407868 26.975546 4.095162
O 113.922151 17.967482 6.709617
O 108.116675 19.524149 3.959650
O 112.536866 19.860378 9.387156
O 105.295715 21.208153 4.095162
O 113.339786 25.291542 6.709617
O 114.894412 19.485519 3.959650
O 112.393133 23.145402 0.625577
O 110.716253 23.354293 7.015688
O 115.548643 21.125169 9.630144
O 107.408750 18.220727 6.880176
O 109.620085 21.378414 0.625577
O 110.277620 19.821747 7.015688
O 109.791903 25.121282 9.630144
O 116.377171 19.524149 6.880176
O 112.536866 19.860378 0.625577
O 113.556211 21.208153 7.015688
O 109.209538 18.137743 9.630144
O 110.764164 26.639318 6.880176
In 103.256199 21.461398 7.498159
In 101.191075 25.038298 13.339212
In 107.386447 21.461398 13.339212
In 101.191075 17.884498 13.339212
In 105.321323 17.884498 10.418686
In 0.000000 21.461398 10.418686
In 105.321323 25.038298 10.418686
In 103.117010 18.125581 7.301316
In 121.981504 21.220315 7.695003
In 105.460512 21.220315 10.615529
In 106.214695 23.008765 7.301316
In 106.493074 16.337131 7.695003
In 102.362826 23.490931 10.615529
In 100.436892 23.249848 7.301316
In 106.075506 26.826747 7.695003
In 101.945258 19.672948 10.615529
In 99.265140 17.643415 10.615529
In 105.182133 14.548682 10.221842
In 101.051886 21.702481 13.142369
In 103.395388 24.797215 7.695003
In 108.558198 19.914031 10.615529
In 108.279819 26.585664 10.221842
In 104.149571 19.431865 13.142369
In 100.297702 19.914031 7.695003
In 101.945258 26.826747 10.615529
In 121.088131 23.249848 10.221842
In 104.567140 23.249848 13.142369
In 106.075506 19.672948 7.695003
O 102.379760 19.777394 8.529689
O 99.926393 26.722302 13.821683
O 107.484747 21.797626 11.207228
O 103.233896 17.548270 13.957195
O 105.152809 21.544382 8.529689
O 100.365025 15.947249 13.821683
O 100.850742 24.955313 11.207228
O 106.656219 23.398647 13.957195
O 102.236028 23.062418 8.529689
O 109.477178 21.714642 13.821683
O 101.433107 17.631254 11.207228
O 99.878482 23.437277 13.957195
O 104.056641 19.568503 10.901157
O 99.224251 21.797626 8.286701
O 107.364143 24.702069 11.036669
O 104.495273 23.101049 10.901157
O 104.980990 17.801514 8.286701
O 123.177211 23.398647 11.036669
O 101.216682 21.714642 10.901157
O 105.563355 24.785053 8.286701
O 104.008730 16.283478 11.036669
O 106.586005 16.200494 9.936215
O 123.809139 21.125169 12.550670
O 103.278502 25.374526 9.800702
O 106.147372 26.975546 9.936215
O 105.661655 17.967482 12.550670
O 99.856179 19.524149 9.800702
O 121.816707 21.208153 9.936215
O 105.079290 25.291542 12.550670
O 106.633916 19.485519 9.800702
O 104.132637 23.145402 6.466629
O 102.455757 23.354293 12.856741
O 99.148254 18.220727 12.721229
O 101.359589 21.378414 6.466629
O 102.017124 19.821747 12.856741
O 108.116675 19.524149 12.721229
O 104.276370 19.860378 6.466629
O 105.295715 21.208153 12.856741
O 102.503668 26.639318 12.721229
In 115.646943 28.615197 7.498159
In 113.581819 17.884498 13.339212
In 119.777191 28.615197 13.339212
In 113.581819 25.038298 13.339212
In 117.712067 25.038298 10.418686
In 111.516695 28.615197 10.418686
In 117.712067 17.884498 10.418686
In 115.507753 25.279381 7.301316
In 109.590760 28.374114 7.695003
In 117.851256 28.374114 10.615529
In 118.605439 15.854965 7.301316
In 118.883818 23.490931 7.695003
In 114.753570 16.337131 10.615529
In 112.827635 16.096048 7.301316
In 118.466250 19.672948 7.695003
In 114.336002 26.826747 10.615529
In 111.655884 24.797215 10.615529
In 117.572877 21.702481 10.221842
In 113.442629 14.548682 13.142369
In 115.786132 17.643415 7.695003
In 120.948942 27.067830 10.615529
In 120.670563 19.431865 10.221842
In 116.540315 26.585664 13.142369
In 112.688446 27.067830 7.695003
In 114.336002 19.672948 10.615529
In 108.697388 16.096048 10.221842
In 116.957883 16.096048 13.142369
In 118.466250 26.826747 7.695003
O 114.770504 26.931193 8.529689
O 112.317137 19.568503 13.821683
O 119.875491 14.643827 11.207228
O 115.624639 24.702069 13.957195
O 117.543553 14.390583 8.529689
O 112.755769 23.101049 13.821683
O 113.241486 17.801514 11.207228
O 119.046963 16.244847 13.957195
O 114.626771 15.908619 8.529689
O 121.867922 14.560843 13.821683
O 113.823851 24.785053 11.207228
O 112.269226 16.283478 13.957195
O 116.447385 26.722302 10.901157
O 111.614995 14.643827 8.286701
O 119.754887 17.548270 11.036669
O 116.886017 15.947249 10.901157
O 117.371734 24.955313 8.286701
O 110.786467 16.244847 11.036669
O 113.607426 14.560843 10.901157
O 117.954099 17.631254 8.286701
O 116.399474 23.437277 11.036669
O 118.976749 23.354293 9.936215
O 111.418395 28.278969 12.550670
O 115.669246 18.220727 9.800702
O 118.538116 19.821747 9.936215
O 118.052399 25.121282 12.550670
O 112.246923 26.677948 9.800702
O 109.425963 28.361953 9.936215
O 117.470034 18.137743 12.550670
O 119.024660 26.639318 9.800702
O 116.523381 15.991603 6.466629
O 114.846501 16.200494 12.856741
O 111.538998 25.374526 12.721229
O 113.750333 28.532213 6.466629
O 114.407868 26.975546 12.856741
O 120.507419 26.677948 12.721229
O 116.667114 27.014177 6.466629
O 117.686459 28.361953 12.856741
O 114.894412 19.485519 12.721229
In 107.386447 28.615197 13.339212
In 105.321323 17.884498 1.657107
In 111.516695 28.615197 1.657107
In 105.321323 25.038298 1.657107
In 107.386447 28.615197 4.577633
In 107.247257 25.279381 13.142369
In 101.330264 28.374114 13.536055
In 107.247257 25.279381 4.380790
In 110.344943 15.854965 13.142369
In 110.623322 23.490931 13.536055
In 110.344943 15.854965 4.380790
In 104.567140 16.096048 13.142369
In 110.205754 19.672948 13.536055
In 104.567140 16.096048 4.380790
In 105.182133 14.548682 1.460263
In 107.525636 17.643415 13.536055
In 108.279819 26.585664 1.460263
In 104.427950 27.067830 13.536055
In 108.697388 16.096048 1.460263
In 110.205754 26.826747 13.536055
O 106.510008 26.931193 14.370742
O 104.056641 19.568503 2.139578
O 107.364143 24.702069 2.275090
O 109.283057 14.390583 14.370742
O 104.495273 23.101049 2.139578
O 110.786467 16.244847 2.275090
O 106.366276 15.908619 14.370742
O 113.607426 14.560843 2.139578
O 104.008730 16.283478 2.275090
O 106.510008 26.931193 5.609163
O 103.354499 14.643827 14.127754
O 109.283057 14.390583 5.609163
O 109.111238 24.955313 14.127754
O 106.366276 15.908619 5.609163
O 109.693603 17.631254 14.127754
O 108.262885 15.991603 3.546103
O 103.157899 28.278969 0.868565
O 105.489837 28.532213 3.546103
O 109.791903 25.121282 0.868565
O 108.406618 27.014177 3.546103
O 109.209538 18.137743 0.868565
O 108.262885 15.991603 12.307682
O 106.586005 16.200494 1.174636
O 111.418395 28.278969 3.789091
O 103.278502 25.374526 1.039123
O 105.489837 28.532213 12.307682
O 106.147372 26.975546 1.174636
O 105.661655 17.967482 3.789091
O 112.246923 26.677948 1.039123
O 108.406618 27.014177 12.307682
O 109.425963 28.361953 1.174636
O 105.079290 25.291542 3.789091
O 106.633916 19.485519 1.039123
In 119.777191 21.461398 13.339212
In 117.712067 25.038298 1.657107
In 123.907439 21.461398 1.657107
In 117.712067 17.884498 1.657107
In 119.777191 21.461398 4.577633
In 119.638001 18.125581 13.142369
In 113.721008 21.220315 13.536055
In 119.638001 18.125581 4.380790
In 122.735687 23.008765 13.142369
In 123.014066 16.337131 13.536055
In 122.735687 23.008765 4.380790
In 116.957883 23.249848 13.142369
In 122.596498 26.826747 13.536055
In 116.957883 23.249848 4.380790
In 117.572877 21.702481 1.460263
In 119.916380 24.797215 13.536055
In 120.670563 19.431865 1.460263
In 116.818694 19.914031 13.536055
In 121.088131 23.249848 1.460263
In 122.596498 19.672948 13.536055
O 118.900752 19.777394 14.370742
O 116.447385 26.722302 2.139578
O 119.754887 17.548270 2.275090
O 121.673801 21.544382 14.370742
O 116.886017 15.947249 2.139578
O 123.177211 23.398647 2.275090
O 118.757019 23.062418 14.370742
O 101.216682 21.714642 2.139578
O 116.399474 23.437277 2.275090
O 118.900752 19.777394 5.609163
O 115.745243 21.797626 14.127754
O 121.673801 21.544382 5.609163
O 121.501982 17.801514 14.127754
O 118.757019 23.062418 5.609163
O 122.084347 24.785053 14.127754
O 120.653629 23.145402 3.546103
O 115.548643 21.125169 0.868565
O 117.880581 21.378414 3.546103
O 122.182647 17.967482 0.868565
O 120.797362 19.860378 3.546103
O 121.600282 25.291542 0.868565
O 120.653629 23.145402 12.307682
O 118.976749 23.354293 1.174636
O 123.809139 21.125169 3.789091
O 115.669246 18.220727 1.039123
O 117.880581 21.378414 12.307682
O 118.538116 19.821747 1.174636
O 118.052399 25.121282 3.789091
O 99.856179 19.524149 1.039123
O 120.797362 19.860378 12.307682
O 121.816707 21.208153 1.174636
O 117.470034 18.137743 3.789091
O 119.024660 26.639318 1.039123
In 99.125951 28.615197 19.180265
In 117.851256 28.374114 19.377108
In 102.084448 15.854965 18.983421
In 121.088131 16.096048 18.983421
In 120.948942 27.067830 19.377108
In 101.945258 26.826747 19.377108
O 123.031000 26.931193 20.211795
O 101.022561 14.390583 20.211795
O 122.887267 15.908619 20.211795
O 119.875491 14.643827 19.968807
O 100.002390 15.991603 18.148735
O 122.010829 28.532213 18.148735
O 100.146122 27.014177 18.148735
In 114.753570 16.337131 19.377108
In 114.336002 26.826747 19.377108
In 103.117010 18.125581 16.062895
In 106.214695 23.008765 16.062895
In 100.436892 23.249848 16.062895
O 102.379760 19.777394 17.291268
O 102.236028 23.062418 17.291268
O 104.132637 23.145402 15.228208
O 104.276370 19.860378 15.228208
O 101.531407 25.121282 15.471196
O 100.949042 18.137743 15.471196
In 115.646943 28.615197 16.259738
In 115.507753 25.279381 16.062895
In 118.605439 15.854965 16.062895
In 112.827635 16.096048 16.062895
O 114.770504 26.931193 17.291268
O 117.543553 14.390583 17.291268
O 114.626771 15.908619 17.291268
O 116.523381 15.991603 15.228208
O 113.750333 28.532213 15.228208
O 116.667114 27.014177 15.228208
O 119.678891 28.278969 15.471196
O 113.922151 17.967482 15.471196
O 113.339786 25.291542 15.471196
In 111.516695 28.615197 19.180265
In 109.451571 25.038298 16.259738
In 103.256199 28.615197 16.259738
In 109.451571 17.884498 16.259738
In 109.590760 28.374114 16.456582
In 106.493074 16.337131 16.456582
In 106.075506 26.826747 16.456582
In 103.395388 24.797215 16.456582
In 105.182133 14.548682 18.983421
In 112.688446 27.067830 16.456582
In 112.410067 19.431865 16.062895
In 108.279819 26.585664 18.983421
In 106.075506 19.672948 16.456582
In 100.436892 16.096048 16.062895
In 108.697388 16.096048 18.983421
O 111.614995 14.643827 17.048280
O 104.980990 17.801514 17.048280
O 110.786467 16.244847 19.798248
O 113.607426 14.560843 19.662736
O 105.563355 24.785053 17.048280
O 104.008730 16.283478 19.798248
O 108.186889 26.722302 16.742209
O 111.494391 17.548270 16.877722
O 108.625521 15.947249 16.742209
O 102.525971 16.244847 16.877722
O 105.346930 14.560843 16.742209
O 108.138978 23.437277 16.877722
O 110.716253 23.354293 15.777267
O 103.157899 28.278969 18.391723
O 107.408750 18.220727 15.641755
O 110.277620 19.821747 15.777267
O 103.986427 26.677948 15.641755
O 101.165467 28.361953 15.777267
O 110.764164 26.639318 15.641755
O 106.586005 16.200494 18.697794
O 106.147372 26.975546 18.697794
O 112.246923 26.677948 18.562281
O 109.425963 28.361953 18.697794
In 121.842315 17.884498 16.259738
In 121.842315 25.038298 16.259738
In 118.883818 23.490931 16.456582
In 118.466250 19.672948 16.456582
In 115.786132 17.643415 16.456582
In 121.703125 14.548682 16.062895
In 100.297702 19.914031 16.456582
In 100.019324 26.585664 16.062895
In 118.466250 26.826747 16.456582
In 112.827635 23.249848 16.062895
O 116.447385 26.722302 19.662736
O 116.886017 15.947249 19.662736
O 117.371734 24.955313 17.048280
O 117.954099 17.631254 17.048280
O 120.577633 19.568503 16.742209
O 123.885135 24.702069 16.877722
O 121.016265 23.101049 16.742209
O 114.916715 23.398647 16.877722
O 120.529722 16.283478 16.877722
O 123.106997 16.200494 15.777267
O 119.799494 25.374526 15.641755
O 122.668364 26.975546 15.777267
O 116.377171 19.524149 15.641755
O 123.154907 19.485519 15.641755
O 119.024660 26.639318 18.562281
In 0.000000 14.307599 1.657107
In 22.716364 3.576900 7.498159
In 4.130248 14.307599 7.498159
In 22.716364 10.730699 7.498159
In 24.781488 14.307599 10.418686
In 2.065124 10.730699 4.577633
In 20.651240 14.307599 4.577633
In 2.065124 3.576900 4.577633
In 24.642298 10.971782 1.460263
In 18.725305 14.066516 1.853950
In 2.204313 14.066516 4.774476
In 24.642298 10.971782 10.221842
In 2.958497 1.547367 1.460263
In 3.236875 9.183332 1.853950
In 23.888115 2.029533 4.774476
In 2.958497 1.547367 10.221842
In 21.962180 1.788450 1.460263
In 2.819307 5.365349 1.853950
In 23.470547 12.519149 4.774476
In 21.962180 1.788450 10.221842
In 20.790429 10.489616 4.774476
In 1.925935 7.394882 4.380790
In 22.577174 0.241083 7.301316
In 0.139189 3.335817 1.853950
In 5.301999 12.760232 4.774476
In 5.023621 5.124266 4.380790
In 0.893373 12.278066 7.301316
In 21.822991 12.760232 1.853950
In 23.470547 5.365349 4.774476
In 17.831933 1.788450 4.380790
In 1.310941 1.788450 7.301316
In 2.819307 12.519149 1.853950
O 23.905049 12.623594 2.688637
O 21.451682 5.260904 7.980630
O 4.228548 0.336229 5.366175
O 24.759184 10.394470 8.116143
O 1.896610 0.082984 2.688637
O 21.890314 8.793450 7.980630
O 22.376031 3.493916 5.366175
O 3.400020 1.937249 8.116143
O 23.761316 1.601020 2.688637
O 6.220979 0.253244 7.980630
O 22.958396 10.477454 5.366175
O 21.403771 1.975879 8.116143
O 23.905049 12.623594 11.450216
O 0.800442 12.414703 5.060104
O 20.749540 0.336229 2.445649
O 4.107945 3.240671 5.195616
O 1.896610 0.082984 11.450216
O 1.239074 1.639651 5.060104
O 1.724792 10.647715 2.445649
O 19.921012 1.937249 5.195616
O 23.761316 1.601020 11.450216
O 22.741971 0.253244 5.060104
O 2.307157 3.323655 2.445649
O 0.752531 9.129679 5.195616
O 0.876439 1.684004 9.387156
O 3.329806 9.046695 4.095162
O 20.552940 13.971370 6.709617
O 0.022303 3.913128 3.959650
O 22.884878 14.224615 9.387156
O 2.891174 5.514149 4.095162
O 2.405456 10.813683 6.709617
O 21.381468 12.370350 3.959650
O 1.020171 12.706578 9.387156
O 18.560508 14.054354 4.095162
O 1.823091 3.830144 6.709617
O 3.377717 12.331719 3.959650
O 0.876439 1.684004 0.625577
O 23.981046 1.892895 7.015688
O 4.031948 13.971370 9.630144
O 20.673543 11.066928 6.880176
O 22.884878 14.224615 0.625577
O 23.542413 12.667948 7.015688
O 23.056696 3.659884 9.630144
O 4.860476 12.370350 6.880176
O 1.020171 12.706578 0.625577
O 2.039516 14.054354 7.015688
O 22.474331 10.983943 9.630144
O 24.028957 5.177920 6.880176
In 12.390744 7.153799 1.657107
In 10.325620 10.730699 7.498159
In 16.520992 7.153799 7.498159
In 10.325620 3.576900 7.498159
In 12.390744 7.153799 10.418686
In 14.455868 3.576900 4.577633
In 8.260496 7.153799 4.577633
In 14.455868 10.730699 4.577633
In 12.251555 3.817983 1.460263
In 6.334561 6.912716 1.853950
In 14.595057 6.912716 4.774476
In 12.251555 3.817983 10.221842
In 15.349240 8.701166 1.460263
In 15.627619 2.029533 1.853950
In 11.497371 9.183332 4.774476
In 15.349240 8.701166 10.221842
In 9.571437 8.942249 1.460263
In 15.210051 12.519149 1.853950
In 11.079803 5.365349 4.774476
In 9.571437 8.942249 10.221842
In 8.399685 3.335817 4.774476
In 14.316678 0.241083 4.380790
In 10.186431 7.394882 7.301316
In 12.529933 10.489616 1.853950
In 17.692743 5.606433 4.774476
In 17.414364 12.278066 4.380790
In 13.284116 5.124266 7.301316
In 9.432247 5.606433 1.853950
In 11.079803 12.519149 4.774476
In 5.441189 8.942249 4.380790
In 13.701685 8.942249 7.301316
In 15.210051 5.365349 1.853950
O 11.514305 5.469795 2.688637
O 9.060938 12.414703 7.980630
O 16.619292 7.490028 5.366175
O 12.368441 3.240671 8.116143
O 14.287354 7.236783 2.688637
O 9.499570 1.639651 7.980630
O 9.985287 10.647715 5.366175
O 15.790764 9.091048 8.116143
O 11.370573 8.754820 2.688637
O 18.611723 7.407044 7.980630
O 10.567652 3.323655 5.366175
O 9.013027 9.129679 8.116143
O 11.514305 5.469795 11.450216
O 13.191186 5.260904 5.060104
O 8.358796 7.490028 2.445649
O 16.498688 10.394470 5.195616
O 14.287354 7.236783 11.450216
O 13.629818 8.793450 5.060104
O 14.115535 3.493916 2.445649
O 7.530268 9.091048 5.195616
O 11.370573 8.754820 11.450216
O 10.351227 7.407044 5.060104
O 14.697900 10.477454 2.445649
O 13.143275 1.975879 5.195616
O 13.267182 8.837804 9.387156
O 15.720550 1.892895 4.095162
O 8.162196 6.817571 6.709617
O 12.413047 11.066928 3.959650
O 10.494134 7.070815 9.387156
O 15.281917 12.667948 4.095162
O 14.796200 3.659884 6.709617
O 8.990724 5.216550 3.959650
O 13.410915 5.552779 9.387156
O 6.169764 6.900555 4.095162
O 14.213835 10.983943 6.709617
O 15.768461 5.177920 3.959650
O 13.267182 8.837804 0.625577
O 11.590302 9.046695 7.015688
O 16.422692 6.817571 9.630144
O 8.282799 3.913128 6.880176
O 10.494134 7.070815 0.625577
O 11.151669 5.514149 7.015688
O 10.665952 10.813683 9.630144
O 17.251220 5.216550 6.880176
O 13.410915 5.552779 0.625577
O 14.430260 6.900555 7.015688
O 10.083587 3.830144 9.630144
O 11.638213 12.331719 6.880176
In 4.130248 7.153799 7.498159
In 2.065124 10.730699 13.339212
In 8.260496 7.153799 13.339212
In 2.065124 3.576900 13.339212
In 6.195372 3.576900 10.418686
In 24.781488 7.153799 10.418686
In 6.195372 10.730699 10.418686
In 3.991059 3.817983 7.301316
In 22.855553 6.912716 7.695003
In 6.334561 6.912716 10.615529
In 7.088745 8.701166 7.301316
In 7.367123 2.029533 7.695003
In 3.236875 9.183332 10.615529
In 1.310941 8.942249 7.301316
In 6.949555 12.519149 7.695003
In 2.819307 5.365349 10.615529
In 0.139189 3.335817 10.615529
In 6.056183 0.241083 10.221842
In 1.925935 7.394882 13.142369
In 4.269437 10.489616 7.695003
In 9.432247 5.606433 10.615529
In 9.153869 12.278066 10.221842
In 5.023621 5.124266 13.142369
In 1.171751 5.606433 7.695003
In 2.819307 12.519149 10.615529
In 21.962180 8.942249 10.221842
In 5.441189 8.942249 13.142369
In 6.949555 5.365349 7.695003
O 3.253809 5.469795 8.529689
O 0.800442 12.414703 13.821683
O 8.358796 7.490028 11.207228
O 4.107945 3.240671 13.957195
O 6.026858 7.236783 8.529689
O 1.239074 1.639651 13.821683
O 1.724792 10.647715 11.207228
O 7.530268 9.091048 13.957195
O 3.110077 8.754820 8.529689
O 10.351227 7.407044 13.821683
O 2.307157 3.323655 11.207228
O 0.752531 9.129679 13.957195
O 4.930690 5.260904 10.901157
O 0.098300 7.490028 8.286701
O 8.238193 10.394470 11.036669
O 5.369322 8.793450 10.901157
O 5.855040 3.493916 8.286701
O 24.051260 9.091048 11.036669
O 2.090732 7.407044 10.901157
O 6.437404 10.477454 8.286701
O 4.882779 1.975879 11.036669
O 7.460054 1.892895 9.936215
O 24.683188 6.817571 12.550670
O 4.152551 11.066928 9.800702
O 7.021422 12.667948 9.936215
O 6.535704 3.659884 12.550670
O 0.730228 5.216550 9.800702
O 22.690756 6.900555 9.936215
O 5.953339 10.983943 12.550670
O 7.507965 5.177920 9.800702
O 5.006687 8.837804 6.466629
O 3.329806 9.046695 12.856741
O 0.022303 3.913128 12.721229
O 2.233638 7.070815 6.466629
O 2.891174 5.514149 12.856741
O 8.990724 5.216550 12.721229
O 5.150419 5.552779 6.466629
O 6.169764 6.900555 12.856741
O 3.377717 12.331719 12.721229
In 16.520992 14.307599 7.498159
In 14.455868 3.576900 13.339212
In 20.651240 14.307599 13.339212
In 14.455868 10.730699 13.339212
In 18.586116 10.730699 10.418686
In 12.390744 14.307599 10.418686
In 18.586116 3.576900 10.418686
In 16.381802 10.971782 7.301316
In 10.464809 14.066516 7.695003
In 18.725305 14.066516 10.615529
In 19.479488 1.547367 7.301316
In 19.757867 9.183332 7.695003
In 15.627619 2.029533 10.615529
In 13.701685 1.788450 7.301316
In 19.340299 5.365349 7.695003
In 15.210051 12.519149 10.615529
In 12.529933 10.489616 10.615529
In 18.446926 7.394882 10.221842
In 14.316678 0.241083 13.142369
In 16.660181 3.335817 7.695003
In 21.822991 12.760232 10.615529
In 21.544612 5.124266 10.221842
In 17.414364 12.278066 13.142369
In 13.562495 12.760232 7.695003
In 15.210051 5.365349 10.615529
In 9.571437 1.788450 10.221842
In 17.831933 1.788450 13.142369
In 19.340299 12.519149 7.695003
O 15.644553 12.623594 8.529689
O 13.191186 5.260904 13.821683
O 20.749540 0.336229 11.207228
O 16.498688 10.394470 13.957195
O 18.417602 0.082984 8.529689
O 13.629818 8.793450 13.821683
O 14.115535 3.493916 11.207228
O 19.921012 1.937249 13.957195
O 15.500821 1.601020 8.529689
O 22.741971 0.253244 13.821683
O 14.697900 10.477454 11.207228
O 13.143275 1.975879 13.957195
O 17.321434 12.414703 10.901157
O 12.489044 0.336229 8.286701
O 20.628936 3.240671 11.036669
O 17.760066 1.639651 10.901157
O 18.245783 10.647715 8.286701
O 11.660516 1.937249 11.036669
O 14.481475 0.253244 10.901157
O 18.828148 3.323655 8.286701
O 17.273523 9.129679 11.036669
O 19.850798 9.046695 9.936215
O 12.292444 13.971370 12.550670
O 16.543295 3.913128 9.800702
O 19.412165 5.514149 9.936215
O 18.926448 10.813683 12.550670
O 13.120972 12.370350 9.800702
O 10.300012 14.054354 9.936215
O 18.344083 3.830144 12.550670
O 19.898709 12.331719 9.800702
O 17.397430 1.684004 6.466629
O 15.720550 1.892895 12.856741
O 12.413047 11.066928 12.721229
O 14.624382 14.224615 6.466629
O 15.281917 12.667948 12.856741
O 21.381468 12.370350 12.721229
O 17.541163 12.706578 6.466629
O 18.560508 14.054354 12.856741
O 15.768461 5.177920 12.721229
In 8.260496 14.307599 13.339212
In 6.195372 3.576900 1.657107
In 12.390744 14.307599 1.657107
In 6.195372 10.730699 1.657107
In 8.260496 14.307599 4.577633
In 8.121307 10.971782 13.142369
In 2.204313 14.066516 13.536055
In 8.121307 10.971782 4.380790
In 11.218993 1.547367 13.142369
In 11.497371 9.183332 13.536055
In 11.218993 1.547367 4.380790
In 5.441189 1.788450 13.142369
In 11.079803 5.365349 13.536055
In 5.441189 1.788450 4.380790
In 6.056183 0.241083 1.460263
In 8.399685 3.335817 13.536055
In 9.153869 12.278066 1.460263
In 5.301999 12.760232 13.536055
In 9.571437 1.788450 1.460263
In 11.079803 12.519149 13.536055
O 7.384057 12.623594 14.370742
O 4.930690 5.260904 2.139578
O 8.238193 10.394470 2.275090
O 10.157106 0.082984 14.370742
O 5.369322 8.793450 2.139578
O 11.660516 1.937249 2.275090
O 7.240325 1.601020 14.370742
O 14.481475 0.253244 2.139578
O 4.882779 1.975879 2.275090
O 7.384057 12.623594 5.609163
O 4.228548 0.336229 14.127754
O 10.157106 0.082984 5.609163
O 9.985287 10.647715 14.127754
O 7.240325 1.601020 5.609163
O 10.567652 3.323655 14.127754
O 9.136935 1.684004 3.546103
O 4.031948 13.971370 0.868565
O 6.363886 14.224615 3.546103
O 10.665952 10.813683 0.868565
O 9.280667 12.706578 3.546103
O 10.083587 3.830144 0.868565
O 9.136935 1.684004 12.307682
O 7.460054 1.892895 1.174636
O 12.292444 13.971370 3.789091
O 4.152551 11.066928 1.039123
O 6.363886 14.224615 12.307682
O 7.021422 12.667948 1.174636
O 6.535704 3.659884 3.789091
O 13.120972 12.370350 1.039123
O 9.280667 12.706578 12.307682
O 10.300012 14.054354 1.174636
O 5.953339 10.983943 3.789091
O 7.507965 5.177920 1.039123
In 20.651240 7.153799 13.339212
In 18.586116 10.730699 1.657107
In 24.781488 7.153799 1.657107
In 18.586116 3.576900 1.657107
In 20.651240 7.153799 4.577633
In 20.512050 3.817983 13.142369
In 14.595057 6.912716 13.536055
In 20.512050 3.817983 4.380790
In 23.609736 8.701166 13.142369
In 23.888115 2.029533 13.536055
In 23.609736 8.701166 4.380790
In 17.831933 8.942249 13.142369
In 23.470547 12.519149 13.536055
In 17.831933 8.942249 4.380790
In 18.446926 7.394882 1.460263
In 20.790429 10.489616 13.536055
In 21.544612 5.124266 1.460263
In 17.692743 5.606433 13.536055
In 21.962180 8.942249 1.460263
In 23.470547 5.365349 13.536055
O 19.774801 5.469795 14.370742
O 17.321434 12.414703 2.139578
O 20.628936 3.240671 2.275090
O 22.547850 7.236783 14.370742
O 17.760066 1.639651 2.139578
O 24.051260 9.091048 2.275090
O 19.631069 8.754820 14.370742
O 2.090732 7.407044 2.139578
O 17.273523 9.129679 2.275090
O 19.774801 5.469795 5.609163
O 16.619292 7.490028 14.127754
O 22.547850 7.236783 5.609163
O 22.376031 3.493916 14.127754
O 19.631069 8.754820 5.609163
O 22.958396 10.477454 14.127754
O 21.527678 8.837804 3.546103
O 16.422692 6.817571 0.868565
O 18.754630 7.070815 3.546103
O 23.056696 3.659884 0.868565
O 21.671411 5.552779 3.546103
O 22.474331 10.983943 0.868565
O 21.527678 8.837804 12.307682
O 19.850798 9.046695 1.174636
O 24.683188 6.817571 3.789091
O 16.543295 3.913128 1.039123
O 18.754630 7.070815 12.307682
O 19.412165 5.514149 1.174636
O 18.926448 10.813683 3.789091
O 0.730228 5.216550 1.039123
O 21.671411 5.552779 12.307682
O 22.690756 6.900555 1.174636
O 18.344083 3.830144 3.789091
O 19.898709 12.331719 1.039123
In 0.000000 14.307599 19.180265
In 22.716364 3.576900 25.021317
In 22.716364 10.730699 25.021317
In 2.065124 10.730699 22.100791
In 2.065124 3.576900 22.100791
In 24.642298 10.971782 18.983421
In 18.725305 14.066516 19.377108
In 2.204313 14.066516 22.297634
In 2.958497 1.547367 18.983421
In 3.236875 9.183332 19.377108
In 23.888115 2.029533 22.297634
In 2.958497 1.547367 27.745000
In 21.962180 1.788450 18.983421
In 2.819307 5.365349 19.377108
In 23.470547 12.519149 22.297634
In 21.962180 1.788450 27.745000
In 20.790429 10.489616 22.297634
In 1.925935 7.394882 21.903948
In 22.577174 0.241083 24.824474
In 0.139189 3.335817 19.377108
In 5.301999 12.760232 22.297634
In 5.023621 5.124266 21.903948
In 21.822991 12.760232 19.377108
In 23.470547 5.365349 22.297634
In 17.831933 1.788450 21.903948
In 1.310941 1.788450 24.824474
In 2.819307 12.519149 19.377108
O 23.905049 12.623594 20.211795
O 21.451682 5.260904 25.503788
O 4.228548 0.336229 22.889333
O 24.759184 10.394470 25.639301
O 1.896610 0.082984 20.211795
O 21.890314 8.793450 25.503788
O 22.376031 3.493916 22.889333
O 3.400020 1.937249 25.639301
O 23.761316 1.601020 20.211795
O 6.220979 0.253244 25.503788
O 22.958396 10.477454 22.889333
O 21.403771 1.975879 25.639301
O 0.800442 12.414703 22.583262
O 20.749540 0.336229 19.968807
O 4.107945 3.240671 22.718774
O 1.896610 0.082984 28.973374
O 1.239074 1.639651 22.583262
O 1.724792 10.647715 19.968807
O 19.921012 1.937249 22.718774
O 23.761316 1.601020 28.973374
O 22.741971 0.253244 22.583262
O 2.307157 3.323655 19.968807
O 0.752531 9.129679 22.718774
O 0.876439 1.684004 26.910314
O 3.329806 9.046695 21.618320
O 0.022303 3.913128 21.482808
O 2.891174 5.514149 21.618320
O 2.405456 10.813683 24.232775
O 21.381468 12.370350 21.482808
O 18.560508 14.054354 21.618320
O 1.823091 3.830144 24.232775
O 3.377717 12.331719 21.482808
O 0.876439 1.684004 18.148735
O 23.981046 1.892895 24.538846
O 20.673543 11.066928 24.403334
O 22.884878 14.224615 18.148735
O 23.056696 3.659884 27.153302
O 1.020171 12.706578 18.148735
O 24.028957 5.177920 24.403334
In 12.390744 7.153799 19.180265
In 10.325620 10.730699 25.021317
In 16.520992 7.153799 25.021317
In 10.325620 3.576900 25.021317
In 12.390744 7.153799 27.941844
In 14.455868 3.576900 22.100791
In 8.260496 7.153799 22.100791
In 14.455868 10.730699 22.100791
In 12.251555 3.817983 18.983421
In 6.334561 6.912716 19.377108
In 14.595057 6.912716 22.297634
In 12.251555 3.817983 27.745000
In 15.349240 8.701166 18.983421
In 15.627619 2.029533 19.377108
In 11.497371 9.183332 22.297634
In 9.571437 8.942249 18.983421
In 15.210051 12.519149 19.377108
In 11.079803 5.365349 22.297634
In 8.399685 3.335817 22.297634
In 14.316678 0.241083 21.903948
In 10.186431 7.394882 24.824474
In 12.529933 10.489616 19.377108
In 17.692743 5.606433 22.297634
In 17.414364 12.278066 21.903948
In 13.284116 5.124266 24.824474
In 9.432247 5.606433 19.377108
In 11.079803 12.519149 22.297634
In 5.441189 8.942249 21.903948
In 13.701685 8.942249 24.824474
In 15.210051 5.365349 19.377108
O 11.514305 5.469795 20.211795
O 16.619292 7.490028 22.889333
O 12.368441 3.240671 25.639301
O 14.287354 7.236783 20.211795
O 9.499570 1.639651 25.503788
O 9.985287 10.647715 22.889333
O 15.790764 9.091048 25.639301
O 11.370573 8.754820 20.211795
O 18.611723 7.407044 25.503788
O 10.567652 3.323655 22.889333
O 9.013027 9.129679 25.639301
O 11.514305 5.469795 28.973374
O 13.191186 5.260904 22.583262
O 8.358796 7.490028 19.968807
O 16.498688 10.394470 22.718774
O 14.287354 7.236783 28.973374
O 13.629818 8.793450 22.583262
O 14.115535 3.493916 19.968807
O 7.530268 9.091048 22.718774
O 10.351227 7.407044 22.583262
O 14.697900 10.477454 19.968807
O 13.143275 1.975879 22.718774
O 15.720550 1.892895 21.618320
O 8.162196 6.817571 24.232775
O 12.413047 11.066928 21.482808
O 10.494134 7.070815 26.910314
O 15.281917 12.667948 21.618320
O 14.796200 3.659884 24.232775
O 8.990724 5.216550 21.482808
O 13.410915 5.552779 26.910314
O 6.169764 6.900555 21.618320
O 14.213835 10.983943 24.232775
O 15.768461 5.177920 21.482808
O 13.267182 8.837804 18.148735
O 11.590302 9.046695 24.538846
O 16.422692 6.817571 27.153302
O 8.282799 3.913128 24.403334
O 10.494134 7.070815 18.148735
O 11.151669 5.514149 24.538846
O 17.251220 5.216550 24.403334
O 13.410915 5.552779 18.148735
O 14.430260 6.900555 24.538846
O 10.083587 3.830144 27.153302
In 4.130248 7.153799 25.021317
In 4.130248 7.153799 16.259738
In 6.195372 3.576900 27.941844
In 24.781488 7.153799 27.941844
In 3.991059 3.817983 24.824474
In 22.855553 6.912716 25.218161
In 6.334561 6.912716 28.138687
In 3.991059 3.817983 16.062895
In 7.088745 8.701166 24.824474
In 7.367123 2.029533 25.218161
In 7.088745 8.701166 16.062895
In 1.310941 8.942249 24.824474
In 2.819307 5.365349 28.138687
In 1.310941 8.942249 16.062895
In 0.139189 3.335817 28.138687
In 6.056183 0.241083 27.745000
In 4.269437 10.489616 25.218161
In 9.432247 5.606433 28.138687
In 1.171751 5.606433 25.218161
In 6.949555 5.365349 25.218161
O 3.253809 5.469795 26.052847
O 8.358796 7.490028 28.730386
O 6.026858 7.236783 26.052847
O 3.110077 8.754820 26.052847
O 2.307157 3.323655 28.730386
O 3.253809 5.469795 17.291268
O 4.930690 5.260904 28.424315
O 0.098300 7.490028 25.809859
O 6.026858 7.236783 17.291268
O 5.855040 3.493916 25.809859
O 3.110077 8.754820 17.291268
O 2.090732 7.407044 28.424315
O 6.437404 10.477454 25.809859
O 4.882779 1.975879 28.559827
O 5.006687 8.837804 15.228208
O 7.460054 1.892895 27.459373
O 2.233638 7.070815 15.228208
O 0.730228 5.216550 27.323860
O 5.150419 5.552779 15.228208
O 22.690756 6.900555 27.459373
O 7.507965 5.177920 27.323860
O 5.006687 8.837804 23.989787
O 8.162196 6.817571 15.471196
O 2.233638 7.070815 23.989787
O 2.405456 10.813683 15.471196
O 5.150419 5.552779 23.989787
O 1.823091 3.830144 15.471196
In 16.520992 14.307599 16.259738
In 18.586116 3.576900 27.941844
In 16.381802 10.971782 24.824474
In 16.381802 10.971782 16.062895
In 19.479488 1.547367 24.824474
In 19.757867 9.183332 25.218161
In 15.627619 2.029533 28.138687
In 19.479488 1.547367 16.062895
In 13.701685 1.788450 24.824474
In 19.340299 5.365349 25.218161
In 13.701685 1.788450 16.062895
In 16.660181 3.335817 25.218161
In 21.544612 5.124266 27.745000
In 15.210051 5.365349 28.138687
In 9.571437 1.788450 27.745000
O 20.749540 0.336229 28.730386
O 18.417602 0.082984 26.052847
O 14.115535 3.493916 28.730386
O 15.500821 1.601020 26.052847
O 15.644553 12.623594 17.291268
O 12.489044 0.336229 25.809859
O 20.628936 3.240671 28.559827
O 18.417602 0.082984 17.291268
O 17.760066 1.639651 28.424315
O 18.245783 10.647715 25.809859
O 11.660516 1.937249 28.559827
O 15.500821 1.601020 17.291268
O 14.481475 0.253244 28.424315
O 18.828148 3.323655 25.809859
O 17.397430 1.684004 15.228208
O 16.543295 3.913128 27.323860
O 14.624382 14.224615 15.228208
O 19.412165 5.514149 27.459373
O 17.541163 12.706578 15.228208
O 17.397430 1.684004 23.989787
O 20.552940 13.971370 15.471196
O 14.796200 3.659884 15.471196
O 14.213835 10.983943 15.471196
In 6.195372 3.576900 19.180265
In 12.390744 14.307599 19.180265
In 6.195372 10.730699 19.180265
In 10.325620 10.730699 16.259738
In 4.130248 14.307599 16.259738
In 10.325620 3.576900 16.259738
In 10.464809 14.066516 16.456582
In 8.121307 10.971782 21.903948
In 7.367123 2.029533 16.456582
In 11.218993 1.547367 21.903948
In 6.949555 12.519149 16.456582
In 5.441189 1.788450 21.903948
In 4.269437 10.489616 16.456582
In 10.186431 7.394882 16.062895
In 6.056183 0.241083 18.983421
In 13.562495 12.760232 16.456582
In 13.284116 5.124266 16.062895
In 9.153869 12.278066 18.983421
In 6.949555 5.365349 16.456582
In 1.310941 1.788450 16.062895
In 9.571437 1.788450 18.983421
O 4.930690 5.260904 19.662736
O 12.489044 0.336229 17.048280
O 8.238193 10.394470 19.798248
O 5.369322 8.793450 19.662736
O 5.855040 3.493916 17.048280
O 11.660516 1.937249 19.798248
O 14.481475 0.253244 19.662736
O 6.437404 10.477454 17.048280
O 4.882779 1.975879 19.798248
O 7.384057 12.623594 23.132321
O 9.060938 12.414703 16.742209
O 12.368441 3.240671 16.877722
O 10.157106 0.082984 23.132321
O 9.499570 1.639651 16.742209
O 3.400020 1.937249 16.877722
O 7.240325 1.601020 23.132321
O 6.220979 0.253244 16.742209
O 9.013027 9.129679 16.877722
O 9.136935 1.684004 21.069261
O 11.590302 9.046695 15.777267
O 4.031948 13.971370 18.391723
O 8.282799 3.913128 15.641755
O 11.151669 5.514149 15.777267
O 10.665952 10.813683 18.391723
O 4.860476 12.370350 15.641755
O 9.280667 12.706578 21.069261
O 2.039516 14.054354 15.777267
O 10.083587 3.830144 18.391723
O 11.638213 12.331719 15.641755
O 7.460054 1.892895 18.697794
O 12.292444 13.971370 21.312249
O 4.152551 11.066928 18.562281
O 7.021422 12.667948 18.697794
O 6.535704 3.659884 21.312249
O 13.120972 12.370350 18.562281
O 10.300012 14.054354 18.697794
O 5.953339 10.983943 21.312249
O 7.507965 5.177920 18.562281
In 18.586116 10.730699 19.180265
In 24.781488 7.153799 19.180265
In 18.586116 3.576900 19.180265
In 20.651240 7.153799 22.100791
In 22.716364 3.576900 16.259738
In 16.520992 7.153799 16.259738
In 22.716364 10.730699 16.259738
In 22.855553 6.912716 16.456582
In 20.512050 3.817983 21.903948
In 19.757867 9.183332 16.456582
In 23.609736 8.701166 21.903948
In 19.340299 5.365349 16.456582
In 17.831933 8.942249 21.903948
In 16.660181 3.335817 16.456582
In 22.577174 0.241083 16.062895
In 18.446926 7.394882 18.983421
In 1.171751 5.606433 16.456582
In 0.893373 12.278066 16.062895
In 21.544612 5.124266 18.983421
In 19.340299 12.519149 16.456582
In 13.701685 8.942249 16.062895
In 21.962180 8.942249 18.983421
O 17.321434 12.414703 19.662736
O 0.098300 7.490028 17.048280
O 20.628936 3.240671 19.798248
O 17.760066 1.639651 19.662736
O 18.245783 10.647715 17.048280
O 24.051260 9.091048 19.798248
O 2.090732 7.407044 19.662736
O 18.828148 3.323655 17.048280
O 17.273523 9.129679 19.798248
O 19.774801 5.469795 23.132321
O 21.451682 5.260904 16.742209
O 24.759184 10.394470 16.877722
O 22.547850 7.236783 23.132321
O 21.890314 8.793450 16.742209
O 15.790764 9.091048 16.877722
O 19.631069 8.754820 23.132321
O 18.611723 7.407044 16.742209
O 21.403771 1.975879 16.877722
O 21.527678 8.837804 21.069261
O 23.981046 1.892895 15.777267
O 16.422692 6.817571 18.391723
O 20.673543 11.066928 15.641755
O 18.754630 7.070815 21.069261
O 23.542413 12.667948 15.777267
O 23.056696 3.659884 18.391723
O 17.251220 5.216550 15.641755
O 21.671411 5.552779 21.069261
O 14.430260 6.900555 15.777267
O 22.474331 10.983943 18.391723
O 24.028957 5.177920 15.641755
O 19.850798 9.046695 18.697794
O 24.683188 6.817571 21.312249
O 16.543295 3.913128 18.562281
O 19.412165 5.514149 18.697794
O 18.926448 10.813683 21.312249
O 0.730228 5.216550 18.562281
O 22.690756 6.900555 18.697794
O 18.344083 3.830144 21.312249
O 19.898709 12.331719 18.562281
In 24.781488 14.307599 1.657107
In 47.497851 3.576900 7.498159
In 28.911736 14.307599 7.498159
In 47.497851 10.730699 7.498159
In 49.562975 14.307599 10.418686
In 26.846612 10.730699 4.577633
In 45.432728 14.307599 4.577633
In 26.846612 3.576900 4.577633
In 49.423786 10.971782 1.460263
In 43.506793 14.066516 1.853950
In 26.985801 14.066516 4.774476
In 49.423786 10.971782 10.221842
In 27.739984 1.547367 1.460263
In 28.018363 9.183332 1.853950
In 48.669603 2.029533 4.774476
In 27.739984 1.547367 10.221842
In 46.743668 1.788450 1.460263
In 27.600795 5.365349 1.853950
In 48.252035 12.519149 4.774476
In 46.743668 1.788450 10.221842
In 45.571917 10.489616 4.774476
In 26.707422 7.394882 4.380790
In 47.358662 0.241083 7.301316
In 24.920677 3.335817 1.853950
In 30.083487 12.760232 4.774476
In 29.805108 5.124266 4.380790
In 25.674860 12.278066 7.301316
In 46.604479 12.760232 1.853950
In 48.252035 5.365349 4.774476
In 42.613420 1.788450 4.380790
In 26.092428 1.788450 7.301316
In 27.600795 12.519149 1.853950
O 48.686537 12.623594 2.688637
O 46.233170 5.260904 7.980630
O 29.010036 0.336229 5.366175
O 49.540672 10.394470 8.116143
O 26.678098 0.082984 2.688637
O 46.671802 8.793450 7.980630
O 47.157519 3.493916 5.366175
O 28.181508 1.937249 8.116143
O 48.542804 1.601020 2.688637
O 31.002467 0.253244 7.980630
O 47.739884 10.477454 5.366175
O 46.185259 1.975879 8.116143
O 48.686537 12.623594 11.450216
O 25.581930 12.414703 5.060104
O 45.531027 0.336229 2.445649
O 28.889432 3.240671 5.195616
O 26.678098 0.082984 11.450216
O 26.020562 1.639651 5.060104
O 26.506279 10.647715 2.445649
O 44.702500 1.937249 5.195616
O 48.542804 1.601020 11.450216
O 47.523459 0.253244 5.060104
O 27.088644 3.323655 2.445649
O 25.534019 9.129679 5.195616
O 25.657926 1.684004 9.387156
O 28.111294 9.046695 4.095162
O 45.334428 13.971370 6.709617
O 24.803791 3.913128 3.959650
O 47.666366 14.224615 9.387156
O 27.672661 5.514149 4.095162
O 27.186944 10.813683 6.709617
O 46.162955 12.370350 3.959650
O 25.801659 12.706578 9.387156
O 43.341996 14.054354 4.095162
O 26.604579 3.830144 6.709617
O 28.159205 12.331719 3.959650
O 25.657926 1.684004 0.625577
O 48.762533 1.892895 7.015688
O 28.813436 13.971370 9.630144
O 45.455031 11.066928 6.880176
O 47.666366 14.224615 0.625577
O 48.323901 12.667948 7.015688
O 47.838184 3.659884 9.630144
O 29.641964 12.370350 6.880176
O 25.801659 12.706578 0.625577
O 26.821004 14.054354 7.015688
O 47.255819 10.983943 9.630144
O 48.810444 5.177920 6.880176
In 37.172232 7.153799 1.657107
In 35.107108 10.730699 7.498159
In 41.302480 7.153799 7.498159
In 35.107108 3.576900 7.498159
In 37.172232 7.153799 10.418686
In 39.237356 3.576900 4.577633
In 33.041984 7.153799 4.577633
In 39.237356 10.730699 4.577633
In 37.033042 3.817983 1.460263
In 31.116049 6.912716 1.853950
In 39.376545 6.912716 4.774476
In 37.033042 3.817983 10.221842
In 40.130728 8.701166 1.460263
In 40.409107 2.029533 1.853950
In 36.278859 9.183332 4.774476
In 40.130728 8.701166 10.221842
In 34.352924 8.942249 1.460263
In 39.991539 12.519149 1.853950
In 35.861291 5.365349 4.774476
In 34.352924 8.942249 10.221842
In 33.181173 3.335817 4.774476
In 39.098166 0.241083 4.380790
In 34.967918 7.394882 7.301316
In 37.311421 10.489616 1.853950
In 42.474231 5.606433 4.774476
In 42.195852 12.278066 4.380790
In 38.065604 5.124266 7.301316
In 34.213735 5.606433 1.853950
In 35.861291 12.519149 4.774476
In 30.222676 8.942249 4.380790
In 38.483172 8.942249 7.301316
In 39.991539 5.365349 1.853950
O 36.295793 5.469795 2.688637
O 33.842426 12.414703 7.980630
O 41.400779 7.490028 5.366175
O 37.149928 3.240671 8.116143
O 39.068841 7.236783 2.688637
O 34.281058 1.639651 7.980630
O 34.766775 10.647715 5.366175
O 40.572252 9.091048 8.116143
O 36.152060 8.754820 2.688637
O 43.393211 7.407044 7.980630
O 35.349140 3.323655 5.366175
O 33.794515 9.129679 8.116143
O 36.295793 5.469795 11.450216
O 37.972674 5.260904 5.060104
O 33.140284 7.490028 2.445649
O 41.280176 10.394470 5.195616
O 39.068841 7.236783 11.450216
O 38.411306 8.793450 5.060104
O 38.897023 3.493916 2.445649
O 32.311756 9.091048 5.195616
O 36.152060 8.754820 11.450216
O 35.132715 7.407044 5.060104
O 39.479388 10.477454 2.445649
O 37.924763 1.975879 5.195616
O 38.048670 8.837804 9.387156
O 40.502037 1.892895 4.095162
O 32.943684 6.817571 6.709617
O 37.194535 11.066928 3.959650
O 35.275622 7.070815 9.387156
O 40.063405 12.667948 4.095162
O 39.577688 3.659884 6.709617
O 33.772211 5.216550 3.959650
O 38.192403 5.552779 9.387156
O 30.951252 6.900555 4.095162
O 38.995323 10.983943 6.709617
O 40.549948 5.177920 3.959650
O 38.048670 8.837804 0.625577
O 36.371790 9.046695 7.015688
O 41.204180 6.817571 9.630144
O 33.064287 3.913128 6.880176
O 35.275622 7.070815 0.625577
O 35.933157 5.514149 7.015688
O 35.447440 10.813683 9.630144
O 42.032707 5.216550 6.880176
O 38.192403 5.552779 0.625577
O 39.211748 6.900555 7.015688
O 34.865075 3.830144 9.630144
O 36.419700 12.331719 6.880176
In 28.911736 7.153799 7.498159
In 26.846612 10.730699 13.339212
In 33.041984 7.153799 13.339212
In 26.846612 3.576900 13.339212
In 30.976860 3.576900 10.418686
In 49.562975 7.153799 10.418686
In 30.976860 10.730699 10.418686
In 28.772546 3.817983 7.301316
In 47.637041 6.912716 7.695003
In 31.116049 6.912716 10.615529
In 31.870232 8.701166 7.301316
In 32.148611 2.029533 7.695003
In 28.018363 9.183332 10.615529
In 26.092428 8.942249 7.301316
In 31.731043 12.519149 7.695003
In 27.600795 5.365349 10.615529
In 24.920677 3.335817 10.615529
In 30.837670 0.241083 10.221842
In 26.707422 7.394882 13.142369
In 29.050925 10.489616 7.695003
In 34.213735 5.606433 10.615529
In 33.935356 12.278066 10.221842
In 29.805108 5.124266 13.142369
In 25.953239 5.606433 7.695003
In 27.600795 12.519149 10.615529
In 46.743668 8.942249 10.221842
In 30.222676 8.942249 13.142369
In 31.731043 5.365349 7.695003
O 28.035297 5.469795 8.529689
O 25.581930 12.414703 13.821683
O 33.140284 7.490028 11.207228
O 28.889432 3.240671 13.957195
O 30.808346 7.236783 8.529689
O 26.020562 1.639651 13.821683
O 26.506279 10.647715 11.207228
O 32.311756 9.091048 13.957195
O 27.891564 8.754820 8.529689
O 35.132715 7.407044 13.821683
O 27.088644 3.323655 11.207228
O 25.534019 9.129679 13.957195
O 29.712178 5.260904 10.901157
O 24.879788 7.490028 8.286701
O 33.019680 10.394470 11.036669
O 30.150810 8.793450 10.901157
O 30.636527 3.493916 8.286701
O 48.832748 9.091048 11.036669
O 26.872219 7.407044 10.901157
O 31.218892 10.477454 8.286701
O 29.664267 1.975879 11.036669
O 32.241542 1.892895 9.936215
O 49.464676 6.817571 12.550670
O 28.934039 11.066928 9.800702
O 31.802909 12.667948 9.936215
O 31.317192 3.659884 12.550670
O 25.511716 5.216550 9.800702
O 47.472244 6.900555 9.936215
O 30.734827 10.983943 12.550670
O 32.289452 5.177920 9.800702
O 29.788174 8.837804 6.466629
O 28.111294 9.046695 12.856741
O 24.803791 3.913128 12.721229
O 27.015126 7.070815 6.466629
O 27.672661 5.514149 12.856741
O 33.772211 5.216550 12.721229
O 29.931907 5.552779 6.466629
O 30.951252 6.900555 12.856741
O 28.159205 12.331719 12.721229
In 41.302480 14.307599 7.498159
In 39.237356 3.576900 13.339212
In 45.432728 14.307599 13.339212
In 39.237356 10.730699 13.339212
In 43.367604 10.730699 10.418686
In 37.172232 14.307599 10.418686
In 43.367604 3.576900 10.418686
In 41.163290 10.971782 7.301316
In 35.246297 14.066516 7.695003
In 43.506793 14.066516 10.615529
In 44.260976 1.547367 7.301316
In 44.539355 9.183332 7.695003
In 40.409107 2.029533 10.615529
In 38.483172 1.788450 7.301316
In 44.121787 5.365349 7.695003
In 39.991539 12.519149 10.615529
In 37.311421 10.489616 10.615529
In 43.228414 7.394882 10.221842
In 39.098166 0.241083 13.142369
In 41.441669 3.335817 7.695003
In 46.604479 12.760232 10.615529
In 46.326100 5.124266 10.221842
In 42.195852 12.278066 13.142369
In 38.343983 12.760232 7.695003
In 39.991539 5.365349 10.615529
In 34.352924 1.788450 10.221842
In 42.613420 1.788450 13.142369
In 44.121787 12.519149 7.695003
O 40.426041 12.623594 8.529689
O 37.972674 5.260904 13.821683
O 45.531027 0.336229 11.207228
O 41.280176 10.394470 13.957195
O 43.199089 0.082984 8.529689
O 38.411306 8.793450 13.821683
O 38.897023 3.493916 11.207228
O 44.702500 1.937249 13.957195
O 40.282308 1.601020 8.529689
O 47.523459 0.253244 13.821683
O 39.479388 10.477454 11.207228
O 37.924763 1.975879 13.957195
O 42.102922 12.414703 10.901157
O 37.270531 0.336229 8.286701
O 45.410424 3.240671 11.036669
O 42.541554 1.639651 10.901157
O 43.027271 10.647715 8.286701
O 36.442004 1.937249 11.036669
O 39.262963 0.253244 10.901157
O 43.609636 3.323655 8.286701
O 42.055011 9.129679 11.036669
O 44.632285 9.046695 9.936215
O 37.073932 13.971370 12.550670
O 41.324783 3.913128 9.800702
O 44.193653 5.514149 9.936215
O 43.707936 10.813683 12.550670
O 37.902459 12.370350 9.800702
O 35.081500 14.054354 9.936215
O 43.125571 3.830144 12.550670
O 44.680196 12.331719 9.800702
O 42.178918 1.684004 6.466629
O 40.502037 1.892895 12.856741
O 37.194535 11.066928 12.721229
O 39.405870 14.224615 6.466629
O 40.063405 12.667948 12.856741
O 46.162955 12.370350 12.721229
O 42.322651 12.706578 6.466629
O 43.341996 14.054354 12.856741
O 40.549948 5.177920 12.721229
In 33.041984 14.307599 13.339212
In 30.976860 3.576900 1.657107
In 37.172232 14.307599 1.657107
In 30.976860 10.730699 1.657107
In 33.041984 14.307599 4.577633
In 32.902794 10.971782 13.142369
In 26.985801 14.066516 13.536055
In 32.902794 10.971782 4.380790
In 36.000480 1.547367 13.142369
In 36.278859 9.183332 13.536055
In 36.000480 1.547367 4.380790
In 30.222676 1.788450 13.142369
In 35.861291 5.365349 13.536055
In 30.222676 1.788450 4.380790
In 30.837670 0.241083 1.460263
In 33.181173 3.335817 13.536055
In 33.935356 12.278066 1.460263
In 30.083487 12.760232 13.536055
In 34.352924 1.788450 1.460263
In 35.861291 12.519149 13.536055
O 32.165545 12.623594 14.370742
O 29.712178 5.260904 2.139578
O 33.019680 10.394470 2.275090
O 34.938593 0.082984 14.370742
O 30.150810 8.793450 2.139578
O 36.442004 1.937249 2.275090
O 32.021812 1.601020 14.370742
O 39.262963 0.253244 2.139578
O 29.664267 1.975879 2.275090
O 32.165545 12.623594 5.609163
O 29.010036 0.336229 14.127754
O 34.938593 0.082984 5.609163
O 34.766775 10.647715 14.127754
O 32.021812 1.601020 5.609163
O 35.349140 3.323655 14.127754
O 33.918422 1.684004 3.546103
O 28.813436 13.971370 0.868565
O 31.145374 14.224615 3.546103
O 35.447440 10.813683 0.868565
O 34.062155 12.706578 3.546103
O 34.865075 3.830144 0.868565
O 33.918422 1.684004 12.307682
O 32.241542 1.892895 1.174636
O 37.073932 13.971370 3.789091
O 28.934039 11.066928 1.039123
O 31.145374 14.224615 12.307682
O 31.802909 12.667948 1.174636
O 31.317192 3.659884 3.789091
O 37.902459 12.370350 1.039123
O 34.062155 12.706578 12.307682
O 35.081500 14.054354 1.174636
O 30.734827 10.983943 3.789091
O 32.289452 5.177920 1.039123
In 45.432728 7.153799 13.339212
In 43.367604 10.730699 1.657107
In 49.562975 7.153799 1.657107
In 43.367604 3.576900 1.657107
In 45.432728 7.153799 4.577633
In 45.293538 3.817983 13.142369
In 39.376545 6.912716 13.536055
In 45.293538 3.817983 4.380790
In 48.391224 8.701166 13.142369
In 48.669603 2.029533 13.536055
In 48.391224 8.701166 4.380790
In 42.613420 8.942249 13.142369
In 48.252035 12.519149 13.536055
In 42.613420 8.942249 4.380790
In 43.228414 7.394882 1.460263
In 45.571917 10.489616 13.536055
In 46.326100 5.124266 1.460263
In 42.474231 5.606433 13.536055
In 46.743668 8.942249 1.460263
In 48.252035 5.365349 13.536055
O 44.556289 5.469795 14.370742
O 42.102922 12.414703 2.139578
O 45.410424 3.240671 2.275090
O 47.329337 7.236783 14.370742
O 42.541554 1.639651 2.139578
O 48.832748 9.091048 2.275090
O 44.412556 8.754820 14.370742
O 26.872219 7.407044 2.139578
O 42.055011 9.129679 2.275090
O 44.556289 5.469795 5.609163
O 41.400779 7.490028 14.127754
O 47.329337 7.236783 5.609163
O 47.157519 3.493916 14.127754
O 44.412556 8.754820 5.609163
O 47.739884 10.477454 14.127754
O 46.309166 8.837804 3.546103
O 41.204180 6.817571 0.868565
O 43.536118 7.070815 3.546103
O 47.838184 3.659884 0.868565
O 46.452899 5.552779 3.546103
O 47.255819 10.983943 0.868565
O 46.309166 8.837804 12.307682
O 44.632285 9.046695 1.174636
O 49.464676 6.817571 3.789091
O 41.324783 3.913128 1.039123
O 43.536118 7.070815 12.307682
O 44.193653 5.514149 1.174636
O 43.707936 10.813683 3.789091
O 25.511716 5.216550 1.039123
O 46.452899 5.552779 12.307682
O 47.472244 6.900555 1.174636
O 43.125571 3.830144 3.789091
O 44.680196 12.331719 1.039123
In 24.781488 14.307599 19.180265
In 47.497851 3.576900 25.021317
In 47.497851 10.730699 25.021317
In 26.846612 10.730699 22.100791
In 26.846612 3.576900 22.100791
In 49.423786 10.971782 18.983421
In 43.506793 14.066516 19.377108
In 26.985801 14.066516 22.297634
In 27.739984 1.547367 18.983421
In 28.018363 9.183332 19.377108
In 48.669603 2.029533 22.297634
In 27.739984 1.547367 27.745000
In 46.743668 1.788450 18.983421
In 27.600795 5.365349 19.377108
In 48.252035 12.519149 22.297634
In 46.743668 1.788450 27.745000
In 45.571917 10.489616 22.297634
In 26.707422 7.394882 21.903948
In 47.358662 0.241083 24.824474
In 24.920677 3.335817 19.377108
In 30.083487 12.760232 22.297634
In 29.805108 5.124266 21.903948
In 46.604479 12.760232 19.377108
In 48.252035 5.365349 22.297634
In 42.613420 1.788450 21.903948
In 26.092428 1.788450 24.824474
In 27.600795 12.519149 19.377108
O 48.686537 12.623594 20.211795
O 46.233170 5.260904 25.503788
O 29.010036 0.336229 22.889333
O 49.540672 10.394470 25.639301
O 26.678098 0.082984 20.211795
O 46.671802 8.793450 25.503788
O 47.157519 3.493916 22.889333
O 28.181508 1.937249 25.639301
O 48.542804 1.601020 20.211795
O 31.002467 0.253244 25.503788
O 47.739884 10.477454 22.889333
O 46.185259 1.975879 25.639301
O 25.581930 12.414703 22.583262
O 45.531027 0.336229 19.968807
O 28.889432 3.240671 22.718774
O 26.678098 0.082984 28.973374
O 26.020562 1.639651 22.583262
O 26.506279 10.647715 19.968807
O 44.702500 1.937249 22.718774
O 48.542804 1.601020 28.973374
O 47.523459 0.253244 22.583262
O 27.088644 3.323655 19.968807
O 25.534019 9.129679 22.718774
O 25.657926 1.684004 26.910314
O 28.111294 9.046695 21.618320
O 24.803791 3.913128 21.482808
O 27.672661 5.514149 21.618320
O 27.186944 10.813683 24.232775
O 46.162955 12.370350 21.482808
O 43.341996 14.054354 21.618320
O 26.604579 3.830144 24.232775
O 28.159205 12.331719 21.482808
O 25.657926 1.684004 18.148735
O 48.762533 1.892895 24.538846
O 45.455031 11.066928 24.403334
O 47.666366 14.224615 18.148735
O 47.838184 3.659884 27.153302
O 25.801659 12.706578 18.148735
O 48.810444 5.177920 24.403334
In 37.172232 7.153799 19.180265
In 35.107108 10.730699 25.021317
In 41.302480 7.153799 25.021317
In 35.107108 3.576900 25.021317
In 37.172232 7.153799 27.941844
In 39.237356 3.576900 22.100791
In 33.041984 7.153799 22.100791
In 39.237356 10.730699 22.100791
In 37.033042 3.817983 18.983421
In 31.116049 6.912716 19.377108
In 39.376545 6.912716 22.297634
In 37.033042 3.817983 27.745000
In 40.130728 8.701166 18.983421
In 40.409107 2.029533 19.377108
In 36.278859 9.183332 22.297634
In 34.352924 8.942249 18.983421
In 39.991539 12.519149 19.377108
In 35.861291 5.365349 22.297634
In 33.181173 3.335817 22.297634
In 39.098166 0.241083 21.903948
In 34.967918 7.394882 24.824474
In 37.311421 10.489616 19.377108
In 42.474231 5.606433 22.297634
In 42.195852 12.278066 21.903948
In 38.065604 5.124266 24.824474
In 34.213735 5.606433 19.377108
In 35.861291 12.519149 22.297634
In 30.222676 8.942249 21.903948
In 38.483172 8.942249 24.824474
In 39.991539 5.365349 19.377108
O 36.295793 5.469795 20.211795
O 41.400779 7.490028 22.889333
O 37.149928 3.240671 25.639301
O 39.068841 7.236783 20.211795
O 34.281058 1.639651 25.503788
O 34.766775 10.647715 22.889333
O 40.572252 9.091048 25.639301
O 36.152060 8.754820 20.211795
O 43.393211 7.407044 25.503788
O 35.349140 3.323655 22.889333
O 33.794515 9.129679 25.639301
O 36.295793 5.469795 28.973374
O 37.972674 5.260904 22.583262
O 33.140284 7.490028 19.968807
O 41.280176 10.394470 22.718774
O 39.068841 7.236783 28.973374
O 38.411306 8.793450 22.583262
O 38.897023 3.493916 19.968807
O 32.311756 9.091048 22.718774
O 35.132715 7.407044 22.583262
O 39.479388 10.477454 19.968807
O 37.924763 1.975879 22.718774
O 40.502037 1.892895 21.618320
O 32.943684 6.817571 24.232775
O 37.194535 11.066928 21.482808
O 35.275622 7.070815 26.910314
O 40.063405 12.667948 21.618320
O 39.577688 3.659884 24.232775
O 33.772211 5.216550 21.482808
O 38.192403 5.552779 26.910314
O 30.951252 6.900555 21.618320
O 38.995323 10.983943 24.232775
O 40.549948 5.177920 21.482808
O 38.048670 8.837804 18.148735
O 36.371790 9.046695 24.538846
O 41.204180 6.817571 27.153302
O 33.064287 3.913128 24.403334
O 35.275622 7.070815 18.148735
O 35.933157 5.514149 24.538846
O 42.032707 5.216550 24.403334
O 38.192403 5.552779 18.148735
O 39.211748 6.900555 24.538846
O 34.865075 3.830144 27.153302
In 28.911736 7.153799 25.021317
In 28.911736 7.153799 16.259738
In 30.976860 3.576900 27.941844
In 49.562975 7.153799 27.941844
In 28.772546 3.817983 24.824474
In 47.637041 6.912716 25.218161
In 31.116049 6.912716 28.138687
In 28.772546 3.817983 16.062895
In 31.870232 8.701166 24.824474
In 32.148611 2.029533 25.218161
In 31.870232 8.701166 16.062895
In 26.092428 8.942249 24.824474
In 27.600795 5.365349 28.138687
In 26.092428 8.942249 16.062895
In 24.920677 3.335817 28.138687
In 30.837670 0.241083 27.745000
In 29.050925 10.489616 25.218161
In 34.213735 5.606433 28.138687
In 25.953239 5.606433 25.218161
In 31.731043 5.365349 25.218161
O 28.035297 5.469795 26.052847
O 33.140284 7.490028 28.730386
O 30.808346 7.236783 26.052847
O 27.891564 8.754820 26.052847
O 27.088644 3.323655 28.730386
O 28.035297 5.469795 17.291268
O 29.712178 5.260904 28.424315
O 24.879788 7.490028 25.809859
O 30.808346 7.236783 17.291268
O 30.636527 3.493916 25.809859
O 27.891564 8.754820 17.291268
O 26.872219 7.407044 28.424315
O 31.218892 10.477454 25.809859
O 29.664267 1.975879 28.559827
O 29.788174 8.837804 15.228208
O 32.241542 1.892895 27.459373
O 27.015126 7.070815 15.228208
O 25.511716 5.216550 27.323860
O 29.931907 5.552779 15.228208
O 47.472244 6.900555 27.459373
O 32.289452 5.177920 27.323860
O 29.788174 8.837804 23.989787
O 32.943684 6.817571 15.471196
O 27.015126 7.070815 23.989787
O 27.186944 10.813683 15.471196
O 29.931907 5.552779 23.989787
O 26.604579 3.830144 15.471196
In 41.302480 14.307599 16.259738
In 43.367604 3.576900 27.941844
In 41.163290 10.971782 24.824474
In 41.163290 10.971782 16.062895
In 44.260976 1.547367 24.824474
In 44.539355 9.183332 25.218161
In 40.409107 2.029533 28.138687
In 44.260976 1.547367 16.062895
In 38.483172 1.788450 24.824474
In 44.121787 5.365349 25.218161
In 38.483172 1.788450 16.062895
In 41.441669 3.335817 25.218161
In 46.326100 5.124266 27.745000
In 39.991539 5.365349 28.138687
In 34.352924 1.788450 27.745000
O 45.531027 0.336229 28.730386
O 43.199089 0.082984 26.052847
O 38.897023 3.493916 28.730386
O 40.282308 1.601020 26.052847
O 40.426041 12.623594 17.291268
O 37.270531 0.336229 25.809859
O 45.410424 3.240671 28.559827
O 43.199089 0.082984 17.291268
O 42.541554 1.639651 28.424315
O 43.027271 10.647715 25.809859
O 36.442004 1.937249 28.559827
O 40.282308 1.601020 17.291268
O 39.262963 0.253244 28.424315
O 43.609636 3.323655 25.809859
O 42.178918 1.684004 15.228208
O 41.324783 3.913128 27.323860
O 39.405870 14.224615 15.228208
O 44.193653 5.514149 27.459373
O 42.322651 12.706578 15.228208
O 42.178918 1.684004 23.989787
O 45.334428 13.971370 15.471196
O 39.577688 3.659884 15.471196
O 38.995323 10.983943 15.471196
In 30.976860 3.576900 19.180265
In 37.172232 14.307599 19.180265
In 30.976860 10.730699 19.180265
In 35.107108 10.730699 16.259738
In 28.911736 14.307599 16.259738
In 35.107108 3.576900 16.259738
In 35.246297 14.066516 16.456582
In 32.902794 10.971782 21.903948
In 32.148611 2.029533 16.456582
In 36.000480 1.547367 21.903948
In 31.731043 12.519149 16.456582
In 30.222676 1.788450 21.903948
In 29.050925 10.489616 16.456582
In 34.967918 7.394882 16.062895
In 30.837670 0.241083 18.983421
In 38.343983 12.760232 16.456582
In 38.065604 5.124266 16.062895
In 33.935356 12.278066 18.983421
In 31.731043 5.365349 16.456582
In 26.092428 1.788450 16.062895
In 34.352924 1.788450 18.983421
O 29.712178 5.260904 19.662736
O 37.270531 0.336229 17.048280
O 33.019680 10.394470 19.798248
O 30.150810 8.793450 19.662736
O 30.636527 3.493916 17.048280
O 36.442004 1.937249 19.798248
O 39.262963 0.253244 19.662736
O 31.218892 10.477454 17.048280
O 29.664267 1.975879 19.798248
O 32.165545 12.623594 23.132321
O 33.842426 12.414703 16.742209
O 37.149928 3.240671 16.877722
O 34.938593 0.082984 23.132321
O 34.281058 1.639651 16.742209
O 28.181508 1.937249 16.877722
O 32.021812 1.601020 23.132321
O 31.002467 0.253244 16.742209
O 33.794515 9.129679 16.877722
O 33.918422 1.684004 21.069261
O 36.371790 9.046695 15.777267
O 28.813436 13.971370 18.391723
O 33.064287 3.913128 15.641755
O 35.933157 5.514149 15.777267
O 35.447440 10.813683 18.391723
O 29.641964 12.370350 15.641755
O 34.062155 12.706578 21.069261
O 26.821004 14.054354 15.777267
O 34.865075 3.830144 18.391723
O 36.419700 12.331719 15.641755
O 32.241542 1.892895 18.697794
O 37.073932 13.971370 21.312249
O 28.934039 11.066928 18.562281
O 31.802909 12.667948 18.697794
O 31.317192 3.659884 21.312249
O 37.902459 12.370350 18.562281
O 35.081500 14.054354 18.697794
O 30.734827 10.983943 21.312249
O 32.289452 5.177920 18.562281
In 43.367604 10.730699 19.180265
In 49.562975 7.153799 19.180265
In 43.367604 3.576900 19.180265
In 45.432728 7.153799 22.100791
In 47.497851 3.576900 16.259738
In 41.302480 7.153799 16.259738
In 47.497851 10.730699 16.259738
In 47.637041 6.912716 16.456582
In 45.293538 3.817983 21.903948
In 44.539355 9.183332 16.456582
In 48.391224 8.701166 21.903948
In 44.121787 5.365349 16.456582
In 42.613420 8.942249 21.903948
In 41.441669 3.335817 16.456582
In 47.358662 0.241083 16.062895
In 43.228414 7.394882 18.983421
In 25.953239 5.606433 16.456582
In 25.674860 12.278066 16.062895
In 46.326100 5.124266 18.983421
In 44.121787 12.519149 16.456582
In 38.483172 8.942249 16.062895
In 46.743668 8.942249 18.983421
O 42.102922 12.414703 19.662736
O 24.879788 7.490028 17.048280
O 45.410424 3.240671 19.798248
O 42.541554 1.639651 19.662736
O 43.027271 10.647715 17.048280
O 48.832748 9.091048 19.798248
O 26.872219 7.407044 19.662736
O 43.609636 3.323655 17.048280
O 42.055011 9.129679 19.798248
O 44.556289 5.469795 23.132321
O 46.233170 5.260904 16.742209
O 49.540672 10.394470 16.877722
O 47.329337 7.236783 23.132321
O 46.671802 8.793450 16.742209
O 40.572252 9.091048 16.877722
O 44.412556 8.754820 23.132321
O 43.393211 7.407044 16.742209
O 46.185259 1.975879 16.877722
O 46.309166 8.837804 21.069261
O 48.762533 1.892895 15.777267
O 41.204180 6.817571 18.391723
O 45.455031 11.066928 15.641755
O 43.536118 7.070815 21.069261
O 48.323901 12.667948 15.777267
O 47.838184 3.659884 18.391723
O 42.032707 5.216550 15.641755
O 46.452899 5.552779 21.069261
O 39.211748 6.900555 15.777267
O 47.255819 10.983943 18.391723
O 48.810444 5.177920 15.641755
O 44.632285 9.046695 18.697794
O 49.464676 6.817571 21.312249
O 41.324783 3.913128 18.562281
O 44.193653 5.514149 18.697794
O 43.707936 10.813683 21.312249
O 25.511716 5.216550 18.562281
O 47.472244 6.900555 18.697794
O 43.125571 3.830144 21.312249
O 44.680196 12.331719 18.562281
In 49.562975 14.307599 1.657107
In 72.279339 3.576900 7.498159
In 53.693223 14.307599 7.498159
In 72.279339 10.730699 7.498159
In 74.344463 14.307599 10.418686
In 51.628099 10.730699 4.577633
In 70.214215 14.307599 4.577633
In 51.628099 3.576900 4.577633
In 74.205274 10.971782 1.460263
In 68.288281 14.066516 1.853950
In 51.767289 14.066516 4.774476
In 74.205274 10.971782 10.221842
In 52.521472 1.547367 1.460263
In 52.799851 9.183332 1.853950
In 73.451091 2.029533 4.774476
In 52.521472 1.547367 10.221842
In 71.525156 1.788450 1.460263
In 52.382283 5.365349 1.853950
In 73.033522 12.519149 4.774476
In 71.525156 1.788450 10.221842
In 70.353405 10.489616 4.774476
In 51.488910 7.394882 4.380790
In 72.140150 0.241083 7.301316
In 49.702165 3.335817 1.853950
In 54.864975 12.760232 4.774476
In 54.586596 5.124266 4.380790
In 50.456348 12.278066 7.301316
In 71.385967 12.760232 1.853950
In 73.033522 5.365349 4.774476
In 67.394908 1.788450 4.380790
In 50.873916 1.788450 7.301316
In 52.382283 12.519149 1.853950
O 73.468025 12.623594 2.688637
O 71.014657 5.260904 7.980630
O 53.791523 0.336229 5.366175
O 74.322160 10.394470 8.116143
O 51.459585 0.082984 2.688637
O 71.453290 8.793450 7.980630
O 71.939007 3.493916 5.366175
O 52.962996 1.937249 8.116143
O 73.324292 1.601020 2.688637
O 55.783955 0.253244 7.980630
O 72.521372 10.477454 5.366175
O 70.966746 1.975879 8.116143
O 73.468025 12.623594 11.450216
O 50.363418 12.414703 5.060104
O 70.312515 0.336229 2.445649
O 53.670920 3.240671 5.195616
O 51.459585 0.082984 11.450216
O 50.802050 1.639651 5.060104
O 51.287767 10.647715 2.445649
O 69.483987 1.937249 5.195616
O 73.324292 1.601020 11.450216
O 72.304947 0.253244 5.060104
O 51.870132 3.323655 2.445649
O 50.315507 9.129679 5.195616
O 50.439414 1.684004 9.387156
O 52.892781 9.046695 4.095162
O 70.115915 13.971370 6.709617
O 49.585279 3.913128 3.959650
O 72.447853 14.224615 9.387156
O 52.454149 5.514149 4.095162
O 51.968432 10.813683 6.709617
O 70.944443 12.370350 3.959650
O 50.583147 12.706578 9.387156
O 68.123484 14.054354 4.095162
O 51.386067 3.830144 6.709617
O 52.940692 12.331719 3.959650
O 50.439414 1.684004 0.625577
O 73.544021 1.892895 7.015688
O 53.594924 13.971370 9.630144
O 70.236519 11.066928 6.880176
O 72.447853 14.224615 0.625577
O 73.105389 12.667948 7.015688
O 72.619672 3.659884 9.630144
O 54.423451 12.370350 6.880176
O 50.583147 12.706578 0.625577
O 51.602492 14.054354 7.015688
O 72.037307 10.983943 9.630144
O 73.591932 5.177920 6.880176
In 61.953719 7.153799 1.657107
In 59.888595 10.730699 7.498159
In 66.083967 7.153799 7.498159
In 59.888595 3.576900 7.498159
In 61.953719 7.153799 10.418686
In 64.018843 3.576900 4.577633
In 57.823471 7.153799 4.577633
In 64.018843 10.730699 4.577633
In 61.814530 3.817983 1.460263
In 55.897537 6.912716 1.853950
In 64.158033 6.912716 4.774476
In 61.814530 3.817983 10.221842
In 64.912216 8.701166 1.460263
In 65.190595 2.029533 1.853950
In 61.060347 9.183332 4.774476
In 64.912216 8.701166 10.221842
In 59.134412 8.942249 1.460263
In 64.773027 12.519149 1.853950
In 60.642779 5.365349 4.774476
In 59.134412 8.942249 10.221842
In 57.962661 3.335817 4.774476
In 63.879654 0.241083 4.380790
In 59.749406 7.394882 7.301316
In 62.092909 10.489616 1.853950
In 67.255719 5.606433 4.774476
In 66.977340 12.278066 4.380790
In 62.847092 5.124266 7.301316
In 58.995223 5.606433 1.853950
In 60.642779 12.519149 4.774476
In 55.004164 8.942249 4.380790
In 63.264660 8.942249 7.301316
In 64.773027 5.365349 1.853950
O 61.077281 5.469795 2.688637
O 58.623913 12.414703 7.980630
O 66.182267 7.490028 5.366175
O 61.931416 3.240671 8.116143
O 63.850329 7.236783 2.688637
O 59.062546 1.639651 7.980630
O 59.548263 10.647715 5.366175
O 65.353739 9.091048 8.116143
O 60.933548 8.754820 2.688637
O 68.174699 7.407044 7.980630
O 60.130628 3.323655 5.366175
O 58.576003 9.129679 8.116143
O 61.077281 5.469795 11.450216
O 62.754161 5.260904 5.060104
O 57.921771 7.490028 2.445649
O 66.061664 10.394470 5.195616
O 63.850329 7.236783 11.450216
O 63.192794 8.793450 5.060104
O 63.678511 3.493916 2.445649
O 57.093244 9.091048 5.195616
O 60.933548 8.754820 11.450216
O 59.914203 7.407044 5.060104
O 64.260876 10.477454 2.445649
O 62.706250 1.975879 5.195616
O 62.830158 8.837804 9.387156
O 65.283525 1.892895 4.095162
O 57.725171 6.817571 6.709617
O 61.976023 11.066928 3.959650
O 60.057109 7.070815 9.387156
O 64.844893 12.667948 4.095162
O 64.359176 3.659884 6.709617
O 58.553699 5.216550 3.959650
O 62.973891 5.552779 9.387156
O 55.732740 6.900555 4.095162
O 63.776811 10.983943 6.709617
O 65.331436 5.177920 3.959650
O 62.830158 8.837804 0.625577
O 61.153277 9.046695 7.015688
O 65.985667 6.817571 9.630144
O 57.845775 3.913128 6.880176
O 60.057109 7.070815 0.625577
O 60.714645 5.514149 7.015688
O 60.228928 10.813683 9.630144
O 66.814195 5.216550 6.880176
O 62.973891 5.552779 0.625577
O 63.993236 6.900555 7.015688
O 59.646563 3.830144 9.630144
O 61.201188 12.331719 6.880176
In 53.693223 7.153799 7.498159
In 51.628099 10.730699 13.339212
In 57.823471 7.153799 13.339212
In 51.628099 3.576900 13.339212
In 55.758347 3.576900 10.418686
In 74.344463 7.153799 10.418686
In 55.758347 10.730699 10.418686
In 53.554034 3.817983 7.301316
In 72.418529 6.912716 7.695003
In 55.897537 6.912716 10.615529
In 56.651720 8.701166 7.301316
In 56.930099 2.029533 7.695003
In 52.799851 9.183332 10.615529
In 50.873916 8.942249 7.301316
In 56.512531 12.519149 7.695003
In 52.382283 5.365349 10.615529
In 49.702165 3.335817 10.615529
In 55.619158 0.241083 10.221842
In 51.488910 7.394882 13.142369
In 53.832413 10.489616 7.695003
In 58.995223 5.606433 10.615529
In 58.716844 12.278066 10.221842
In 54.586596 5.124266 13.142369
In 50.734727 5.606433 7.695003
In 52.382283 12.519149 10.615529
In 71.525156 8.942249 10.221842
In 55.004164 8.942249 13.142369
In 56.512531 5.365349 7.695003
O 52.816785 5.469795 8.529689
O 50.363418 12.414703 13.821683
O 57.921771 7.490028 11.207228
O 53.670920 3.240671 13.957195
O 55.589833 7.236783 8.529689
O 50.802050 1.639651 13.821683
O 51.287767 10.647715 11.207228
O 57.093244 9.091048 13.957195
O 52.673052 8.754820 8.529689
O 59.914203 7.407044 13.821683
O 51.870132 3.323655 11.207228
O 50.315507 9.129679 13.957195
O 54.493665 5.260904 10.901157
O 49.661275 7.490028 8.286701
O 57.801168 10.394470 11.036669
O 54.932298 8.793450 10.901157
O 55.418015 3.493916 8.286701
O 73.614235 9.091048 11.036669
O 51.653707 7.407044 10.901157
O 56.000380 10.477454 8.286701
O 54.445755 1.975879 11.036669
O 57.023029 1.892895 9.936215
O 74.246163 6.817571 12.550670
O 53.715527 11.066928 9.800702
O 56.584397 12.667948 9.936215
O 56.098680 3.659884 12.550670
O 50.293203 5.216550 9.800702
O 72.253732 6.900555 9.936215
O 55.516315 10.983943 12.550670
O 57.070940 5.177920 9.800702
O 54.569662 8.837804 6.466629
O 52.892781 9.046695 12.856741
O 49.585279 3.913128 12.721229
O 51.796614 7.070815 6.466629
O 52.454149 5.514149 12.856741
O 58.553699 5.216550 12.721229
O 54.713395 5.552779 6.466629
O 55.732740 6.900555 12.856741
O 52.940692 12.331719 12.721229
In 66.083967 14.307599 7.498159
In 64.018843 3.576900 13.339212
In 70.214215 14.307599 13.339212
In 64.018843 10.730699 13.339212
In 68.149091 10.730699 10.418686
In 61.953719 14.307599 10.418686
In 68.149091 3.576900 10.418686
In 65.944778 10.971782 7.301316
In 60.027785 14.066516 7.695003
In 68.288281 14.066516 10.615529
In 69.042464 1.547367 7.301316
In 69.320843 9.183332 7.695003
In 65.190595 2.029533 10.615529
In 63.264660 1.788450 7.301316
In 68.903275 5.365349 7.695003
In 64.773027 12.519149 10.615529
In 62.092909 10.489616 10.615529
In 68.009902 7.394882 10.221842
In 63.879654 0.241083 13.142369
In 66.223157 3.335817 7.695003
In 71.385967 12.760232 10.615529
In 71.107588 5.124266 10.221842
In 66.977340 12.278066 13.142369
In 63.125471 12.760232 7.695003
In 64.773027 5.365349 10.615529
In 59.134412 1.788450 10.221842
In 67.394908 1.788450 13.142369
In 68.903275 12.519149 7.695003
O 65.207529 12.623594 8.529689
O 62.754161 5.260904 13.821683
O 70.312515 0.336229 11.207228
O 66.061664 10.394470 13.957195
O 67.980577 0.082984 8.529689
O 63.192794 8.793450 13.821683
O 63.678511 3.493916 11.207228
O 69.483987 1.937249 13.957195
O 65.063796 1.601020 8.529689
O 72.304947 0.253244 13.821683
O 64.260876 10.477454 11.207228
O 62.706250 1.975879 13.957195
O 66.884409 12.414703 10.901157
O 62.052019 0.336229 8.286701
O 70.191912 3.240671 11.036669
O 67.323042 1.639651 10.901157
O 67.808759 10.647715 8.286701
O 61.223491 1.937249 11.036669
O 64.044451 0.253244 10.901157
O 68.391124 3.323655 8.286701
O 66.836498 9.129679 11.036669
O 69.413773 9.046695 9.936215
O 61.855419 13.971370 12.550670
O 66.106271 3.913128 9.800702
O 68.975141 5.514149 9.936215
O 68.489424 10.813683 12.550670
O 62.683947 12.370350 9.800702
O 59.862988 14.054354 9.936215
O 67.907059 3.830144 12.550670
O 69.461684 12.331719 9.800702
O 66.960406 1.684004 6.466629
O 65.283525 1.892895 12.856741
O 61.976023 11.066928 12.721229
O 64.187357 14.224615 6.466629
O 64.844893 12.667948 12.856741
O 70.944443 12.370350 12.721229
O 67.104139 12.706578 6.466629
O 68.123484 14.054354 12.856741
O 65.331436 5.177920 12.721229
In 57.823471 14.307599 13.339212
In 55.758347 3.576900 1.657107
In 61.953719 14.307599 1.657107
In 55.758347 10.730699 1.657107
In 57.823471 14.307599 4.577633
In 57.684282 10.971782 13.142369
In 51.767289 14.066516 13.536055
In 57.684282 10.971782 4.380790
In 60.781968 1.547367 13.142369
In 61.060347 9.183332 13.536055
In 60.781968 1.547367 4.380790
In 55.004164 1.788450 13.142369
In 60.642779 5.365349 13.536055
In 55.004164 1.788450 4.380790
In 55.619158 0.241083 1.460263
In 57.962661 3.335817 13.536055
In 58.716844 12.278066 1.460263
In 54.864975 12.760232 13.536055
In 59.134412 1.788450 1.460263
In 60.642779 12.519149 13.536055
O 56.947033 12.623594 14.370742
O 54.493665 5.260904 2.139578
O 57.801168 10.394470 2.275090
O 59.720081 0.082984 14.370742
O 54.932298 8.793450 2.139578
O 61.223491 1.937249 2.275090
O 56.803300 1.601020 14.370742
O 64.044451 0.253244 2.139578
O 54.445755 1.975879 2.275090
O 56.947033 12.623594 5.609163
O 53.791523 0.336229 14.127754
O 59.720081 0.082984 5.609163
O 59.548263 10.647715 14.127754
O 56.803300 1.601020 5.609163
O 60.130628 3.323655 14.127754
O 58.699910 1.684004 3.546103
O 53.594924 13.971370 0.868565
O 55.926862 14.224615 3.546103
O 60.228928 10.813683 0.868565
O 58.843643 12.706578 3.546103
O 59.646563 3.830144 0.868565
O 58.699910 1.684004 12.307682
O 57.023029 1.892895 1.174636
O 61.855419 13.971370 3.789091
O 53.715527 11.066928 1.039123
O 55.926862 14.224615 12.307682
O 56.584397 12.667948 1.174636
O 56.098680 3.659884 3.789091
O 62.683947 12.370350 1.039123
O 58.843643 12.706578 12.307682
O 59.862988 14.054354 1.174636
O 55.516315 10.983943 3.789091
O 57.070940 5.177920 1.039123
In 70.214215 7.153799 13.339212
In 68.149091 10.730699 1.657107
In 74.344463 7.153799 1.657107
In 68.149091 3.576900 1.657107
In 70.214215 7.153799 4.577633
In 70.075026 3.817983 13.142369
In 64.158033 6.912716 13.536055
In 70.075026 3.817983 4.380790
In 73.172712 8.701166 13.142369
In 73.451091 2.029533 13.536055
In 73.172712 8.701166 4.380790
In 67.394908 8.942249 13.142369
In 73.033522 12.519149 13.536055
In 67.394908 8.942249 4.380790
In 68.009902 7.394882 1.460263
In 70.353405 10.489616 13.536055
In 71.107588 5.124266 1.460263
In 67.255719 5.606433 13.536055
In 71.525156 8.942249 1.460263
In 73.033522 5.365349 13.536055
O 69.337777 5.469795 14.370742
O 66.884409 12.414703 2.139578
O 70.191912 3.240671 2.275090
O 72.110825 7.236783 14.370742
O 67.323042 1.639651 2.139578
O 73.614235 9.091048 2.275090
O 69.194044 8.754820 14.370742
O 51.653707 7.407044 2.139578
O 66.836498 9.129679 2.275090
O 69.337777 5.469795 5.609163
O 66.182267 7.490028 14.127754
O 72.110825 7.236783 5.609163
O 71.939007 3.493916 14.127754
O 69.194044 8.754820 5.609163
O 72.521372 10.477454 14.127754
O 71.090654 8.837804 3.546103
O 65.985667 6.817571 0.868565
O 68.317605 7.070815 3.546103
O 72.619672 3.659884 0.868565
O 71.234386 5.552779 3.546103
O 72.037307 10.983943 0.868565
O 71.090654 8.837804 12.307682
O 69.413773 9.046695 1.174636
O 74.246163 6.817571 3.789091
O 66.106271 3.913128 1.039123
O 68.317605 7.070815 12.307682
O 68.975141 5.514149 1.174636
O 68.489424 10.813683 3.789091
O 50.293203 5.216550 1.039123
O 71.234386 5.552779 12.307682
O 72.253732 6.900555 1.174636
O 67.907059 3.830144 3.789091
O 69.461684 12.331719 1.039123
In 49.562975 14.307599 19.180265
In 72.279339 3.576900 25.021317
In 72.279339 10.730699 25.021317
In 51.628099 10.730699 22.100791
In 51.628099 3.576900 22.100791
In 74.205274 10.971782 18.983421
In 68.288281 14.066516 19.377108
In 51.767289 14.066516 22.297634
In 52.521472 1.547367 18.983421
In 52.799851 9.183332 19.377108
In 73.451091 2.029533 22.297634
In 52.521472 1.547367 27.745000
In 71.525156 1.788450 18.983421
In 52.382283 5.365349 19.377108
In 73.033522 12.519149 22.297634
In 71.525156 1.788450 27.745000
In 70.353405 10.489616 22.297634
In 51.488910 7.394882 21.903948
In 72.140150 0.241083 24.824474
In 49.702165 3.335817 19.377108
In 54.864975 12.760232 22.297634
In 54.586596 5.124266 21.903948
In 71.385967 12.760232 19.377108
In 73.033522 5.365349 22.297634
In 67.394908 1.788450 21.903948
In 50.873916 1.788450 24.824474
In 52.382283 12.519149 19.377108
O 73.468025 12.623594 20.211795
O 71.014657 5.260904 25.503788
O 53.791523 0.336229 22.889333
O 74.322160 10.394470 25.639301
O 51.459585 0.082984 20.211795
O 71.453290 8.793450 25.503788
O 71.939007 3.493916 22.889333
O 52.962996 1.937249 25.639301
O 73.324292 1.601020 20.211795
O 55.783955 0.253244 25.503788
O 72.521372 10.477454 22.889333
O 70.966746 1.975879 25.639301
O 50.363418 12.414703 22.583262
O 70.312515 0.336229 19.968807
O 53.670920 3.240671 22.718774
O 51.459585 0.082984 28.973374
O 50.802050 1.639651 22.583262
O 51.287767 10.647715 19.968807
O 69.483987 1.937249 22.718774
O 73.324292 1.601020 28.973374
O 72.304947 0.253244 22.583262
O 51.870132 3.323655 19.968807
O 50.315507 9.129679 22.718774
O 50.439414 1.684004 26.910314
O 52.892781 9.046695 21.618320
O 49.585279 3.913128 21.482808
O 52.454149 5.514149 21.618320
O 51.968432 10.813683 24.232775
O 70.944443 12.370350 21.482808
O 68.123484 14.054354 21.618320
O 51.386067 3.830144 24.232775
O 52.940692 12.331719 21.482808
O 50.439414 1.684004 18.148735
O 73.544021 1.892895 24.538846
O 70.236519 11.066928 24.403334
O 72.447853 14.224615 18.148735
O 72.619672 3.659884 27.153302
O 50.583147 12.706578 18.148735
O 73.591932 5.177920 24.403334
In 61.953719 7.153799 19.180265
In 59.888595 10.730699 25.021317
In 66.083967 7.153799 25.021317
In 59.888595 3.576900 25.021317
In 61.953719 7.153799 27.941844
In 64.018843 3.576900 22.100791
In 57.823471 7.153799 22.100791
In 64.018843 10.730699 22.100791
In 61.814530 3.817983 18.983421
In 55.897537 6.912716 19.377108
In 64.158033 6.912716 22.297634
In 61.814530 3.817983 27.745000
In 64.912216 8.701166 18.983421
In 65.190595 2.029533 19.377108
In 61.060347 9.183332 22.297634
In 59.134412 8.942249 18.983421
In 64.773027 12.519149 19.377108
In 60.642779 5.365349 22.297634
In 57.962661 3.335817 22.297634
In 63.879654 0.241083 21.903948
In 59.749406 7.394882 24.824474
In 62.092909 10.489616 19.377108
In 67.255719 5.606433 22.297634
In 66.977340 12.278066 21.903948
In 62.847092 5.124266 24.824474
In 58.995223 5.606433 19.377108
In 60.642779 12.519149 22.297634
In 55.004164 8.942249 21.903948
In 63.264660 8.942249 24.824474
In 64.773027 5.365349 19.377108
O 61.077281 5.469795 20.211795
O 66.182267 7.490028 22.889333
O 61.931416 3.240671 25.639301
O 63.850329 7.236783 20.211795
O 59.062546 1.639651 25.503788
O 59.548263 10.647715 22.889333
O 65.353739 9.091048 25.639301
O 60.933548 8.754820 20.211795
O 68.174699 7.407044 25.503788
O 60.130628 3.323655 22.889333
O 58.576003 9.129679 25.639301
O 61.077281 5.469795 28.973374
O 62.754161 5.260904 22.583262
O 57.921771 7.490028 19.968807
O 66.061664 10.394470 22.718774
O 63.850329 7.236783 28.973374
O 63.192794 8.793450 22.583262
O 63.678511 3.493916 19.968807
O 57.093244 9.091048 22.718774
O 59.914203 7.407044 22.583262
O 64.260876 10.477454 19.968807
O 62.706250 1.975879 22.718774
O 65.283525 1.892895 21.618320
O 57.725171 6.817571 24.232775
O 61.976023 11.066928 21.482808
O 60.057109 7.070815 26.910314
O 64.844893 12.667948 21.618320
O 64.359176 3.659884 24.232775
O 58.553699 5.216550 21.482808
O 62.973891 5.552779 26.910314
O 55.732740 6.900555 21.618320
O 63.776811 10.983943 24.232775
O 65.331436 5.177920 21.482808
O 62.830158 8.837804 18.148735
O 61.153277 9.046695 24.538846
O 65.985667 6.817571 27.153302
O 57.845775 3.913128 24.403334
O 60.057109 7.070815 18.148735
O 60.714645 5.514149 24.538846
O 66.814195 5.216550 24.403334
O 62.973891 5.552779 18.148735
O 63.993236 6.900555 24.538846
O 59.646563 3.830144 27.153302
In 53.693223 7.153799 25.021317
In 53.693223 7.153799 16.259738
In 55.758347 3.576900 27.941844
In 74.344463 7.153799 27.941844
In 53.554034 3.817983 24.824474
In 72.418529 6.912716 25.218161
In 55.897537 6.912716 28.138687
In 53.554034 3.817983 16.062895
In 56.651720 8.701166 24.824474
In 56.930099 2.029533 25.218161
In 56.651720 8.701166 16.062895
In 50.873916 8.942249 24.824474
In 52.382283 5.365349 28.138687
In 50.873916 8.942249 16.062895
In 49.702165 3.335817 28.138687
In 55.619158 0.241083 27.745000
In 53.832413 10.489616 25.218161
In 58.995223 5.606433 28.138687
In 50.734727 5.606433 25.218161
In 56.512531 5.365349 25.218161
O 52.816785 5.469795 26.052847
O 57.921771 7.490028 28.730386
O 55.589833 7.236783 26.052847
O 52.673052 8.754820 26.052847
O 51.870132 3.323655 28.730386
O 52.816785 5.469795 17.291268
O 54.493665 5.260904 28.424315
O 49.661275 7.490028 25.809859
O 55.589833 7.236783 17.291268
O 55.418015 3.493916 25.809859
O 52.673052 8.754820 17.291268
O 51.653707 7.407044 28.424315
O 56.000380 10.477454 25.809859
O 54.445755 1.975879 28.559827
O 54.569662 8.837804 15.228208
O 57.023029 1.892895 27.459373
O 51.796614 7.070815 15.228208
O 50.293203 5.216550 27.323860
O 54.713395 5.552779 15.228208
O 72.253732 6.900555 27.459373
O 57.070940 5.177920 27.323860
O 54.569662 8.837804 23.989787
O 57.725171 6.817571 15.471196
O 51.796614 7.070815 23.989787
O 51.968432 10.813683 15.471196
O 54.713395 5.552779 23.989787
O 51.386067 3.830144 15.471196
In 66.083967 14.307599 16.259738
In 68.149091 3.576900 27.941844
In 65.944778 10.971782 24.824474
In 65.944778 10.971782 16.062895
In 69.042464 1.547367 24.824474
In 69.320843 9.183332 25.218161
In 65.190595 2.029533 28.138687
In 69.042464 1.547367 16.062895
In 63.264660 1.788450 24.824474
In 68.903275 5.365349 25.218161
In 63.264660 1.788450 16.062895
In 68.009902 7.394882 27.745000
In 66.223157 3.335817 25.218161
In 71.107588 5.124266 27.745000
In 64.773027 5.365349 28.138687
In 59.134412 1.788450 27.745000
O 70.312515 0.336229 28.730386
O 67.980577 0.082984 26.052847
O 63.678511 3.493916 28.730386
O 65.063796 1.601020 26.052847
O 65.207529 12.623594 17.291268
O 62.052019 0.336229 25.809859
O 70.191912 3.240671 28.559827
O 67.980577 0.082984 17.291268
O 67.323042 1.639651 28.424315
O 67.808759 10.647715 25.809859
O 61.223491 1.937249 28.559827
O 65.063796 1.601020 17.291268
O 64.044451 0.253244 28.424315
O 68.391124 3.323655 25.809859
O 66.960406 1.684004 15.228208
O 66.106271 3.913128 27.323860
O 64.187357 14.224615 15.228208
O 68.975141 5.514149 27.459373
O 67.104139 12.706578 15.228208
O 66.960406 1.684004 23.989787
O 70.115915 13.971370 15.471196
O 64.359176 3.659884 15.471196
O 63.776811 10.983943 15.471196
In 55.758347 3.576900 19.180265
In 61.953719 14.307599 19.180265
In 55.758347 10.730699 19.180265
In 59.888595 10.730699 16.259738
In 53.693223 14.307599 16.259738
In 59.888595 3.576900 16.259738
In 60.027785 14.066516 16.456582
In 57.684282 10.971782 21.903948
In 56.930099 2.029533 16.456582
In 60.781968 1.547367 21.903948
In 56.512531 12.519149 16.456582
In 55.004164 1.788450 21.903948
In 53.832413 10.489616 16.456582
In 59.749406 7.394882 16.062895
In 55.619158 0.241083 18.983421
In 63.125471 12.760232 16.456582
In 62.847092 5.124266 16.062895
In 58.716844 12.278066 18.983421
In 56.512531 5.365349 16.456582
In 50.873916 1.788450 16.062895
In 59.134412 1.788450 18.983421
O 54.493665 5.260904 19.662736
O 62.052019 0.336229 17.048280
O 57.801168 10.394470 19.798248
O 54.932298 8.793450 19.662736
O 55.418015 3.493916 17.048280
O 61.223491 1.937249 19.798248
O 64.044451 0.253244 19.662736
O 56.000380 10.477454 17.048280
O 54.445755 1.975879 19.798248
O 56.947033 12.623594 23.132321
O 58.623913 12.414703 16.742209
O 61.931416 3.240671 16.877722
O 59.720081 0.082984 23.132321
O 59.062546 1.639651 16.742209
O 52.962996 1.937249 16.877722
O 56.803300 1.601020 23.132321
O 55.783955 0.253244 16.742209
O 58.576003 9.129679 16.877722
O 58.699910 1.684004 21.069261
O 61.153277 9.046695 15.777267
O 53.594924 13.971370 18.391723
O 57.845775 3.913128 15.641755
O 60.714645 5.514149 15.777267
O 60.228928 10.813683 18.391723
O 54.423451 12.370350 15.641755
O 58.843643 12.706578 21.069261
O 51.602492 14.054354 15.777267
O 59.646563 3.830144 18.391723
O 61.201188 12.331719 15.641755
O 57.023029 1.892895 18.697794
O 61.855419 13.971370 21.312249
O 53.715527 11.066928 18.562281
O 56.584397 12.667948 18.697794
O 56.098680 3.659884 21.312249
O 62.683947 12.370350 18.562281
O 59.862988 14.054354 18.697794
O 55.516315 10.983943 21.312249
O 57.070940 5.177920 18.562281
In 68.149091 10.730699 19.180265
In 74.344463 7.153799 19.180265
In 68.149091 3.576900 19.180265
In 70.214215 7.153799 22.100791
In 72.279339 3.576900 16.259738
In 66.083967 7.153799 16.259738
In 72.279339 10.730699 16.259738
In 72.418529 6.912716 16.456582
In 70.075026 3.817983 21.903948
In 69.320843 9.183332 16.456582
In 73.172712 8.701166 21.903948
In 68.903275 5.365349 16.456582
In 67.394908 8.942249 21.903948
In 66.223157 3.335817 16.456582
In 72.140150 0.241083 16.062895
In 68.009902 7.394882 18.983421
In 50.734727 5.606433 16.456582
In 50.456348 12.278066 16.062895
In 71.107588 5.124266 18.983421
In 68.903275 12.519149 16.456582
In 63.264660 8.942249 16.062895
In 71.525156 8.942249 18.983421
O 66.884409 12.414703 19.662736
O 49.661275 7.490028 17.048280
O 70.191912 3.240671 19.798248
O 67.323042 1.639651 19.662736
O 67.808759 10.647715 17.048280
O 73.614235 9.091048 19.798248
O 51.653707 7.407044 19.662736
O 68.391124 3.323655 17.048280
O 66.836498 9.129679 19.798248
O 69.337777 5.469795 23.132321
O 71.014657 5.260904 16.742209
O 74.322160 10.394470 16.877722
O 72.110825 7.236783 23.132321
O 71.453290 8.793450 16.742209
O 65.353739 9.091048 16.877722
O 69.194044 8.754820 23.132321
O 68.174699 7.407044 16.742209
O 70.966746 1.975879 16.877722
O 71.090654 8.837804 21.069261
O 73.544021 1.892895 15.777267
O 65.985667 6.817571 18.391723
O 70.236519 11.066928 15.641755
O 68.317605 7.070815 21.069261
O 73.105389 12.667948 15.777267
O 72.619672 3.659884 18.391723
O 66.814195 5.216550 15.641755
O 71.234386 5.552779 21.069261
O 63.993236 6.900555 15.777267
O 72.037307 10.983943 18.391723
O 73.591932 5.177920 15.641755
O 69.413773 9.046695 18.697794
O 74.246163 6.817571 21.312249
O 66.106271 3.913128 18.562281
O 68.975141 5.514149 18.697794
O 68.489424 10.813683 21.312249
O 50.293203 5.216550 18.562281
O 72.253732 6.900555 18.697794
O 67.907059 3.830144 21.312249
O 69.461684 12.331719 18.562281
In 74.344463 14.307599 1.657107
In 97.060827 3.576900 7.498159
In 78.474711 14.307599 7.498159
In 97.060827 10.730699 7.498159
In 99.125951 14.307599 10.418686
In 76.409587 10.730699 4.577633
In 94.995703 14.307599 4.577633
In 76.409587 3.576900 4.577633
In 98.986762 10.971782 1.460263
In 93.069768 14.066516 1.853950
In 76.548777 14.066516 4.774476
In 98.986762 10.971782 10.221842
In 77.302960 1.547367 1.460263
In 77.581339 9.183332 1.853950
In 98.232578 2.029533 4.774476
In 77.302960 1.547367 10.221842
In 96.306644 1.788450 1.460263
In 77.163770 5.365349 1.853950
In 97.815010 12.519149 4.774476
In 96.306644 1.788450 10.221842
In 95.134892 10.489616 4.774476
In 76.270398 7.394882 4.380790
In 96.921638 0.241083 7.301316
In 74.483653 3.335817 1.853950
In 79.646462 12.760232 4.774476
In 79.368084 5.124266 4.380790
In 75.237836 12.278066 7.301316
In 96.167454 12.760232 1.853950
In 97.815010 5.365349 4.774476
In 92.176396 1.788450 4.380790
In 75.655404 1.788450 7.301316
In 77.163770 12.519149 1.853950
O 98.249512 12.623594 2.688637
O 95.796145 5.260904 7.980630
O 78.573011 0.336229 5.366175
O 99.103648 10.394470 8.116143
O 76.241073 0.082984 2.688637
O 96.234777 8.793450 7.980630
O 96.720495 3.493916 5.366175
O 77.744483 1.937249 8.116143
O 98.105780 1.601020 2.688637
O 80.565443 0.253244 7.980630
O 97.302859 10.477454 5.366175
O 95.748234 1.975879 8.116143
O 98.249512 12.623594 11.450216
O 75.144905 12.414703 5.060104
O 95.094003 0.336229 2.445649
O 78.452408 3.240671 5.195616
O 76.241073 0.082984 11.450216
O 75.583538 1.639651 5.060104
O 76.069255 10.647715 2.445649
O 94.265475 1.937249 5.195616
O 98.105780 1.601020 11.450216
O 97.086434 0.253244 5.060104
O 76.651620 3.323655 2.445649
O 75.096994 9.129679 5.195616
O 75.220902 1.684004 9.387156
O 77.674269 9.046695 4.095162
O 94.897403 13.971370 6.709617
O 74.366767 3.913128 3.959650
O 97.229341 14.224615 9.387156
O 77.235637 5.514149 4.095162
O 76.749920 10.813683 6.709617
O 95.725931 12.370350 3.959650
O 75.364634 12.706578 9.387156
O 92.904971 14.054354 4.095162
O 76.167555 3.830144 6.709617
O 77.722180 12.331719 3.959650
O 75.220902 1.684004 0.625577
O 98.325509 1.892895 7.015688
O 78.376411 13.971370 9.630144
O 95.018006 11.066928 6.880176
O 97.229341 14.224615 0.625577
O 97.886877 12.667948 7.015688
O 97.401159 3.659884 9.630144
O 79.204939 12.370350 6.880176
O 75.364634 12.706578 0.625577
O 76.383980 14.054354 7.015688
O 96.818794 10.983943 9.630144
O 98.373420 5.177920 6.880176
In 86.735207 7.153799 1.657107
In 84.670083 10.730699 7.498159
In 90.865455 7.153799 7.498159
In 84.670083 3.576900 7.498159
In 86.735207 7.153799 10.418686
In 88.800331 3.576900 4.577633
In 82.604959 7.153799 4.577633
In 88.800331 10.730699 4.577633
In 86.596018 3.817983 1.460263
In 80.679024 6.912716 1.853950
In 88.939520 6.912716 4.774476
In 86.596018 3.817983 10.221842
In 89.693704 8.701166 1.460263
In 89.972082 2.029533 1.853950
In 85.841834 9.183332 4.774476
In 89.693704 8.701166 10.221842
In 83.915900 8.942249 1.460263
In 89.554514 12.519149 1.853950
In 85.424266 5.365349 4.774476
In 83.915900 8.942249 10.221842
In 82.744148 3.335817 4.774476
In 88.661142 0.241083 4.380790
In 84.530894 7.394882 7.301316
In 86.874396 10.489616 1.853950
In 92.037206 5.606433 4.774476
In 91.758828 12.278066 4.380790
In 87.628580 5.124266 7.301316
In 83.776710 5.606433 1.853950
In 85.424266 12.519149 4.774476
In 79.785652 8.942249 4.380790
In 88.046148 8.942249 7.301316
In 89.554514 5.365349 1.853950
O 85.858768 5.469795 2.688637
O 83.405401 12.414703 7.980630
O 90.963755 7.490028 5.366175
O 86.712904 3.240671 8.116143
O 88.631817 7.236783 2.688637
O 83.844033 1.639651 7.980630
O 84.329751 10.647715 5.366175
O 90.135227 9.091048 8.116143
O 85.715036 8.754820 2.688637
O 92.956187 7.407044 7.980630
O 84.912116 3.323655 5.366175
O 83.357490 9.129679 8.116143
O 85.858768 5.469795 11.450216
O 87.535649 5.260904 5.060104
O 82.703259 7.490028 2.445649
O 90.843152 10.394470 5.195616
O 88.631817 7.236783 11.450216
O 87.974281 8.793450 5.060104
O 88.459999 3.493916 2.445649
O 81.874731 9.091048 5.195616
O 85.715036 8.754820 11.450216
O 84.695691 7.407044 5.060104
O 89.042364 10.477454 2.445649
O 87.487738 1.975879 5.195616
O 87.611646 8.837804 9.387156
O 90.065013 1.892895 4.095162
O 82.506659 6.817571 6.709617
O 86.757510 11.066928 3.959650
O 84.838597 7.070815 9.387156
O 89.626381 12.667948 4.095162
O 89.140663 3.659884 6.709617
O 83.335187 5.216550 3.959650
O 87.755378 5.552779 9.387156
O 80.514228 6.900555 4.095162
O 88.558298 10.983943 6.709617
O 90.112924 5.177920 3.959650
O 87.611646 8.837804 0.625577
O 85.934765 9.046695 7.015688
O 90.767155 6.817571 9.630144
O 82.627262 3.913128 6.880176
O 84.838597 7.070815 0.625577
O 85.496133 5.514149 7.015688
O 85.010416 10.813683 9.630144
O 91.595683 5.216550 6.880176
O 87.755378 5.552779 0.625577
O 88.774723 6.900555 7.015688
O 84.428051 3.830144 9.630144
O 85.982676 12.331719 6.880176
In 78.474711 7.153799 7.498159
In 76.409587 10.730699 13.339212
In 82.604959 7.153799 13.339212
In 76.409587 3.576900 13.339212
In 80.539835 3.576900 10.418686
In 99.125951 7.153799 10.418686
In 80.539835 10.730699 10.418686
In 78.335522 3.817983 7.301316
In 97.200016 6.912716 7.695003
In 80.679024 6.912716 10.615529
In 81.433208 8.701166 7.301316
In 81.711586 2.029533 7.695003
In 77.581339 9.183332 10.615529
In 75.655404 8.942249 7.301316
In 81.294018 12.519149 7.695003
In 77.163770 5.365349 10.615529
In 74.483653 3.335817 10.615529
In 80.400646 0.241083 10.221842
In 76.270398 7.394882 13.142369
In 78.613900 10.489616 7.695003
In 83.776710 5.606433 10.615529
In 83.498332 12.278066 10.221842
In 79.368084 5.124266 13.142369
In 75.516215 5.606433 7.695003
In 77.163770 12.519149 10.615529
In 96.306644 8.942249 10.221842
In 79.785652 8.942249 13.142369
In 81.294018 5.365349 7.695003
O 77.598273 5.469795 8.529689
O 75.144905 12.414703 13.821683
O 82.703259 7.490028 11.207228
O 78.452408 3.240671 13.957195
O 80.371321 7.236783 8.529689
O 75.583538 1.639651 13.821683
O 76.069255 10.647715 11.207228
O 81.874731 9.091048 13.957195
O 77.454540 8.754820 8.529689
O 84.695691 7.407044 13.821683
O 76.651620 3.323655 11.207228
O 75.096994 9.129679 13.957195
O 79.275153 5.260904 10.901157
O 74.442763 7.490028 8.286701
O 82.582656 10.394470 11.036669
O 79.713786 8.793450 10.901157
O 80.199503 3.493916 8.286701
O 98.395723 9.091048 11.036669
O 76.435195 7.407044 10.901157
O 80.781868 10.477454 8.286701
O 79.227242 1.975879 11.036669
O 81.804517 1.892895 9.936215
O 99.027651 6.817571 12.550670
O 78.497014 11.066928 9.800702
O 81.365885 12.667948 9.936215
O 80.880168 3.659884 12.550670
O 75.074691 5.216550 9.800702
O 97.035219 6.900555 9.936215
O 80.297803 10.983943 12.550670
O 81.852428 5.177920 9.800702
O 79.351150 8.837804 6.466629
O 77.674269 9.046695 12.856741
O 74.366767 3.913128 12.721229
O 76.578101 7.070815 6.466629
O 77.235637 5.514149 12.856741
O 83.335187 5.216550 12.721229
O 79.494882 5.552779 6.466629
O 80.514228 6.900555 12.856741
O 77.722180 12.331719 12.721229
In 90.865455 14.307599 7.498159
In 88.800331 3.576900 13.339212
In 94.995703 14.307599 13.339212
In 88.800331 10.730699 13.339212
In 92.930579 10.730699 10.418686
In 86.735207 14.307599 10.418686
In 92.930579 3.576900 10.418686
In 90.726266 10.971782 7.301316
In 84.809272 14.066516 7.695003
In 93.069768 14.066516 10.615529
In 93.823952 1.547367 7.301316
In 94.102330 9.183332 7.695003
In 89.972082 2.029533 10.615529
In 88.046148 1.788450 7.301316
In 93.684762 5.365349 7.695003
In 89.554514 12.519149 10.615529
In 86.874396 10.489616 10.615529
In 92.791390 7.394882 10.221842
In 88.661142 0.241083 13.142369
In 91.004644 3.335817 7.695003
In 96.167454 12.760232 10.615529
In 95.889076 5.124266 10.221842
In 91.758828 12.278066 13.142369
In 87.906958 12.760232 7.695003
In 89.554514 5.365349 10.615529
In 83.915900 1.788450 10.221842
In 92.176396 1.788450 13.142369
In 93.684762 12.519149 7.695003
O 89.989016 12.623594 8.529689
O 87.535649 5.260904 13.821683
O 95.094003 0.336229 11.207228
O 90.843152 10.394470 13.957195
O 92.762065 0.082984 8.529689
O 87.974281 8.793450 13.821683
O 88.459999 3.493916 11.207228
O 94.265475 1.937249 13.957195
O 89.845284 1.601020 8.529689
O 97.086434 0.253244 13.821683
O 89.042364 10.477454 11.207228
O 87.487738 1.975879 13.957195
O 91.665897 12.414703 10.901157
O 86.833507 0.336229 8.286701
O 94.973400 3.240671 11.036669
O 92.104529 1.639651 10.901157
O 92.590247 10.647715 8.286701
O 86.004979 1.937249 11.036669
O 88.825939 0.253244 10.901157
O 93.172612 3.323655 8.286701
O 91.617986 9.129679 11.036669
O 94.195261 9.046695 9.936215
O 86.636907 13.971370 12.550670
O 90.887758 3.913128 9.800702
O 93.756629 5.514149 9.936215
O 93.270911 10.813683 12.550670
O 87.465435 12.370350 9.800702
O 84.644476 14.054354 9.936215
O 92.688546 3.830144 12.550670
O 94.243172 12.331719 9.800702
O 91.741894 1.684004 6.466629
O 90.065013 1.892895 12.856741
O 86.757510 11.066928 12.721229
O 88.968845 14.224615 6.466629
O 89.626381 12.667948 12.856741
O 95.725931 12.370350 12.721229
O 91.885626 12.706578 6.466629
O 92.904971 14.054354 12.856741
O 90.112924 5.177920 12.721229
In 82.604959 14.307599 13.339212
In 80.539835 3.576900 1.657107
In 86.735207 14.307599 1.657107
In 80.539835 10.730699 1.657107
In 82.604959 14.307599 4.577633
In 82.465770 10.971782 13.142369
In 76.548777 14.066516 13.536055
In 82.465770 10.971782 4.380790
In 85.563456 1.547367 13.142369
In 85.841834 9.183332 13.536055
In 85.563456 1.547367 4.380790
In 79.785652 1.788450 13.142369
In 85.424266 5.365349 13.536055
In 79.785652 1.788450 4.380790
In 80.400646 0.241083 1.460263
In 82.744148 3.335817 13.536055
In 83.498332 12.278066 1.460263
In 79.646462 12.760232 13.536055
In 83.915900 1.788450 1.460263
In 85.424266 12.519149 13.536055
O 81.728520 12.623594 14.370742
O 79.275153 5.260904 2.139578
O 82.582656 10.394470 2.275090
O 84.501569 0.082984 14.370742
O 79.713786 8.793450 2.139578
O 86.004979 1.937249 2.275090
O 81.584788 1.601020 14.370742
O 88.825939 0.253244 2.139578
O 79.227242 1.975879 2.275090
O 81.728520 12.623594 5.609163
O 78.573011 0.336229 14.127754
O 84.501569 0.082984 5.609163
O 84.329751 10.647715 14.127754
O 81.584788 1.601020 5.609163
O 84.912116 3.323655 14.127754
O 83.481398 1.684004 3.546103
O 78.376411 13.971370 0.868565
O 80.708349 14.224615 3.546103
O 85.010416 10.813683 0.868565
O 83.625130 12.706578 3.546103
O 84.428051 3.830144 0.868565
O 83.481398 1.684004 12.307682
O 81.804517 1.892895 1.174636
O 86.636907 13.971370 3.789091
O 78.497014 11.066928 1.039123
O 80.708349 14.224615 12.307682
O 81.365885 12.667948 1.174636
O 80.880168 3.659884 3.789091
O 87.465435 12.370350 1.039123
O 83.625130 12.706578 12.307682
O 84.644476 14.054354 1.174636
O 80.297803 10.983943 3.789091
O 81.852428 5.177920 1.039123
In 94.995703 7.153799 13.339212
In 92.930579 10.730699 1.657107
In 99.125951 7.153799 1.657107
In 92.930579 3.576900 1.657107
In 94.995703 7.153799 4.577633
In 94.856514 3.817983 13.142369
In 88.939520 6.912716 13.536055
In 94.856514 3.817983 4.380790
In 97.954200 8.701166 13.142369
In 98.232578 2.029533 13.536055
In 97.954200 8.701166 4.380790
In 92.176396 8.942249 13.142369
In 97.815010 12.519149 13.536055
In 92.176396 8.942249 4.380790
In 92.791390 7.394882 1.460263
In 95.134892 10.489616 13.536055
In 95.889076 5.124266 1.460263
In 92.037206 5.606433 13.536055
In 96.306644 8.942249 1.460263
In 97.815010 5.365349 13.536055
O 94.119264 5.469795 14.370742
O 91.665897 12.414703 2.139578
O 94.973400 3.240671 2.275090
O 96.892313 7.236783 14.370742
O 92.104529 1.639651 2.139578
O 98.395723 9.091048 2.275090
O 93.975532 8.754820 14.370742
O 76.435195 7.407044 2.139578
O 91.617986 9.129679 2.275090
O 94.119264 5.469795 5.609163
O 90.963755 7.490028 14.127754
O 96.892313 7.236783 5.609163
O 96.720495 3.493916 14.127754
O 93.975532 8.754820 5.609163
O 97.302859 10.477454 14.127754
O 95.872142 8.837804 3.546103
O 90.767155 6.817571 0.868565
O 93.099093 7.070815 3.546103
O 97.401159 3.659884 0.868565
O 96.015874 5.552779 3.546103
O 96.818794 10.983943 0.868565
O 95.872142 8.837804 12.307682
O 94.195261 9.046695 1.174636
O 99.027651 6.817571 3.789091
O 90.887758 3.913128 1.039123
O 93.099093 7.070815 12.307682
O 93.756629 5.514149 1.174636
O 93.270911 10.813683 3.789091
O 75.074691 5.216550 1.039123
O 96.015874 5.552779 12.307682
O 97.035219 6.900555 1.174636
O 92.688546 3.830144 3.789091
O 94.243172 12.331719 1.039123
In 74.344463 14.307599 19.180265
In 97.060827 3.576900 25.021317
In 97.060827 10.730699 25.021317
In 76.409587 10.730699 22.100791
In 76.409587 3.576900 22.100791
In 98.986762 10.971782 18.983421
In 93.069768 14.066516 19.377108
In 76.548777 14.066516 22.297634
In 77.302960 1.547367 18.983421
In 77.581339 9.183332 19.377108
In 98.232578 2.029533 22.297634
In 77.302960 1.547367 27.745000
In 96.306644 1.788450 18.983421
In 77.163770 5.365349 19.377108
In 97.815010 12.519149 22.297634
In 96.306644 1.788450 27.745000
In 95.134892 10.489616 22.297634
In 76.270398 7.394882 21.903948
In 96.921638 0.241083 24.824474
In 74.483653 3.335817 19.377108
In 79.646462 12.760232 22.297634
In 79.368084 5.124266 21.903948
In 96.167454 12.760232 19.377108
In 97.815010 5.365349 22.297634
In 92.176396 1.788450 21.903948
In 75.655404 1.788450 24.824474
In 77.163770 12.519149 19.377108
O 98.249512 12.623594 20.211795
O 95.796145 5.260904 25.503788
O 78.573011 0.336229 22.889333
O 99.103648 10.394470 25.639301
O 76.241073 0.082984 20.211795
O 96.234777 8.793450 25.503788
O 96.720495 3.493916 22.889333
O 77.744483 1.937249 25.639301
O 98.105780 1.601020 20.211795
O 80.565443 0.253244 25.503788
O 97.302859 10.477454 22.889333
O 95.748234 1.975879 25.639301
O 75.144905 12.414703 22.583262
O 95.094003 0.336229 19.968807
O 78.452408 3.240671 22.718774
O 76.241073 0.082984 28.973374
O 75.583538 1.639651 22.583262
O 76.069255 10.647715 19.968807
O 94.265475 1.937249 22.718774
O 98.105780 1.601020 28.973374
O 97.086434 0.253244 22.583262
O 76.651620 3.323655 19.968807
O 75.096994 9.129679 22.718774
O 75.220902 1.684004 26.910314
O 77.674269 9.046695 21.618320
O 74.366767 3.913128 21.482808
O 77.235637 5.514149 21.618320
O 76.749920 10.813683 24.232775
O 95.725931 12.370350 21.482808
O 92.904971 14.054354 21.618320
O 76.167555 3.830144 24.232775
O 77.722180 12.331719 21.482808
O 75.220902 1.684004 18.148735
O 98.325509 1.892895 24.538846
O 95.018006 11.066928 24.403334
O 97.229341 14.224615 18.148735
O 97.401159 3.659884 27.153302
O 75.364634 12.706578 18.148735
O 98.373420 5.177920 24.403334
In 86.735207 7.153799 19.180265
In 84.670083 10.730699 25.021317
In 90.865455 7.153799 25.021317
In 84.670083 3.576900 25.021317
In 86.735207 7.153799 27.941844
In 88.800331 3.576900 22.100791
In 82.604959 7.153799 22.100791
In 88.800331 10.730699 22.100791
In 86.596018 3.817983 18.983421
In 80.679024 6.912716 19.377108
In 88.939520 6.912716 22.297634
In 86.596018 3.817983 27.745000
In 89.693704 8.701166 18.983421
In 89.972082 2.029533 19.377108
In 85.841834 9.183332 22.297634
In 83.915900 8.942249 18.983421
In 89.554514 12.519149 19.377108
In 85.424266 5.365349 22.297634
In 82.744148 3.335817 22.297634
In 88.661142 0.241083 21.903948
In 84.530894 7.394882 24.824474
In 86.874396 10.489616 19.377108
In 92.037206 5.606433 22.297634
In 91.758828 12.278066 21.903948
In 87.628580 5.124266 24.824474
In 83.776710 5.606433 19.377108
In 85.424266 12.519149 22.297634
In 79.785652 8.942249 21.903948
In 88.046148 8.942249 24.824474
In 89.554514 5.365349 19.377108
O 85.858768 5.469795 20.211795
O 90.963755 7.490028 22.889333
O 86.712904 3.240671 25.639301
O 88.631817 7.236783 20.211795
O 83.844033 1.639651 25.503788
O 84.329751 10.647715 22.889333
O 90.135227 9.091048 25.639301
O 85.715036 8.754820 20.211795
O 92.956187 7.407044 25.503788
O 84.912116 3.323655 22.889333
O 83.357490 9.129679 25.639301
O 85.858768 5.469795 28.973374
O 87.535649 5.260904 22.583262
O 82.703259 7.490028 19.968807
O 90.843152 10.394470 22.718774
O 88.631817 7.236783 28.973374
O 87.974281 8.793450 22.583262
O 88.459999 3.493916 19.968807
O 81.874731 9.091048 22.718774
O 84.695691 7.407044 22.583262
O 89.042364 10.477454 19.968807
O 87.487738 1.975879 22.718774
O 90.065013 1.892895 21.618320
O 82.506659 6.817571 24.232775
O 86.757510 11.066928 21.482808
O 84.838597 7.070815 26.910314
O 89.626381 12.667948 21.618320
O 89.140663 3.659884 24.232775
O 83.335187 5.216550 21.482808
O 87.755378 5.552779 26.910314
O 80.514228 6.900555 21.618320
O 88.558298 10.983943 24.232775
O 90.112924 5.177920 21.482808
O 87.611646 8.837804 18.148735
O 85.934765 9.046695 24.538846
O 90.767155 6.817571 27.153302
O 82.627262 3.913128 24.403334
O 84.838597 7.070815 18.148735
O 85.496133 5.514149 24.538846
O 91.595683 5.216550 24.403334
O 87.755378 5.552779 18.148735
O 88.774723 6.900555 24.538846
O 84.428051 3.830144 27.153302
In 78.474711 7.153799 25.021317
In 78.474711 7.153799 16.259738
In 80.539835 3.576900 27.941844
In 99.125951 7.153799 27.941844
In 78.335522 3.817983 24.824474
In 97.200016 6.912716 25.218161
In 80.679024 6.912716 28.138687
In 78.335522 3.817983 16.062895
In 81.433208 8.701166 24.824474
In 81.711586 2.029533 25.218161
In 81.433208 8.701166 16.062895
In 75.655404 8.942249 24.824474
In 77.163770 5.365349 28.138687
In 75.655404 8.942249 16.062895
In 74.483653 3.335817 28.138687
In 80.400646 0.241083 27.745000
In 78.613900 10.489616 25.218161
In 83.776710 5.606433 28.138687
In 75.516215 5.606433 25.218161
In 81.294018 5.365349 25.218161
O 77.598273 5.469795 26.052847
O 82.703259 7.490028 28.730386
O 80.371321 7.236783 26.052847
O 77.454540 8.754820 26.052847
O 76.651620 3.323655 28.730386
O 77.598273 5.469795 17.291268
O 79.275153 5.260904 28.424315
O 74.442763 7.490028 25.809859
O 80.371321 7.236783 17.291268
O 80.199503 3.493916 25.809859
O 77.454540 8.754820 17.291268
O 76.435195 7.407044 28.424315
O 80.781868 10.477454 25.809859
O 79.227242 1.975879 28.559827
O 79.351150 8.837804 15.228208
O 81.804517 1.892895 27.459373
O 76.578101 7.070815 15.228208
O 75.074691 5.216550 27.323860
O 79.494882 5.552779 15.228208
O 97.035219 6.900555 27.459373
O 81.852428 5.177920 27.323860
O 79.351150 8.837804 23.989787
O 82.506659 6.817571 15.471196
O 76.578101 7.070815 23.989787
O 76.749920 10.813683 15.471196
O 79.494882 5.552779 23.989787
O 76.167555 3.830144 15.471196
In 90.865455 14.307599 16.259738
In 92.930579 3.576900 27.941844
In 90.726266 10.971782 24.824474
In 90.726266 10.971782 16.062895
In 93.823952 1.547367 24.824474
In 94.102330 9.183332 25.218161
In 89.972082 2.029533 28.138687
In 93.823952 1.547367 16.062895
In 88.046148 1.788450 24.824474
In 93.684762 5.365349 25.218161
In 88.046148 1.788450 16.062895
In 92.791390 7.394882 27.745000
In 91.004644 3.335817 25.218161
In 95.889076 5.124266 27.745000
In 89.554514 5.365349 28.138687
In 83.915900 1.788450 27.745000
O 95.094003 0.336229 28.730386
O 92.762065 0.082984 26.052847
O 88.459999 3.493916 28.730386
O 89.845284 1.601020 26.052847
O 89.989016 12.623594 17.291268
O 86.833507 0.336229 25.809859
O 94.973400 3.240671 28.559827
O 92.762065 0.082984 17.291268
O 92.104529 1.639651 28.424315
O 92.590247 10.647715 25.809859
O 86.004979 1.937249 28.559827
O 89.845284 1.601020 17.291268
O 88.825939 0.253244 28.424315
O 93.172612 3.323655 25.809859
O 91.741894 1.684004 15.228208
O 90.887758 3.913128 27.323860
O 88.968845 14.224615 15.228208
O 93.756629 5.514149 27.459373
O 91.885626 12.706578 15.228208
O 91.741894 1.684004 23.989787
O 94.897403 13.971370 15.471196
O 89.140663 3.659884 15.471196
O 88.558298 10.983943 15.471196
In 80.539835 3.576900 19.180265
In 86.735207 14.307599 19.180265
In 80.539835 10.730699 19.180265
In 84.670083 10.730699 16.259738
In 78.474711 14.307599 16.259738
In 84.670083 3.576900 16.259738
In 84.809272 14.066516 16.456582
In 82.465770 10.971782 21.903948
In 81.711586 2.029533 16.456582
In 85.563456 1.547367 21.903948
In 81.294018 12.519149 16.456582
In 79.785652 1.788450 21.903948
In 78.613900 10.489616 16.456582
In 84.530894 7.394882 16.062895
In 80.400646 0.241083 18.983421
In 87.906958 12.760232 16.456582
In 87.628580 5.124266 16.062895
In 83.498332 12.278066 18.983421
In 81.294018 5.365349 16.456582
In 75.655404 1.788450 16.062895
In 83.915900 1.788450 18.983421
O 79.275153 5.260904 19.662736
O 86.833507 0.336229 17.048280
O 82.582656 10.394470 19.798248
O 79.713786 8.793450 19.662736
O 80.199503 3.493916 17.048280
O 86.004979 1.937249 19.798248
O 88.825939 0.253244 19.662736
O 80.781868 10.477454 17.048280
O 79.227242 1.975879 19.798248
O 81.728520 12.623594 23.132321
O 83.405401 12.414703 16.742209
O 86.712904 3.240671 16.877722
O 84.501569 0.082984 23.132321
O 83.844033 1.639651 16.742209
O 77.744483 1.937249 16.877722
O 81.584788 1.601020 23.132321
O 80.565443 0.253244 16.742209
O 83.357490 9.129679 16.877722
O 83.481398 1.684004 21.069261
O 85.934765 9.046695 15.777267
O 78.376411 13.971370 18.391723
O 82.627262 3.913128 15.641755
O 85.496133 5.514149 15.777267
O 85.010416 10.813683 18.391723
O 79.204939 12.370350 15.641755
O 83.625130 12.706578 21.069261
O 76.383980 14.054354 15.777267
O 84.428051 3.830144 18.391723
O 85.982676 12.331719 15.641755
O 81.804517 1.892895 18.697794
O 86.636907 13.971370 21.312249
O 78.497014 11.066928 18.562281
O 81.365885 12.667948 18.697794
O 80.880168 3.659884 21.312249
O 87.465435 12.370350 18.562281
O 84.644476 14.054354 18.697794
O 80.297803 10.983943 21.312249
O 81.852428 5.177920 18.562281
In 92.930579 10.730699 19.180265
In 99.125951 7.153799 19.180265
In 92.930579 3.576900 19.180265
In 94.995703 7.153799 22.100791
In 97.060827 3.576900 16.259738
In 90.865455 7.153799 16.259738
In 97.060827 10.730699 16.259738
In 97.200016 6.912716 16.456582
In 94.856514 3.817983 21.903948
In 94.102330 9.183332 16.456582
In 97.954200 8.701166 21.903948
In 93.684762 5.365349 16.456582
In 92.176396 8.942249 21.903948
In 91.004644 3.335817 16.456582
In 96.921638 0.241083 16.062895
In 92.791390 7.394882 18.983421
In 75.516215 5.606433 16.456582
In 75.237836 12.278066 16.062895
In 95.889076 5.124266 18.983421
In 93.684762 12.519149 16.456582
In 88.046148 8.942249 16.062895
In 96.306644 8.942249 18.983421
O 91.665897 12.414703 19.662736
O 74.442763 7.490028 17.048280
O 94.973400 3.240671 19.798248
O 92.104529 1.639651 19.662736
O 92.590247 10.647715 17.048280
O 98.395723 9.091048 19.798248
O 76.435195 7.407044 19.662736
O 93.172612 3.323655 17.048280
O 91.617986 9.129679 19.798248
O 94.119264 5.469795 23.132321
O 95.796145 5.260904 16.742209
O 99.103648 10.394470 16.877722
O 96.892313 7.236783 23.132321
O 96.234777 8.793450 16.742209
O 90.135227 9.091048 16.877722
O 93.975532 8.754820 23.132321
O 92.956187 7.407044 16.742209
O 95.748234 1.975879 16.877722
O 95.872142 8.837804 21.069261
O 98.325509 1.892895 15.777267
O 90.767155 6.817571 18.391723
O 95.018006 11.066928 15.641755
O 93.099093 7.070815 21.069261
O 97.886877 12.667948 15.777267
O 97.401159 3.659884 18.391723
O 91.595683 5.216550 15.641755
O 96.015874 5.552779 21.069261
O 88.774723 6.900555 15.777267
O 96.818794 10.983943 18.391723
O 98.373420 5.177920 15.641755
O 94.195261 9.046695 18.697794
O 99.027651 6.817571 21.312249
O 90.887758 3.913128 18.562281
O 93.756629 5.514149 18.697794
O 93.270911 10.813683 21.312249
O 75.074691 5.216550 18.562281
O 97.035219 6.900555 18.697794
O 92.688546 3.830144 21.312249
O 94.243172 12.331719 18.562281
In 99.125951 14.307599 1.657107
In 121.842315 3.576900 7.498159
In 103.256199 14.307599 7.498159
In 121.842315 10.730699 7.498159
In 0.000000 14.307599 10.418686
In 101.191075 10.730699 4.577633
In 119.777191 14.307599 4.577633
In 101.191075 3.576900 4.577633
In 123.768249 10.971782 1.460263
In 117.851256 14.066516 1.853950
In 101.330264 14.066516 4.774476
In 123.768249 10.971782 10.221842
In 102.084448 1.547367 1.460263
In 102.362826 9.183332 1.853950
In 123.014066 2.029533 4.774476
In 102.084448 1.547367 10.221842
In 121.088131 1.788450 1.460263
In 101.945258 5.365349 1.853950
In 122.596498 12.519149 4.774476
In 121.088131 1.788450 10.221842
In 119.916380 10.489616 4.774476
In 101.051886 7.394882 4.380790
In 121.703125 0.241083 7.301316
In 99.265140 3.335817 1.853950
In 104.427950 12.760232 4.774476
In 104.149571 5.124266 4.380790
In 100.019324 12.278066 7.301316
In 120.948942 12.760232 1.853950
In 122.596498 5.365349 4.774476
In 116.957883 1.788450 4.380790
In 100.436892 1.788450 7.301316
In 101.945258 12.519149 1.853950
O 123.031000 12.623594 2.688637
O 120.577633 5.260904 7.980630
O 103.354499 0.336229 5.366175
O 123.885135 10.394470 8.116143
O 101.022561 0.082984 2.688637
O 121.016265 8.793450 7.980630
O 121.501982 3.493916 5.366175
O 102.525971 1.937249 8.116143
O 122.887267 1.601020 2.688637
O 105.346930 0.253244 7.980630
O 122.084347 10.477454 5.366175
O 120.529722 1.975879 8.116143
O 123.031000 12.623594 11.450216
O 99.926393 12.414703 5.060104
O 119.875491 0.336229 2.445649
O 103.233896 3.240671 5.195616
O 101.022561 0.082984 11.450216
O 100.365025 1.639651 5.060104
O 100.850742 10.647715 2.445649
O 119.046963 1.937249 5.195616
O 122.887267 1.601020 11.450216
O 121.867922 0.253244 5.060104
O 101.433107 3.323655 2.445649
O 99.878482 9.129679 5.195616
O 100.002390 1.684004 9.387156
O 102.455757 9.046695 4.095162
O 119.678891 13.971370 6.709617
O 99.148254 3.913128 3.959650
O 122.010829 14.224615 9.387156
O 102.017124 5.514149 4.095162
O 101.531407 10.813683 6.709617
O 120.507419 12.370350 3.959650
O 100.146122 12.706578 9.387156
O 117.686459 14.054354 4.095162
O 100.949042 3.830144 6.709617
O 102.503668 12.331719 3.959650
O 100.002390 1.684004 0.625577
O 123.106997 1.892895 7.015688
O 103.157899 13.971370 9.630144
O 119.799494 11.066928 6.880176
O 122.010829 14.224615 0.625577
O 122.668364 12.667948 7.015688
O 122.182647 3.659884 9.630144
O 103.986427 12.370350 6.880176
O 100.146122 12.706578 0.625577
O 101.165467 14.054354 7.015688
O 121.600282 10.983943 9.630144
O 123.154907 5.177920 6.880176
In 111.516695 7.153799 1.657107
In 109.451571 10.730699 7.498159
In 115.646943 7.153799 7.498159
In 109.451571 3.576900 7.498159
In 111.516695 7.153799 10.418686
In 113.581819 3.576900 4.577633
In 107.386447 7.153799 4.577633
In 113.581819 10.730699 4.577633
In 111.377505 3.817983 1.460263
In 105.460512 6.912716 1.853950
In 113.721008 6.912716 4.774476
In 111.377505 3.817983 10.221842
In 114.475191 8.701166 1.460263
In 114.753570 2.029533 1.853950
In 110.623322 9.183332 4.774476
In 114.475191 8.701166 10.221842
In 108.697388 8.942249 1.460263
In 114.336002 12.519149 1.853950
In 110.205754 5.365349 4.774476
In 108.697388 8.942249 10.221842
In 107.525636 3.335817 4.774476
In 113.442629 0.241083 4.380790
In 109.312381 7.394882 7.301316
In 111.655884 10.489616 1.853950
In 116.818694 5.606433 4.774476
In 116.540315 12.278066 4.380790
In 112.410067 5.124266 7.301316
In 108.558198 5.606433 1.853950
In 110.205754 12.519149 4.774476
In 104.567140 8.942249 4.380790
In 112.827635 8.942249 7.301316
In 114.336002 5.365349 1.853950
O 110.640256 5.469795 2.688637
O 108.186889 12.414703 7.980630
O 115.745243 7.490028 5.366175
O 111.494391 3.240671 8.116143
O 113.413305 7.236783 2.688637
O 108.625521 1.639651 7.980630
O 109.111238 10.647715 5.366175
O 114.916715 9.091048 8.116143
O 110.496524 8.754820 2.688637
O 117.737674 7.407044 7.980630
O 109.693603 3.323655 5.366175
O 108.138978 9.129679 8.116143
O 110.640256 5.469795 11.450216
O 112.317137 5.260904 5.060104
O 107.484747 7.490028 2.445649
O 115.624639 10.394470 5.195616
O 113.413305 7.236783 11.450216
O 112.755769 8.793450 5.060104
O 113.241486 3.493916 2.445649
O 106.656219 9.091048 5.195616
O 110.496524 8.754820 11.450216
O 109.477178 7.407044 5.060104
O 113.823851 10.477454 2.445649
O 112.269226 1.975879 5.195616
O 112.393133 8.837804 9.387156
O 114.846501 1.892895 4.095162
O 107.288147 6.817571 6.709617
O 111.538998 11.066928 3.959650
O 109.620085 7.070815 9.387156
O 114.407868 12.667948 4.095162
O 113.922151 3.659884 6.709617
O 108.116675 5.216550 3.959650
O 112.536866 5.552779 9.387156
O 105.295715 6.900555 4.095162
O 113.339786 10.983943 6.709617
O 114.894412 5.177920 3.959650
O 112.393133 8.837804 0.625577
O 110.716253 9.046695 7.015688
O 115.548643 6.817571 9.630144
O 107.408750 3.913128 6.880176
O 109.620085 7.070815 0.625577
O 110.277620 5.514149 7.015688
O 109.791903 10.813683 9.630144
O 116.377171 5.216550 6.880176
O 112.536866 5.552779 0.625577
O 113.556211 6.900555 7.015688
O 109.209538 3.830144 9.630144
O 110.764164 12.331719 6.880176
In 103.256199 7.153799 7.498159
In 101.191075 10.730699 13.339212
In 107.386447 7.153799 13.339212
In 101.191075 3.576900 13.339212
In 105.321323 3.576900 10.418686
In 0.000000 7.153799 10.418686
In 105.321323 10.730699 10.418686
In 103.117010 3.817983 7.301316
In 121.981504 6.912716 7.695003
In 105.460512 6.912716 10.615529
In 106.214695 8.701166 7.301316
In 106.493074 2.029533 7.695003
In 102.362826 9.183332 10.615529
In 100.436892 8.942249 7.301316
In 106.075506 12.519149 7.695003
In 101.945258 5.365349 10.615529
In 99.265140 3.335817 10.615529
In 105.182133 0.241083 10.221842
In 101.051886 7.394882 13.142369
In 103.395388 10.489616 7.695003
In 108.558198 5.606433 10.615529
In 108.279819 12.278066 10.221842
In 104.149571 5.124266 13.142369
In 100.297702 5.606433 7.695003
In 101.945258 12.519149 10.615529
In 121.088131 8.942249 10.221842
In 104.567140 8.942249 13.142369
In 106.075506 5.365349 7.695003
O 102.379760 5.469795 8.529689
O 99.926393 12.414703 13.821683
O 107.484747 7.490028 11.207228
O 103.233896 3.240671 13.957195
O 105.152809 7.236783 8.529689
O 100.365025 1.639651 13.821683
O 100.850742 10.647715 11.207228
O 106.656219 9.091048 13.957195
O 102.236028 8.754820 8.529689
O 109.477178 7.407044 13.821683
O 101.433107 3.323655 11.207228
O 99.878482 9.129679 13.957195
O 104.056641 5.260904 10.901157
O 99.224251 7.490028 8.286701
O 107.364143 10.394470 11.036669
O 104.495273 8.793450 10.901157
O 104.980990 3.493916 8.286701
O 123.177211 9.091048 11.036669
O 101.216682 7.407044 10.901157
O 105.563355 10.477454 8.286701
O 104.008730 1.975879 11.036669
O 106.586005 1.892895 9.936215
O 123.809139 6.817571 12.550670
O 103.278502 11.066928 9.800702
O 106.147372 12.667948 9.936215
O 105.661655 3.659884 12.550670
O 99.856179 5.216550 9.800702
O 121.816707 6.900555 9.936215
O 105.079290 10.983943 12.550670
O 106.633916 5.177920 9.800702
O 104.132637 8.837804 6.466629
O 102.455757 9.046695 12.856741
O 99.148254 3.913128 12.721229
O 101.359589 7.070815 6.466629
O 102.017124 5.514149 12.856741
O 108.116675 5.216550 12.721229
O 104.276370 5.552779 6.466629
O 105.295715 6.900555 12.856741
O 102.503668 12.331719 12.721229
In 115.646943 14.307599 7.498159
In 113.581819 3.576900 13.339212
In 119.777191 14.307599 13.339212
In 113.581819 10.730699 13.339212
In 117.712067 10.730699 10.418686
In 111.516695 14.307599 10.418686
In 117.712067 3.576900 10.418686
In 115.507753 10.971782 7.301316
In 109.590760 14.066516 7.695003
In 117.851256 14.066516 10.615529
In 118.605439 1.547367 7.301316
In 118.883818 9.183332 7.695003
In 114.753570 2.029533 10.615529
In 112.827635 1.788450 7.301316
In 118.466250 5.365349 7.695003
In 114.336002 12.519149 10.615529
In 111.655884 10.489616 10.615529
In 117.572877 7.394882 10.221842
In 113.442629 0.241083 13.142369
In 115.786132 3.335817 7.695003
In 120.948942 12.760232 10.615529
In 120.670563 5.124266 10.221842
In 116.540315 12.278066 13.142369
In 112.688446 12.760232 7.695003
In 114.336002 5.365349 10.615529
In 108.697388 1.788450 10.221842
In 116.957883 1.788450 13.142369
In 118.466250 12.519149 7.695003
O 114.770504 12.623594 8.529689
O 112.317137 5.260904 13.821683
O 119.875491 0.336229 11.207228
O 115.624639 10.394470 13.957195
O 117.543553 0.082984 8.529689
O 112.755769 8.793450 13.821683
O 113.241486 3.493916 11.207228
O 119.046963 1.937249 13.957195
O 114.626771 1.601020 8.529689
O 121.867922 0.253244 13.821683
O 113.823851 10.477454 11.207228
O 112.269226 1.975879 13.957195
O 116.447385 12.414703 10.901157
O 111.614995 0.336229 8.286701
O 119.754887 3.240671 11.036669
O 116.886017 1.639651 10.901157
O 117.371734 10.647715 8.286701
O 110.786467 1.937249 11.036669
O 113.607426 0.253244 10.901157
O 117.954099 3.323655 8.286701
O 116.399474 9.129679 11.036669
O 118.976749 9.046695 9.936215
O 111.418395 13.971370 12.550670
O 115.669246 3.913128 9.800702
O 118.538116 5.514149 9.936215
O 118.052399 10.813683 12.550670
O 112.246923 12.370350 9.800702
O 109.425963 14.054354 9.936215
O 117.470034 3.830144 12.550670
O 119.024660 12.331719 9.800702
O 116.523381 1.684004 6.466629
O 114.846501 1.892895 12.856741
O 111.538998 11.066928 12.721229
O 113.750333 14.224615 6.466629
O 114.407868 12.667948 12.856741
O 120.507419 12.370350 12.721229
O 116.667114 12.706578 6.466629
O 117.686459 14.054354 12.856741
O 114.894412 5.177920 12.721229
In 107.386447 14.307599 13.339212
In 105.321323 3.576900 1.657107
In 111.516695 14.307599 1.657107
In 105.321323 10.730699 1.657107
In 107.386447 14.307599 4.577633
In 107.247257 10.971782 13.142369
In 101.330264 14.066516 13.536055
In 107.247257 10.971782 4.380790
In 110.344943 1.547367 13.142369
In 110.623322 9.183332 13.536055
In 110.344943 1.547367 4.380790
In 104.567140 1.788450 13.142369
In 110.205754 5.365349 13.536055
In 104.567140 1.788450 4.380790
In 105.182133 0.241083 1.460263
In 107.525636 3.335817 13.536055
In 108.279819 12.278066 1.460263
In 104.427950 12.760232 13.536055
In 108.697388 1.788450 1.460263
In 110.205754 12.519149 13.536055
O 106.510008 12.623594 14.370742
O 104.056641 5.260904 2.139578
O 107.364143 10.394470 2.275090
O 109.283057 0.082984 14.370742
O 104.495273 8.793450 2.139578
O 110.786467 1.937249 2.275090
O 106.366276 1.601020 14.370742
O 113.607426 0.253244 2.139578
O 104.008730 1.975879 2.275090
O 106.510008 12.623594 5.609163
O 103.354499 0.336229 14.127754
O 109.283057 0.082984 5.609163
O 109.111238 10.647715 14.127754
O 106.366276 1.601020 5.609163
O 109.693603 3.323655 14.127754
O 108.262885 1.684004 3.546103
O 103.157899 13.971370 0.868565
O 105.489837 14.224615 3.546103
O 109.791903 10.813683 0.868565
O 108.406618 12.706578 3.546103
O 109.209538 3.830144 0.868565
O 108.262885 1.684004 12.307682
O 106.586005 1.892895 1.174636
O 111.418395 13.971370 3.789091
O 103.278502 11.066928 1.039123
O 105.489837 14.224615 12.307682
O 106.147372 12.667948 1.174636
O 105.661655 3.659884 3.789091
O 112.246923 12.370350 1.039123
O 108.406618 12.706578 12.307682
O 109.425963 14.054354 1.174636
O 105.079290 10.983943 3.789091
O 106.633916 5.177920 1.039123
In 119.777191 7.153799 13.339212
In 117.712067 10.730699 1.657107
In 123.907439 7.153799 1.657107
In 117.712067 3.576900 1.657107
In 119.777191 7.153799 4.577633
In 119.638001 3.817983 13.142369
In 113.721008 6.912716 13.536055
In 119.638001 3.817983 4.380790
In 122.735687 8.701166 13.142369
In 123.014066 2.029533 13.536055
In 122.735687 8.701166 4.380790
In 116.957883 8.942249 13.142369
In 122.596498 12.519149 13.536055
In 116.957883 8.942249 4.380790
In 117.572877 7.394882 1.460263
In 119.916380 10.489616 13.536055
In 120.670563 5.124266 1.460263
In 116.818694 5.606433 13.536055
In 121.088131 8.942249 1.460263
In 122.596498 5.365349 13.536055
O 118.900752 5.469795 14.370742
O 116.447385 12.414703 2.139578
O 119.754887 3.240671 2.275090
O 121.673801 7.236783 14.370742
O 116.886017 1.639651 2.139578
O 123.177211 9.091048 2.275090
O 118.757019 8.754820 14.370742
O 101.216682 7.407044 2.139578
O 116.399474 9.129679 2.275090
O 118.900752 5.469795 5.609163
O 115.745243 7.490028 14.127754
O 121.673801 7.236783 5.609163
O 121.501982 3.493916 14.127754
O 118.757019 8.754820 5.609163
O 122.084347 10.477454 14.127754
O 120.653629 8.837804 3.546103
O 115.548643 6.817571 0.868565
O 117.880581 7.070815 3.546103
O 122.182647 3.659884 0.868565
O 120.797362 5.552779 3.546103
O 121.600282 10.983943 0.868565
O 120.653629 8.837804 12.307682
O 118.976749 9.046695 1.174636
O 123.809139 6.817571 3.789091
O 115.669246 3.913128 1.039123
O 117.880581 7.070815 12.307682
O 118.538116 5.514149 1.174636
O 118.052399 10.813683 3.789091
O 99.856179 5.216550 1.039123
O 120.797362 5.552779 12.307682
O 121.816707 6.900555 1.174636
O 117.470034 3.830144 3.789091
O 119.024660 12.331719 1.039123
In 99.125951 14.307599 19.180265
In 121.842315 3.576900 25.021317
In 121.842315 10.730699 25.021317
In 101.191075 10.730699 22.100791
In 101.191075 3.576900 22.100791
In 123.768249 10.971782 18.983421
In 117.851256 14.066516 19.377108
In 101.330264 14.066516 22.297634
In 102.084448 1.547367 18.983421
In 102.362826 9.183332 19.377108
In 123.014066 2.029533 22.297634
In 102.084448 1.547367 27.745000
In 121.088131 1.788450 18.983421
In 101.945258 5.365349 19.377108
In 122.596498 12.519149 22.297634
In 121.088131 1.788450 27.745000
In 119.916380 10.489616 22.297634
In 101.051886 7.394882 21.903948
In 121.703125 0.241083 24.824474
In 99.265140 3.335817 19.377108
In 104.427950 12.760232 22.297634
In 104.149571 5.124266 21.903948
In 120.948942 12.760232 19.377108
In 122.596498 5.365349 22.297634
In 116.957883 1.788450 21.903948
In 100.436892 1.788450 24.824474
In 101.945258 12.519149 19.377108
O 123.031000 12.623594 20.211795
O 120.577633 5.260904 25.503788
O 103.354499 0.336229 22.889333
O 123.885135 10.394470 25.639301
O 101.022561 0.082984 20.211795
O 121.016265 8.793450 25.503788
O 121.501982 3.493916 22.889333
O 102.525971 1.937249 25.639301
O 122.887267 1.601020 20.211795
O 105.346930 0.253244 25.503788
O 122.084347 10.477454 22.889333
O 120.529722 1.975879 25.639301
O 99.926393 12.414703 22.583262
O 119.875491 0.336229 19.968807
O 103.233896 3.240671 22.718774
O 101.022561 0.082984 28.973374
O 100.365025 1.639651 22.583262
O 100.850742 10.647715 19.968807
O 119.046963 1.937249 22.718774
O 122.887267 1.601020 28.973374
O 121.867922 0.253244 22.583262
O 101.433107 3.323655 19.968807
O 99.878482 9.129679 22.718774
O 100.002390 1.684004 26.910314
O 102.455757 9.046695 21.618320
O 99.148254 3.913128 21.482808
O 102.017124 5.514149 21.618320
O 101.531407 10.813683 24.232775
O 120.507419 12.370350 21.482808
O 117.686459 14.054354 21.618320
O 100.949042 3.830144 24.232775
O 102.503668 12.331719 21.482808
O 100.002390 1.684004 18.148735
O 123.106997 1.892895 24.538846
O 119.799494 11.066928 24.403334
O 122.010829 14.224615 18.148735
O 122.182647 3.659884 27.153302
O 100.146122 12.706578 18.148735
O 123.154907 5.177920 24.403334
In 111.516695 7.153799 19.180265
In 109.451571 10.730699 25.021317
In 115.646943 7.153799 25.021317
In 109.451571 3.576900 25.021317
In 111.516695 7.153799 27.941844
In 113.581819 3.576900 22.100791
In 107.386447 7.153799 22.100791
In 113.581819 10.730699 22.100791
In 111.377505 3.817983 18.983421
In 105.460512 6.912716 19.377108
In 113.721008 6.912716 22.297634
In 111.377505 3.817983 27.745000
In 114.475191 8.701166 18.983421
In 114.753570 2.029533 19.377108
In 110.623322 9.183332 22.297634
In 108.697388 8.942249 18.983421
In 114.336002 12.519149 19.377108
In 110.205754 5.365349 22.297634
In 107.525636 3.335817 22.297634
In 113.442629 0.241083 21.903948
In 109.312381 7.394882 24.824474
In 111.655884 10.489616 19.377108
In 116.818694 5.606433 22.297634
In 116.540315 12.278066 21.903948
In 112.410067 5.124266 24.824474
In 108.558198 5.606433 19.377108
In 110.205754 12.519149 22.297634
In 104.567140 8.942249 21.903948
In 112.827635 8.942249 24.824474
In 114.336002 5.365349 19.377108
O 110.640256 5.469795 20.211795
O 115.745243 7.490028 22.889333
O 111.494391 3.240671 25.639301
O 113.413305 7.236783 20.211795
O 108.625521 1.639651 25.503788
O 109.111238 10.647715 22.889333
O 114.916715 9.091048 25.639301
O 110.496524 8.754820 20.211795
O 117.737674 7.407044 25.503788
O 109.693603 3.323655 22.889333
O 108.138978 9.129679 25.639301
O 110.640256 5.469795 28.973374
O 112.317137 5.260904 22.583262
O 107.484747 7.490028 19.968807
O 115.624639 10.394470 22.718774
O 113.413305 7.236783 28.973374
O 112.755769 8.793450 22.583262
O 113.241486 3.493916 19.968807
O 106.656219 9.091048 22.718774
O 109.477178 7.407044 22.583262
O 113.823851 10.477454 19.968807
O 112.269226 1.975879 22.718774
O 114.846501 1.892895 21.618320
O 107.288147 6.817571 24.232775
O 111.538998 11.066928 21.482808
O 109.620085 7.070815 26.910314
O 114.407868 12.667948 21.618320
O 113.922151 3.659884 24.232775
O 108.116675 5.216550 21.482808
O 112.536866 5.552779 26.910314
O 105.295715 6.900555 21.618320
O 113.339786 10.983943 24.232775
O 114.894412 5.177920 21.482808
O 112.393133 8.837804 18.148735
O 110.716253 9.046695 24.538846
O 115.548643 6.817571 27.153302
O 107.408750 3.913128 24.403334
O 109.620085 7.070815 18.148735
O 110.277620 5.514149 24.538846
O 116.377171 5.216550 24.403334
O 112.536866 5.552779 18.148735
O 113.556211 6.900555 24.538846
O 109.209538 3.830144 27.153302
In 103.256199 7.153799 25.021317
In 103.256199 7.153799 16.259738
In 105.321323 3.576900 27.941844
In 0.000000 7.153799 27.941844
In 103.117010 3.817983 24.824474
In 121.981504 6.912716 25.218161
In 105.460512 6.912716 28.138687
In 103.117010 3.817983 16.062895
In 106.214695 8.701166 24.824474
In 106.493074 2.029533 25.218161
In 106.214695 8.701166 16.062895
In 100.436892 8.942249 24.824474
In 101.945258 5.365349 28.138687
In 100.436892 8.942249 16.062895
In 99.265140 3.335817 28.138687
In 105.182133 0.241083 27.745000
In 103.395388 10.489616 25.218161
In 108.558198 5.606433 28.138687
In 100.297702 5.606433 25.218161
In 106.075506 5.365349 25.218161
O 102.379760 5.469795 26.052847
O 107.484747 7.490028 28.730386
O 105.152809 7.236783 26.052847
O 102.236028 8.754820 26.052847
O 101.433107 3.323655 28.730386
O 102.379760 5.469795 17.291268
O 104.056641 5.260904 28.424315
O 99.224251 7.490028 25.809859
O 105.152809 7.236783 17.291268
O 104.980990 3.493916 25.809859
O 102.236028 8.754820 17.291268
O 101.216682 7.407044 28.424315
O 105.563355 10.477454 25.809859
O 104.008730 1.975879 28.559827
O 104.132637 8.837804 15.228208
O 106.586005 1.892895 27.459373
O 101.359589 7.070815 15.228208
O 99.856179 5.216550 27.323860
O 104.276370 5.552779 15.228208
O 121.816707 6.900555 27.459373
O 106.633916 5.177920 27.323860
O 104.132637 8.837804 23.989787
O 107.288147 6.817571 15.471196
O 101.359589 7.070815 23.989787
O 101.531407 10.813683 15.471196
O 104.276370 5.552779 23.989787
O 100.949042 3.830144 15.471196
In 115.646943 14.307599 16.259738
In 117.712067 3.576900 27.941844
In 115.507753 10.971782 24.824474
In 115.507753 10.971782 16.062895
In 118.605439 1.547367 24.824474
In 118.883818 9.183332 25.218161
In 114.753570 2.029533 28.138687
In 118.605439 1.547367 16.062895
In 112.827635 1.788450 24.824474
In 118.466250 5.365349 25.218161
In 112.827635 1.788450 16.062895
In 117.572877 7.394882 27.745000
In 115.786132 3.335817 25.218161
In 120.670563 5.124266 27.745000
In 114.336002 5.365349 28.138687
In 108.697388 1.788450 27.745000
O 119.875491 0.336229 28.730386
O 117.543553 0.082984 26.052847
O 113.241486 3.493916 28.730386
O 114.626771 1.601020 26.052847
O 114.770504 12.623594 17.291268
O 111.614995 0.336229 25.809859
O 119.754887 3.240671 28.559827
O 117.543553 0.082984 17.291268
O 116.886017 1.639651 28.424315
O 117.371734 10.647715 25.809859
O 110.786467 1.937249 28.559827
O 114.626771 1.601020 17.291268
O 113.607426 0.253244 28.424315
O 117.954099 3.323655 25.809859
O 116.523381 1.684004 15.228208
O 115.669246 3.913128 27.323860
O 113.750333 14.224615 15.228208
O 118.538116 5.514149 27.459373
O 116.667114 12.706578 15.228208
O 116.523381 1.684004 23.989787
O 119.678891 13.971370 15.471196
O 113.922151 3.659884 15.471196
O 113.339786 10.983943 15.471196
In 105.321323 3.576900 19.180265
In 111.516695 14.307599 19.180265
In 105.321323 10.730699 19.180265
In 109.451571 10.730699 16.259738
In 103.256199 14.307599 16.259738
In 109.451571 3.576900 16.259738
In 109.590760 14.066516 16.456582
In 107.247257 10.971782 21.903948
In 106.493074 2.029533 16.456582
In 110.344943 1.547367 21.903948
In 106.075506 12.519149 16.456582
In 104.567140 1.788450 21.903948
In 103.395388 10.489616 16.456582
In 109.312381 7.394882 16.062895
In 105.182133 0.241083 18.983421
In 112.688446 12.760232 16.456582
In 112.410067 5.124266 16.062895
In 108.279819 12.278066 18.983421
In 106.075506 5.365349 16.456582
In 100.436892 1.788450 16.062895
In 108.697388 1.788450 18.983421
O 104.056641 5.260904 19.662736
O 111.614995 0.336229 17.048280
O 107.364143 10.394470 19.798248
O 104.495273 8.793450 19.662736
O 104.980990 3.493916 17.048280
O 110.786467 1.937249 19.798248
O 113.607426 0.253244 19.662736
O 105.563355 10.477454 17.048280
O 104.008730 1.975879 19.798248
O 106.510008 12.623594 23.132321
O 108.186889 12.414703 16.742209
O 111.494391 3.240671 16.877722
O 109.283057 0.082984 23.132321
O 108.625521 1.639651 16.742209
O 102.525971 1.937249 16.877722
O 106.366276 1.601020 23.132321
O 105.346930 0.253244 16.742209
O 108.138978 9.129679 16.877722
O 108.262885 1.684004 21.069261
O 110.716253 9.046695 15.777267
O 103.157899 13.971370 18.391723
O 107.408750 3.913128 15.641755
O 110.277620 5.514149 15.777267
O 109.791903 10.813683 18.391723
O 103.986427 12.370350 15.641755
O 108.406618 12.706578 21.069261
O 101.165467 14.054354 15.777267
O 109.209538 3.830144 18.391723
O 110.764164 12.331719 15.641755
O 106.586005 1.892895 18.697794
O 111.418395 13.971370 21.312249
O 103.278502 11.066928 18.562281
O 106.147372 12.667948 18.697794
O 105.661655 3.659884 21.312249
O 112.246923 12.370350 18.562281
O 109.425963 14.054354 18.697794
O 105.079290 10.983943 21.312249
O 106.633916 5.177920 18.562281
In 117.712067 10.730699 19.180265
In 123.907439 7.153799 19.180265
In 117.712067 3.576900 19.180265
In 119.777191 7.153799 22.100791
In 121.842315 3.576900 16.259738
In 115.646943 7.153799 16.259738
In 121.842315 10.730699 16.259738
In 121.981504 6.912716 16.456582
In 119.638001 3.817983 21.903948
In 118.883818 9.183332 16.456582
In 122.735687 8.701166 21.903948
In 118.466250 5.365349 16.456582
In 116.957883 8.942249 21.903948
In 115.786132 3.335817 16.456582
In 121.703125 0.241083 16.062895
In 117.572877 7.394882 18.983421
In 100.297702 5.606433 16.456582
In 100.019324 12.278066 16.062895
In 120.670563 5.124266 18.983421
In 118.466250 12.519149 16.456582
In 112.827635 8.942249 16.062895
In 121.088131 8.942249 18.983421
O 116.447385 12.414703 19.662736
O 99.224251 7.490028 17.048280
O 119.754887 3.240671 19.798248
O 116.886017 1.639651 19.662736
O 117.371734 10.647715 17.048280
O 123.177211 9.091048 19.798248
O 101.216682 7.407044 19.662736
O 117.954099 3.323655 17.048280
O 116.399474 9.129679 19.798248
O 118.900752 5.469795 23.132321
O 120.577633 5.260904 16.742209
O 123.885135 10.394470 16.877722
O 121.673801 7.236783 23.132321
O 121.016265 8.793450 16.742209
O 114.916715 9.091048 16.877722
O 118.757019 8.754820 23.132321
O 117.737674 7.407044 16.742209
O 120.529722 1.975879 16.877722
O 120.653629 8.837804 21.069261
O 123.106997 1.892895 15.777267
O 115.548643 6.817571 18.391723
O 119.799494 11.066928 15.641755
O 117.880581 7.070815 21.069261
O 122.668364 12.667948 15.777267
O 122.182647 3.659884 18.391723
O 116.377171 5.216550 15.641755
O 120.797362 5.552779 21.069261
O 113.556211 6.900555 15.777267
O 121.600282 10.983943 18.391723
O 123.154907 5.177920 15.641755
O 118.976749 9.046695 18.697794
O 123.809139 6.817571 21.312249
O 115.669246 3.913128 18.562281
O 118.538116 5.514149 18.697794
O 118.052399 10.813683 21.312249
O 99.856179 5.216550 18.562281
O 121.816707 6.900555 18.697794
O 117.470034 3.830144 21.312249
O 119.024660 12.331719 18.562281
O 66.422058 12.932756 25.404804
H 66.560041 13.499680 26.179696
H 68.001891 11.196407 26.586092
O 3.756278 30.577136 25.778402
H 3.692690 30.074439 26.605537
H 6.147540 31.364444 26.358323
O 98.596809 8.176297 29.698120
H 98.469272 8.422745 30.627581
H 101.698377 8.204956 28.693029
O 37.264027 33.671004 27.941844
H 37.294009 32.985766 28.627737
H 37.550470 31.116057 26.122152
O 78.100741 30.577136 25.778402
H 78.037153 30.074439 26.605537
H 80.492003 31.364444 26.358323
O 16.859082 12.932756 25.404804
H 16.997066 13.499680 26.179696
H 18.438915 11.196407 26.586092
O 105.647515 28.212952 20.927527
H 105.757048 28.061537 21.879355
H 105.709811 26.407517 19.351079
O 42.520300 13.002762 23.848054
H 42.596663 13.173328 24.799881
H 43.692875 14.680001 22.271275
O 56.084539 28.212952 20.927527
H 56.194072 28.061537 21.879355
H 56.146835 26.407517 19.351079
O 122.279763 12.371453 26.256859
H 122.393132 12.796667 27.121290
H 0.320018 10.955394 26.352800
O 83.521782 17.542732 20.453720
H 83.423058 17.905115 21.348053
H 81.531370 16.863448 19.351079
O 21.770044 25.030223 19.882431
H 21.754517 24.432724 20.646404
H 19.787669 25.695584 18.757057
O 56.084539 42.520550 29.689106
H 56.194072 42.369136 30.640934
H 54.241457 2.183970 29.484955
O 111.421151 42.595993 30.014058
H 111.399011 42.520267 30.980844
H 111.068827 2.010130 29.484955
O 93.648711 34.525155 28.957436
H 93.871666 34.138986 29.818867
H 90.431172 34.576615 27.461552
O 21.066740 40.449465 29.865150
H 20.883755 40.225416 30.791011
H 20.642237 0.711932 29.618211
O 108.303270 17.542732 20.453720
H 108.204546 17.905115 21.348053
H 106.312857 16.863448 19.351079
O 80.870626 3.657557 30.014058
H 80.947277 3.676247 30.980844
H 79.022945 2.183970 29.484955
O 68.490887 22.008081 17.690410
H 68.275743 21.623691 18.554618
H 67.537041 24.674535 17.936105
O 29.179234 12.507163 25.786527
H 29.216412 13.091749 26.559688
H 31.717544 11.103101 26.358323
O 118.053863 22.008081 17.690410
H 117.838718 21.623691 18.554618
H 117.100017 24.674535 17.936105
O 68.479882 39.426554 30.014058
H 68.556533 39.445244 30.980844
H 66.632201 37.952966 29.484955
O 93.272375 22.008081 17.690410
H 93.057231 21.623691 18.554618
H 92.318529 24.674535 17.936105
O 38.275611 21.814045 17.581245
H 38.223965 21.456783 18.481577
H 41.065735 22.781953 17.440806
O 8.781607 1.707082 29.689106
H 8.595712 1.687931 30.640934
H 11.942876 2.010130 29.484955
O 54.305100 14.618430 23.099906
H 54.149550 15.134692 23.906242
H 57.385354 13.140278 23.826448
O 45.953839 37.476078 29.689106
H 45.767943 37.456928 30.640934
H 49.115108 37.779127 29.484955
O 120.192691 40.449465 29.865150
H 120.009706 40.225416 30.791011
H 119.768188 0.711932 29.618211
O 13.608565 34.464160 26.768580
H 13.684927 34.634726 27.720408
H 16.086709 34.576615 27.461552
O 33.563095 1.707082 29.689106
H 33.377199 1.687931 30.640934
H 36.724364 2.010130 29.484955
O 103.125293 40.942395 29.865150
H 103.410817 40.895950 30.791011
H 100.579025 38.982133 29.618211
O 31.303052 28.212952 20.927527
H 31.412585 28.061537 21.879355
H 31.365348 26.407517 19.351079
O 90.734549 5.173399 29.865150
H 91.020073 5.126954 30.791011
H 88.188281 3.213137 29.618211
O 115.161348 30.205241 26.204022
H 114.993008 29.734863 27.035470
H 118.497428 31.240291 26.206981
O 14.141438 20.916789 17.275330
H 14.364393 21.302959 18.136762
H 16.284247 22.781953 17.440806
O 46.551531 25.030223 19.882431
H 46.536005 24.432724 20.646404
H 44.569157 25.695584 18.757057
O 43.132356 3.823044 30.014058
H 43.077845 3.880081 30.980844
H 45.332361 2.959699 29.484955
O 71.432036 5.848963 29.689106
H 71.508399 6.019528 30.640934
H 71.801565 7.537967 28.033960
O 9.737872 25.279776 20.520820
H 9.882805 24.955692 21.423518
H 6.583860 26.407517 19.351079
O 84.082335 25.279776 20.520820
H 84.227268 24.955692 21.423518
H 80.928323 26.407517 19.351079
O 33.958806 17.542732 20.453720
H 33.860083 17.905115 21.348053
H 31.968394 16.863448 19.351079
O 95.768584 18.084477 19.391642
H 95.607781 18.678734 20.141243
H 96.228127 20.348711 17.123741
O 63.644279 26.989301 22.836143
H 63.580302 26.481834 23.660330
H 62.501953 30.799167 23.643902
O 4.742124 14.618430 23.099906
H 4.586575 15.134692 23.906242
H 7.822379 13.140278 23.826448
O 76.848514 15.627244 23.670327
H 76.924644 16.023651 24.552350
H 79.514573 17.019194 20.361332
O 63.704413 20.916789 17.275330
H 63.927368 21.302959 18.136762
H 65.847222 22.781953 17.440806
O 21.424121 18.084477 19.391642
H 21.263318 18.678734 20.141243
H 21.883664 20.348711 17.123741
O 82.519864 36.426099 28.831801
H 82.149724 36.126137 29.676739
H 82.504593 38.728696 29.484955
O 25.196988 33.295665 26.944624
H 25.014003 33.071617 27.870485
H 28.160298 34.027287 27.013027
O 97.402623 29.161880 23.531462
H 97.187479 28.777490 24.395671
H 100.815190 29.438733 22.851976
O 62.045515 33.671004 27.941844
H 62.075497 32.985766 28.627737
H 62.331958 31.116057 26.122152
O 111.424899 9.251792 27.941844
H 111.394918 9.937030 28.627737
H 113.761142 7.885309 29.605294
O 49.033833 8.176297 29.698120
H 48.906296 8.422745 30.627581
H 52.135401 8.204956 28.693029
O 44.076341 21.205833 17.891224
H 44.064900 21.591741 18.781080
H 46.665151 20.348711 17.123741
O 21.869060 5.848963 29.689106
H 21.945423 6.019528 30.640934
H 22.238590 7.537967 28.033960
O 115.362349 18.761330 18.183045
H 115.259809 19.031824 19.108906
H 115.615393 20.092179 15.836530
O 5.960125 39.592041 30.014058
H 5.905613 39.649078 30.980844
H 5.819487 36.592532 28.693029
O 30.741612 39.592041 30.014058
H 30.687101 39.649078 30.980844
H 30.600975 36.592532 28.693029
O 78.343805 40.942395 29.865150
H 78.629329 40.895950 30.791011
H 75.797537 38.982133 29.618211
O 105.652114 3.657557 30.014058
H 105.728765 3.676247 30.980844
H 103.804433 2.183970 29.484955
O 61.858175 42.595993 30.014058
H 61.836036 42.520267 30.980844
H 61.505852 2.010130 29.484955
O 58.238971 4.680468 29.865150
H 58.055987 4.456419 30.791011
H 58.255079 8.309845 29.127507
O 112.620075 21.814045 17.581245
H 112.568429 21.456783 18.481577
H 115.410198 22.781953 17.440806
O 107.301352 36.426099 28.831801
H 106.931212 36.126137 29.676739
H 107.286081 38.728696 29.484955
O 86.639663 42.595993 30.014058
H 86.617523 42.520267 30.980844
H 86.287340 2.010130 29.484955
O 15.315270 25.510201 21.009785
H 15.341047 25.187669 21.924230
H 17.689903 25.869917 19.943040
O 37.080436 9.251792 27.941844
H 37.050454 9.937030 28.627737
H 39.416679 7.885309 29.605294
O 72.435417 30.483030 26.231578
H 72.476020 30.038424 27.092727
H 68.934453 31.240291 26.206981
O 121.998393 30.483030 26.231578
H 122.038996 30.038424 27.092727
H 119.540446 29.935752 23.281858
O 89.426231 18.084721 20.405688
H 89.280165 18.552362 21.242872
H 92.658482 16.692545 19.943040
O 117.476820 3.823044 30.014058
H 117.422308 3.880081 30.980844
H 119.676824 2.959699 29.484955
O 5.465353 8.372903 29.372515
H 5.240034 8.751419 30.236724
H 8.692103 8.309845 29.127507
O 101.802689 17.629642 20.070222
H 101.727985 18.100173 20.915160
H 104.296061 17.019194 20.361332
O 123.622845 4.453732 29.865150
H 123.520305 4.724225 30.791011
H 2.686177 3.228730 29.618211
O 95.411203 40.449465 29.865150
H 95.228218 40.225416 30.791011
H 94.986700 0.711932 29.618211
O 77.918264 25.012111 20.117267
H 78.130164 24.502469 20.914929
H 77.682840 22.424479 17.985395
O 3.573801 25.012111 20.117267
H 3.785701 24.502469 20.914929
H 3.338377 22.424479 17.985395
O 40.816885 30.205241 26.204022
H 40.648545 29.734863 27.035470
H 44.152965 31.240291 26.206981
O 16.390085 5.173399 29.865150
H 16.675610 5.126954 30.791011
H 13.843818 3.213137 29.618211
O 65.953061 5.173399 29.865150
H 66.238585 5.126954 30.791011
H 63.406794 3.213137 29.618211
O 89.659733 25.510201 21.009785
H 89.685510 25.187669 21.924230
H 92.034366 25.869917 19.943040
O 19.304248 34.525155 28.957436
H 19.527203 34.138986 29.818867
H 17.069226 37.952966 29.484955
O 27.458226 17.629642 20.070222
H 27.383522 18.100173 20.915160
H 29.951598 17.019194 20.361332
O 11.258221 13.664291 24.048867
H 11.301253 13.940481 24.977720
H 12.851030 14.532294 21.872826
O 48.206589 14.052034 23.732277
H 48.195148 14.437942 24.622133
H 45.401178 12.938380 21.677583
O 115.985033 12.932756 25.404804
H 116.123017 13.499680 26.179696
H 117.564866 11.196407 26.586092
O 60.821197 13.664291 24.048867
H 60.864228 13.940481 24.977720
H 62.414005 14.532294 21.872826
O 70.987097 18.084477 19.391642
H 70.826294 18.678734 20.141243
H 71.446639 20.348711 17.123741
O 120.550072 18.084477 19.391642
H 120.389269 18.678734 20.141243
H 121.009615 20.348711 17.123741
O 23.153812 12.371453 26.256859
H 23.267181 12.796667 27.121290
H 25.101506 10.955394 26.352800
O 84.877305 12.528350 26.086920
H 84.932431 13.006566 26.929043
H 83.153193 9.337769 26.564428
O 11.449002 38.686756 29.889920
H 11.188299 38.585928 30.818773
H 15.076921 38.997727 29.618211
O 103.523697 12.507163 25.786527
H 103.560875 13.091749 26.559688
H 106.062007 11.103101 26.358323
O 72.716788 12.371453 26.256859
H 72.830156 12.796667 27.121290
H 74.664481 10.955394 26.352800
O 83.987949 31.116601 26.691049
H 83.821660 30.854421 27.610021
H 87.113445 31.116057 26.122152
O 108.769436 31.116601 26.691049
H 108.603148 30.854421 27.610021
H 111.894933 31.116057 26.122152
O 91.203546 12.932756 25.404804
H 91.341529 13.499680 26.179696
H 92.783379 11.196407 26.586092
O 36.196400 28.211622 22.655906
H 36.251310 27.664833 23.455222
H 37.720465 30.799167 23.643902
O 99.599287 34.066084 29.075882
H 99.723865 33.617889 29.927059
H 101.676372 35.258029 28.805846
O 49.978475 33.295665 26.944624
H 49.795491 33.071617 27.870485
H 52.941785 34.027287 27.013027
O 32.911077 33.788596 26.944624
H 33.196602 33.742151 27.870485
H 30.929027 31.364444 26.358323
O 57.692565 33.788596 26.944624
H 57.978089 33.742151 27.870485
H 55.710515 31.364444 26.358323
