LAMMPS data file Created by LigParGen - (Written by Leela S. Dodda)

      45 atoms
      47 bonds
      83 angles
     120 dihedrals
      27 impropers
 
      45 atom types
      47 bond types
      83 angle types
     120 dihedral types
      27 improper types
 
   -7.038920    42.961080 xlo xhi
    0.009970    50.009970 ylo yhi
   -6.267640    43.732360 zlo zhi

Masses

       1     12.011  
       2     12.011  
       3     12.011  
       4     12.011  
       5     12.011  
       6     12.011  
       7     12.011  
       8     12.011  
       9     12.011  
      10     12.011  
      11     12.011  
      12     12.011  
      13     12.011  
      14     14.007  
      15     12.011  
      16     12.011  
      17     12.011  
      18     12.011  
      19     30.974  
      20     15.999  
      21     15.999  
      22     15.999  
      23      1.008  
      24      1.008  
      25      1.008  
      26      1.008  
      27      1.008  
      28      1.008  
      29      1.008  
      30      1.008  
      31      1.008  
      32      1.008  
      33      1.008  
      34      1.008  
      35      1.008  
      36      1.008  
      37      1.008  
      38      1.008  
      39      1.008  
      40      1.008  
      41      1.008  
      42     12.011  
      43      1.008  
      44      1.008  
      45      1.008  

Pair Coeffs 

       1      0.066  3.5000000 
       2      0.070  3.5500000 
       3      0.070  3.5500000 
       4      0.070  3.5500000 
       5      0.080  3.5000000 
       6      0.070  3.5500000 
       7      0.070  3.5500000 
       8      0.070  3.5500000 
       9      0.070  3.5500000 
      10      0.070  3.5500000 
      11      0.070  3.5500000 
      12      0.070  3.5500000 
      13      0.080  3.5000000 
      14      0.170  3.2500000 
      15      0.066  3.5000000 
      16      0.066  3.5000000 
      17      0.066  3.5000000 
      18      0.066  3.5000000 
      19      0.200  3.7400000 
      20      0.210  2.9600000 
      21      0.170  3.1200000 
      22      0.170  3.1200000 
      23      0.030  2.5000000 
      24      0.030  2.5000000 
      25      0.030  2.5000000 
      26      0.030  2.4200000 
      27      0.030  2.4200000 
      28      0.030  2.4200000 
      29      0.030  2.4200000 
      30      0.030  2.4200000 
      31      0.030  2.5000000 
      32      0.030  2.5000000 
      33      0.030  2.5000000 
      34      0.030  2.5000000 
      35      0.030  2.5000000 
      36      0.030  2.5000000 
      37      0.030  2.5000000 
      38      0.030  2.5000000 
      39      0.000  0.0000000 
      40      0.000  0.0000000 
      41      0.030  2.4200000 
      42      0.066  3.5000000 
      43      0.030  2.5000000 
      44      0.030  2.5000000 
      45      0.030  2.5000000 

Bond Coeffs 

       1   317.0000     1.5100 
       2   469.0000     1.4000 
       3   469.0000     1.4000 
       4   469.0000     1.4040 
       5   469.0000     1.4240 
       6   469.0000     1.4000 
       7   469.0000     1.4240 
       8   469.0000     1.4000 
       9   469.0000     1.4000 
      10   469.0000     1.4000 
      11   469.0000     1.4000 
      12   469.0000     1.4240 
      13   436.0000     1.3740 
      14   337.0000     1.4750 
      15   268.0000     1.5290 
      16   268.0000     1.5290 
      17   268.0000     1.5290 
      18   212.0000     1.8430 
      19   525.0000     1.4800 
      20   230.0000     1.6100 
      21   230.0000     1.6100 
      22   340.0000     1.0900 
      23   340.0000     1.0900 
      24   340.0000     1.0900 
      25   367.0000     1.0800 
      26   367.0000     1.0800 
      27   367.0000     1.0800 
      28   367.0000     1.0800 
      29   367.0000     1.0800 
      30   340.0000     1.0900 
      31   340.0000     1.0900 
      32   340.0000     1.0900 
      33   340.0000     1.0900 
      34   340.0000     1.0900 
      35   340.0000     1.0900 
      36   340.0000     1.0900 
      37   340.0000     1.0900 
      38   553.0000     0.9450 
      39   553.0000     0.9450 
      40   367.0000     1.0800 
      41   317.0000     1.5100 
      42   340.0000     1.0900 
      43   340.0000     1.0900 
      44   340.0000     1.0900 
      45   469.0000     1.4000 
      46   469.0000     1.4040 
      47   436.0000     1.3740 

Angle Coeffs 

       1     70.000    120.000
       2     63.000    120.000
       3     63.000    120.000
       4     85.000    134.900
       5     70.000    120.000
       6     70.000    107.300
       7     63.000    120.000
       8     63.000    120.000
       9     63.000    120.000
      10     63.000    120.000
      11     70.000    107.300
      12     70.000    108.700
      13     70.000    125.800
      14     51.650    110.580
      15     58.350    112.700
      16     58.350    112.700
      17     43.000    109.500
      18     45.000    109.500
      19     63.570    108.400
      20     63.570    108.400
      21     35.000    109.500
      22     35.000    109.500
      23     35.000    109.500
      24     35.000    120.000
      25     35.000    120.000
      26     35.000    120.000
      27     35.000    120.000
      28     35.000    120.000
      29     35.000    109.500
      30     35.000    109.500
      31     37.500    110.700
      32     37.500    110.700
      33     37.500    110.700
      34     37.500    110.700
      35     37.500    110.700
      36     37.500    110.700
      37     55.000    108.500
      38     55.000    108.500
      39     35.000    120.000
      40     70.000    120.000
      41     35.000    109.500
      42     35.000    109.500
      43     35.000    109.500
      44     70.000    125.800
      45    100.000    108.230
      46     35.000    120.000
      47     37.500    110.700
      48     33.000    107.800
      49     37.500    110.700
      50     35.000    120.000
      51     70.000    107.700
      52     63.000    120.000
      53     33.000    107.800
      54     37.500    110.700
      55     33.000    107.800
      56     37.500    110.700
      57    100.000    108.230
      58     63.000    120.000
      59     33.000    107.800
      60     85.000    134.900
      61     33.000    107.800
      62     63.000    120.000
      63     41.000    109.500
      64     33.000    107.800
      65     41.000    109.500
      66     37.500    110.700
      67     70.000    108.700
      68     37.500    110.700
      69     35.000    120.000
      70     70.000    107.700
      71     63.000    120.000
      72     33.000    107.800
      73     35.000    120.000
      74     45.000    102.600
      75     33.000    107.800
      76     33.000    107.800
      77     63.000    120.000
      78     70.000    120.000
      79     63.000    120.000
      80     35.000    120.000
      81     35.000    120.000
      82     70.000    125.200
      83     33.000    107.800

Dihedral Coeffs  

       1      0.000      7.250      0.000      0.000 
       2      0.000      7.250      0.000      0.000 
       3      0.000      7.000      0.000      0.000 
       4      0.000      2.170      0.000      0.000 
       5      0.000      2.170      0.000      0.000 
       6      0.000      7.250      0.000      0.000 
       7      0.000      7.250      0.000      0.000 
       8      1.000     -0.350      0.000      0.000 
       9      2.392     -0.674      0.550      0.000 
      10      1.300     -0.200      0.200      0.000 
      11      0.845     -0.962      0.713      0.000 
      12      2.250      0.000      0.000      0.000 
      13      0.000      0.000      0.000      0.000 
      14      1.500      5.500      0.000      0.000 
      15      1.500      5.500      0.000      0.000 
      16      0.000      0.000      0.000      0.000 
      17      2.250      0.000      0.000      0.000 
      18      0.000      0.000      0.000      0.000 
      19      0.000      7.250      0.000      0.000 
      20      0.000      7.250      0.000      0.000 
      21      0.000      7.250      0.000      0.000 
      22      0.000      0.000      0.300      0.000 
      23      0.000      7.250      0.000      0.000 
      24      0.000      0.000      0.300      0.000 
      25      0.000      0.000      0.000      0.000 
      26      0.000      0.000      0.250      0.000 
      27      0.000      2.170      0.000      0.000 
      28      0.000      7.250      0.000      0.000 
      29      0.000      7.250      0.000      0.000 
      30      0.000      7.250      0.000      0.000 
      31      0.000      7.250      0.000      0.000 
      32      0.000      0.000      0.300      0.000 
      33      0.000      7.250      0.000      0.000 
      34      0.000      7.250      0.000      0.000 
      35      0.000      7.250      0.000      0.000 
      36      0.000      0.000      0.300      0.000 
      37      0.000      7.250      0.000      0.000 
      38      0.000      7.250      0.000      0.000 
      39      0.000      0.000      0.000      0.000 
      40      0.000      0.000      0.300      0.000 
      41      0.000      0.000      0.300      0.000 
      42      0.000      0.000      0.300      0.000 
      43      0.000      0.000      0.000      0.000 
      44      0.000      0.000      0.300      0.000 
      45      0.000      0.000      0.000      0.000 
      46      0.000      0.000      0.300      0.000 
      47      0.000      0.000      0.300      0.000 
      48      0.000      7.250      0.000      0.000 
      49      0.000      7.250      0.000      0.000 
      50      0.000      7.250      0.000      0.000 
      51      0.000      2.170      0.000      0.000 
      52      0.000      0.000      0.300      0.000 
      53      0.000      7.000      0.000      0.000 
      54      0.000      0.000      0.300      0.000 
      55      0.000      7.250      0.000      0.000 
      56      2.250      0.000      0.000      0.000 
      57      0.000      0.000      0.300      0.000 
      58      0.000      7.250      0.000      0.000 
      59      0.000      7.250      0.000      0.000 
      60      0.000      0.000      0.300      0.000 
      61      0.000      7.250      0.000      0.000 
      62      0.000      0.000      0.000      0.000 
      63      0.000      0.000      0.000      0.000 
      64      0.000      7.250      0.000      0.000 
      65      0.000      0.000      0.300      0.000 
      66      0.000      7.250      0.000      0.000 
      67      0.000      0.000      0.000      0.000 
      68      0.000      7.000      0.000      0.000 
      69      0.000      0.000      0.000      0.000 
      70     -1.013     -0.709      0.473      0.000 
      71     -1.013     -0.709      0.473      0.000 
      72      0.000      7.250      0.000      0.000 
      73      0.000      0.000      0.250      0.000 
      74      0.000      0.000      0.300      0.000 
      75      0.000      0.000      0.000      0.000 
      76      0.000      7.250      0.000      0.000 
      77      0.000      0.000      0.000      0.000 
      78      0.000      0.000      0.000      0.000 
      79      0.000      0.000      0.000      0.000 
      80      0.000      7.250      0.000      0.000 
      81      0.000      7.250      0.000      0.000 
      82      0.000      7.250      0.000      0.000 
      83      0.000      7.250      0.000      0.000 
      84      0.000      7.250      0.000      0.000 
      85      0.000      7.250      0.000      0.000 
      86      0.000      0.000      0.300      0.000 
      87      0.000      0.000      0.000      0.000 
      88      0.000      0.000      0.000      0.000 
      89      0.000      0.000      0.300      0.000 
      90      0.000      7.250      0.000      0.000 
      91      0.000      7.250      0.000      0.000 
      92      0.000      0.000      0.300      0.000 
      93      0.000      2.170      0.000      0.000 
      94      0.000      0.000      0.000      0.000 
      95      0.000      7.250      0.000      0.000 
      96      0.000      0.000      0.300      0.000 
      97      0.000      7.250      0.000      0.000 
      98      0.000      7.250      0.000      0.000 
      99      0.000      7.250      0.000      0.000 
     100      0.000      7.000      0.000      0.000 
     101      0.000      0.000      0.250      0.000 
     102      0.000      0.000      0.250      0.000 
     103      0.000      0.000      0.250      0.000 
     104      0.000      7.250      0.000      0.000 
     105      0.000      0.000      0.250      0.000 
     106      0.000      0.000      0.000      0.000 
     107      0.000      7.250      0.000      0.000 
     108      1.000     -0.350      0.000      0.000 
     109      0.000      7.250      0.000      0.000 
     110      0.000      2.170      0.000      0.000 
     111      0.000      7.250      0.000      0.000 
     112      0.000      2.170      0.000      0.000 
     113      0.000      0.000      0.300      0.000 
     114      0.000      0.000      0.300      0.000 
     115      0.000      7.250      0.000      0.000 
     116      0.000      0.000      0.000      0.000 
     117      0.000      7.250      0.000      0.000 
     118      0.000      7.250      0.000      0.000 
     119      0.000      2.170      0.000      0.000 
     120      0.000      7.250      0.000      0.000 

Improper Coeffs 

       1      2.500      -1       2 
       2      2.500      -1       2 
       3      2.500      -1       2 
       4      2.500      -1       2 
       5      0.000      -1       2 
       6      0.000      -1       2 
       7      0.000      -1       2 
       8      0.000      -1       2 
       9      0.000      -1       2 
      10      2.500      -1       2 
      11      2.500      -1       2 
      12      2.500      -1       2 
      13      2.500      -1       2 
      14      2.500      -1       2 
      15      0.000      -1       2 
      16      0.000      -1       2 
      17      0.000      -1       2 
      18      0.000      -1       2 
      19      0.000      -1       2 
      20      0.000      -1       2 
      21      0.000      -1       2 
      22      0.000      -1       2 
      23      2.500      -1       2 
      24      2.500      -1       2 
      25      0.000      -1       2 
      26      0.000      -1       2 
      27      2.500      -1       2 

Atoms 

     1      1      1 -0.18860000    1.000  1.00000  0.00000
     2      1      2 -0.12890000   -0.510  1.00000  0.00000
     3      1      3 -0.13430000   -1.215  1.00000  1.22261
     4      1      4 -0.18370000   -2.605  0.99851  1.28116
     5      1      5 0.12130000   -3.310  0.99698  0.07626
     6      1      6 -0.08790000   -2.624  0.99695 -1.16527
     7      1      7 -0.08290000   -1.233  0.99849 -1.19220
     8      1      8 -0.09000000   -3.635  1.05874 -2.19432
     9      1      9 -0.07890000   -3.582  1.08812 -3.59099
    10      1     10 -0.11530000   -4.757  1.15125 -4.33227
    11      1     11 -0.11230000   -5.989  1.18441 -3.64558
    12      1     12 -0.17390000   -6.071  1.15644 -2.25976
    13      1     13 0.13810000   -4.886  1.09336 -1.53069
    14      1     14 -0.48860000   -4.681  1.04442 -0.15342
    15      1     15 0.07380000   -5.679  1.35859  0.86146
    16      1     16 -0.22710000   -5.439  2.71305  1.55281
    17      1     17 -0.15200000   -5.158  3.86604  0.57639
    18      1     18 -0.85480000   -4.477  5.07583  1.23694
    19      1     19 2.94740000   -2.797  4.72648  1.83204
    20      1     20 -1.26780000   -2.649  3.83297  3.00991
    21      1     21 -1.07260000   -1.986  4.21229  0.53016
    22      1     22 -1.05690000   -2.256  6.23824  2.03882
    23      1     23 0.09120000    1.402  1.70366  0.73473
    24      1     24 0.09120000    1.402  1.27460 -0.97766
    25      1     25 0.09120000    1.395  0.00997  0.25306
    26      1     26 0.15990000   -0.656  1.00240  2.15360
    27      1     27 0.17860000   -3.102  1.04173  2.24090
    28      1     28 0.15420000   -0.708  0.99972 -2.14309
    29      1     29 0.15200000   -2.620  1.06264 -4.09454
    30      1     30 0.15250000   -7.039  1.18238 -1.77222
    31      1     31 0.11290000   -5.693  0.55967  1.60989
    32      1     32 0.11290000   -6.653  1.34582  0.37149
    33      1     33 0.11610000   -6.317  2.94195  2.16710
    34      1     34 0.11610000   -4.608  2.61773  2.25238
    35      1     35 0.10660000   -4.521  3.52036 -0.24049
    36      1     36 0.10660000   -6.091  4.19683  0.10910
    37      1     37 0.14310000   -4.391  5.90284  0.52762
    38      1     38 0.14310000   -5.046  5.44134  2.09710
    39      1     39 0.48780000   -1.695  3.28832  0.59211
    40      1     40 0.47060000   -1.444  6.28830  2.55799
    41      1     41 0.14690000   -6.907  1.23253 -4.22363
    42      1     42 -0.18860000   -4.735  1.18275 -5.84188
    43      1     43 0.09030000   -5.220  0.29816 -6.26764
    44      1     44 0.09030000   -5.265  2.05803 -6.23141
    45      1     45 0.09030000   -3.714  1.21465 -6.22744

Bonds 

     1      1      2      1
     2      2      3      2
     3      3      4      3
     4      4      5      4
     5      5      6      5
     6      6      7      2
     7      7      8      6
     8      8      9      8
     9      9     10      9
    10     10     11     10
    11     11     12     11
    12     12     13      8
    13     13     14      5
    14     14     15     14
    15     15     16     15
    16     16     17     16
    17     17     18     17
    18     18     19     18
    19     19     20     19
    20     20     21     19
    21     21     22     19
    22     22     23      1
    23     23     24      1
    24     24     25      1
    25     25     26      3
    26     26     27      4
    27     27     28      7
    28     28     29      9
    29     29     30     12
    30     30     31     15
    31     31     32     15
    32     32     33     16
    33     33     34     16
    34     34     35     17
    35     35     36     17
    36     36     37     18
    37     37     38     18
    38     38     39     21
    39     39     40     22
    40     40     41     11
    41     41     42     10
    42     42     43     42
    43     43     44     42
    44     44     45     42
    45     45      7      6
    46     46     13     12
    47     47     14     13

Angles 

     1      1      1      2      3
     2      2      2      3      4
     3      3      3      4      5
     4      4      4      5      6
     5      5      1      2      7
     6      6      5      6      8
     7      7      6      8      9
     8      8      8      9     10
     9      9      9     10     11
    10     10     10     11     12
    11     11      6      8     13
    12     12      4      5     14
    13     13      5     14     15
    14     14     14     15     16
    15     15     15     16     17
    16     16     16     17     18
    17     17     17     18     19
    18     18     18     19     20
    19     19     18     19     21
    20     20     18     19     22
    21     21      2      1     23
    22     22      2      1     24
    23     23      2      1     25
    24     24      2      3     26
    25     25      3      4     27
    26     26      2      7     28
    27     27      8      9     29
    28     28     11     12     30
    29     29     14     15     31
    30     30     14     15     32
    31     31     15     16     33
    32     32     15     16     34
    33     33     16     17     35
    34     34     16     17     36
    35     35     17     18     37
    36     36     17     18     38
    37     37     19     21     39
    38     38     19     22     40
    39     39     10     11     41
    40     40      9     10     42
    41     41     10     42     43
    42     42     10     42     44
    43     43     10     42     45
    44     44     13     14     15
    45     45     20     19     21
    46     46     12     11     41
    47     47     16     15     32
    48     48     44     42     45
    49     49     17     16     34
    50     50     10      9     29
    51     51      6      5     14
    52     52      2      7      6
    53     53     43     42     45
    54     54     18     17     36
    55     55     23      1     25
    56     56     16     15     31
    57     57     20     19     22
    58     58      5      6      7
    59     59     31     15     32
    60     60      8     13     12
    61     61     23      1     24
    62     62      9      8     13
    63     63     19     18     37
    64     64     33     16     34
    65     65     19     18     38
    66     66     18     17     35
    67     67     12     13     14
    68     68     17     16     33
    69     69     13     12     30
    70     70      8     13     14
    71     71      7      6      8
    72     72     43     42     44
    73     73      6      7     28
    74     74     21     19     22
    75     75     35     17     36
    76     76     37     18     38
    77     77      3      2      7
    78     78     11     10     42
    79     79     11     12     13
    80     80      5      4     27
    81     81      4      3     26
    82     82      5     14     13
    83     83     24      1     25

Dihedrals

     1      1      4      3      2      1 
     2      2      5      4      3      2 
     3      3      6      5      4      3 
     4      4      9      8      6      5 
     5      5     10      9      8      6 
     6      6     11     10      9      8 
     7      7     12     11     10      9 
     8      8     16     15     14      5 
     9      9     17     16     15     14 
    10     10     18     17     16     15 
    11     11     19     18     17     16 
    12     12     20     19     18     17 
    13     13     23      1      2      3 
    14     14     39     21     19     18 
    15     15     40     22     19     18 
    16     16     43     42     10      9 
    17     17     21     19     18     17 
    18     18     40     22     19     20 
    19     19     15     14     13      8 
    20     20     13     14      5      4 
    21     21     28      7      2      1 
    22     22     38     18     17     16 
    23     23      6      7      2      1 
    24     24     35     17     18     19 
    25     25     39     21     19     20 
    26     26     37     18     19     20 
    27     27      8      6      7      2 
    28     28     28      7      6      8 
    29     29     26      3      2      7 
    30     30      8      6      5      4 
    31     31     13      8      9     10 
    32     32     38     18     17     36 
    33     33     14     13      8      9 
    34     34     14      5      6      7 
    35     35     29      9      8     13 
    36     36     35     17     16     33 
    37     37     26      3      2      1 
    38     38     28      7      6      5 
    39     39     44     42     10      9 
    40     40     35     17     16     34 
    41     41     34     16     15     31 
    42     42     33     16     15     32 
    43     43     44     42     10     11 
    44     44     36     17     16     33 
    45     45     32     15     14     13 
    46     46     36     17     16     15 
    47     47     32     15     16     17 
    48     48     15     14      5      6 
    49     49     12     13      8      6 
    50     50     13     14      5      6 
    51     51      9      8      6      7 
    52     52     37     18     17     16 
    53     53     11     12     13      8 
    54     54     33     16     17     18 
    55     55     27      4      5     14 
    56     56     22     19     18     17 
    57     57     31     15     16     17 
    58     58     30     12     13     14 
    59     59     26      3      4      5 
    60     60     36     17     18     19 
    61     61     29      9     10     11 
    62     62     23      1      2      7 
    63     63     25      1      2      7 
    64     64     27      4      5      6 
    65     65     38     18     17     35 
    66     66      7      2      3      4 
    67     67     24      1      2      3 
    68     68     14     13     12     11 
    69     69     43     42     10     11 
    70     70     33     16     15     14 
    71     71     34     16     15     14 
    72     72     42     10      9     29 
    73     73     38     18     19     22 
    74     74     37     18     17     35 
    75     75     24      1      2      7 
    76     76     27      4      3     26 
    77     77     32     15     14      5 
    78     78     45     42     10      9 
    79     79     25      1      2      3 
    80     80     42     10     11     41 
    81     81     30     12     11     10 
    82     82     27      4      3      2 
    83     83      8     13     14      5 
    84     84     29      9      8      6 
    85     85     28      7      2      3 
    86     86     34     16     15     32 
    87     87     39     21     19     22 
    88     88     40     22     19     21 
    89     89     34     16     17     18 
    90     90     41     11     12     30 
    91     91      5      6      7      2 
    92     92     36     17     16     34 
    93     93     14     13      8      6 
    94     94     31     15     14     13 
    95     95     15     14      5      4 
    96     96     35     17     16     15 
    97     97     15     14     13     12 
    98     98     13     12     11     10 
    99     99     42     10      9      8 
   100    100     14      5      4      3 
   101    101     37     18     19     21 
   102    102     38     18     19     20 
   103    103     37     18     19     22 
   104    104      6      7      2      3 
   105    105     38     18     19     21 
   106    106     31     15     14      5 
   107    107     12     13     14      5 
   108    108     16     15     14     13 
   109    109     42     10     11     12 
   110    110     14      5      6      8 
   111    111     30     12     13      8 
   112    112     13      8      6      7 
   113    113     33     16     15     31 
   114    114     37     18     17     36 
   115    115      7      6      5      4 
   116    116     45     42     10     11 
   117    117     12     13      8      9 
   118    118     41     11     10      9 
   119    119     13      8      6      5 
   120    120     41     11     12     13 

Impropers

     1      1      2      1      3      7 
     2      2      6      5      7      8 
     3      3      8      9     13      6 
     4      4      5      4     14      6 
     5      5     14     13      5     15 
     6      6     19     18     20     21 
     7      7     19     18     20     22 
     8      8      1      2     23     24 
     9      9      1     25     23      2 
    10     10      3     26      4      2 
    11     11      4     27      5      3 
    12     12      7      2     28      6 
    13     13      9     10     29      8 
    14     14     12     11     13     30 
    15     15     15     16     31     14 
    16     16     15     16     14     32 
    17     17     16     33     17     15 
    18     18     16     17     34     15 
    19     19     17     18     35     16 
    20     20     17     18     36     16 
    21     21     18     17     19     37 
    22     22     18     17     19     38 
    23     23     11     41     10     12 
    24     24     10      9     42     11 
    25     25     42     43     44     10 
    26     26     42     43     45     10 
    27     27     13     12     14      8 

