12960
Exact geometry from tested pure-NiO LAMMPS asset
Ni 0.0 0.0 0.0
Ni 2.085 2.085 0.0
Ni 2.085 0.0 2.085
Ni 0.0 2.085 2.085
Ni 0.0 0.0 4.169999999999999
Ni 2.085 2.085 4.169999999999999
Ni 2.085 0.0 6.254999999999999
Ni 0.0 2.085 6.254999999999999
Ni 0.0 0.0 8.339999999999998
Ni 2.085 2.085 8.339999999999998
Ni 2.085 0.0 10.424999999999997
Ni 0.0 2.085 10.424999999999997
Ni 0.0 0.0 12.509999999999998
Ni 2.085 2.085 12.509999999999998
Ni 2.085 0.0 14.594999999999997
Ni 0.0 2.085 14.594999999999997
Ni 0.0 0.0 16.679999999999996
Ni 2.085 2.085 16.679999999999996
Ni 2.085 0.0 18.764999999999997
Ni 0.0 2.085 18.764999999999997
Ni 0.0 0.0 20.849999999999994
Ni 2.085 2.085 20.849999999999994
Ni 2.085 0.0 22.934999999999995
Ni 0.0 2.085 22.934999999999995
Ni 0.0 0.0 25.019999999999996
Ni 2.085 2.085 25.019999999999996
Ni 2.085 0.0 27.104999999999997
Ni 0.0 2.085 27.104999999999997
Ni 0.0 4.170000000000001 0.0
Ni 2.085 6.255000000000002 0.0
Ni 2.085 4.170000000000001 2.085
Ni 0.0 6.255000000000002 2.085
Ni 0.0 4.170000000000001 4.169999999999999
Ni 2.085 6.255000000000002 4.169999999999999
Ni 2.085 4.170000000000001 6.254999999999999
Ni 0.0 6.255000000000002 6.254999999999999
Ni 0.0 4.170000000000001 8.339999999999998
Ni 2.085 6.255000000000002 8.339999999999998
Ni 2.085 4.170000000000001 10.424999999999997
Ni 0.0 6.255000000000002 10.424999999999997
Ni 0.0 4.170000000000001 12.509999999999998
Ni 2.085 6.255000000000002 12.509999999999998
Ni 2.085 4.170000000000001 14.594999999999997
Ni 0.0 6.255000000000002 14.594999999999997
Ni 0.0 4.170000000000001 16.679999999999996
Ni 2.085 6.255000000000002 16.679999999999996
Ni 2.085 4.170000000000001 18.764999999999997
Ni 0.0 6.255000000000002 18.764999999999997
Ni 0.0 4.170000000000001 20.849999999999994
Ni 2.085 6.255000000000002 20.849999999999994
Ni 2.085 4.170000000000001 22.934999999999995
Ni 0.0 6.255000000000002 22.934999999999995
Ni 0.0 4.170000000000001 25.019999999999996
Ni 2.085 6.255000000000002 25.019999999999996
Ni 2.085 4.170000000000001 27.104999999999997
Ni 0.0 8.340000000000002 0.0
Ni 2.085 10.425 0.0
Ni 2.085 8.340000000000002 2.085
Ni 0.0 10.425 2.085
Ni 0.0 8.340000000000002 4.169999999999999
Ni 2.085 10.425 4.169999999999999
Ni 2.085 8.340000000000002 6.254999999999999
Ni 0.0 10.425 6.254999999999999
Ni 0.0 8.340000000000002 8.339999999999998
Ni 2.085 10.425 8.339999999999998
Ni 2.085 8.340000000000002 10.424999999999997
Ni 0.0 10.425 10.424999999999997
Ni 0.0 8.340000000000002 12.509999999999998
Ni 2.085 10.425 12.509999999999998
Ni 2.085 8.340000000000002 14.594999999999997
Ni 0.0 10.425 14.594999999999997
Ni 0.0 8.340000000000002 16.679999999999996
Ni 2.085 10.425 16.679999999999996
Ni 2.085 8.340000000000002 18.764999999999997
Ni 0.0 10.425 18.764999999999997
Ni 0.0 8.340000000000002 20.849999999999994
Ni 2.085 10.425 20.849999999999994
Ni 2.085 8.340000000000002 22.934999999999995
Ni 0.0 12.510000000000003 0.0
Ni 2.085 14.595000000000002 0.0
Ni 2.085 12.510000000000003 2.085
Ni 0.0 14.595000000000002 2.085
Ni 0.0 12.510000000000003 4.169999999999999
Ni 2.085 14.595000000000002 4.169999999999999
Ni 2.085 12.510000000000003 6.254999999999999
Ni 0.0 14.595000000000002 6.254999999999999
Ni 0.0 12.510000000000003 8.339999999999998
Ni 2.085 14.595000000000002 8.339999999999998
Ni 2.085 12.510000000000003 10.424999999999997
Ni 0.0 14.595000000000002 10.424999999999997
Ni 0.0 12.510000000000003 12.509999999999998
Ni 2.085 14.595000000000002 12.509999999999998
Ni 2.085 12.510000000000003 14.594999999999997
Ni 0.0 14.595000000000002 14.594999999999997
Ni 0.0 12.510000000000003 16.679999999999996
Ni 2.085 14.595000000000002 16.679999999999996
Ni 2.085 12.510000000000003 18.764999999999997
Ni 0.0 16.680000000000003 0.0
Ni 2.085 18.765000000000004 0.0
Ni 2.085 16.680000000000003 2.085
Ni 0.0 18.765000000000004 2.085
Ni 0.0 16.680000000000003 4.169999999999999
Ni 2.085 18.765000000000004 4.169999999999999
Ni 2.085 16.680000000000003 6.254999999999999
Ni 0.0 18.765000000000004 6.254999999999999
Ni 0.0 16.680000000000003 8.339999999999998
Ni 2.085 18.765000000000004 8.339999999999998
Ni 2.085 16.680000000000003 10.424999999999997
Ni 0.0 18.765000000000004 10.424999999999997
Ni 0.0 16.680000000000003 12.509999999999998
Ni 2.085 18.765000000000004 12.509999999999998
Ni 2.085 16.680000000000003 14.594999999999997
Ni 0.0 20.849999999999998 0.0
Ni 2.085 22.935000000000002 0.0
Ni 2.085 20.849999999999998 2.085
Ni 0.0 22.935000000000002 2.085
Ni 0.0 20.849999999999998 4.169999999999999
Ni 2.085 22.935000000000002 4.169999999999999
Ni 2.085 20.849999999999998 6.254999999999999
Ni 0.0 22.935000000000002 6.254999999999999
Ni 0.0 20.849999999999998 8.339999999999998
Ni 2.085 22.935000000000002 8.339999999999998
Ni 2.085 20.849999999999998 10.424999999999997
Ni 0.0 22.935000000000002 10.424999999999997
Ni 2.085 22.935000000000002 12.509999999999998
Ni 0.0 25.020000000000007 0.0
Ni 2.085 27.105000000000008 0.0
Ni 2.085 25.020000000000007 2.085
Ni 0.0 27.105000000000008 2.085
Ni 0.0 25.020000000000007 4.169999999999999
Ni 2.085 27.105000000000008 4.169999999999999
Ni 2.085 25.020000000000007 6.254999999999999
Ni 0.0 27.105000000000008 6.254999999999999
Ni 0.0 25.020000000000007 8.339999999999998
Ni 2.085 27.105000000000008 8.339999999999998
Ni 2.085 25.020000000000007 10.424999999999997
Ni 0.0 27.105000000000008 10.424999999999997
Ni 0.0 25.020000000000007 12.509999999999998
Ni 2.085 27.105000000000008 12.509999999999998
Ni 2.085 25.020000000000007 14.594999999999997
Ni 0.0 27.105000000000008 14.594999999999997
Ni 2.085 27.105000000000008 16.679999999999996
Ni 0.0 29.190000000000005 0.0
Ni 2.085 31.275000000000006 0.0
Ni 2.085 29.190000000000005 2.085
Ni 0.0 31.275000000000006 2.085
Ni 0.0 29.190000000000005 4.169999999999999
Ni 2.085 31.275000000000006 4.169999999999999
Ni 2.085 29.190000000000005 6.254999999999999
Ni 0.0 31.275000000000006 6.254999999999999
Ni 0.0 29.190000000000005 8.339999999999998
Ni 2.085 31.275000000000006 8.339999999999998
Ni 2.085 29.190000000000005 10.424999999999997
Ni 0.0 31.275000000000006 10.424999999999997
Ni 0.0 29.190000000000005 12.509999999999998
Ni 2.085 31.275000000000006 12.509999999999998
Ni 2.085 29.190000000000005 14.594999999999997
Ni 0.0 31.275000000000006 14.594999999999997
Ni 0.0 29.190000000000005 16.679999999999996
Ni 2.085 31.275000000000006 16.679999999999996
Ni 2.085 29.190000000000005 18.764999999999997
Ni 0.0 31.275000000000006 18.764999999999997
Ni 2.085 31.275000000000006 20.849999999999994
Ni 0.0 33.36000000000001 0.0
Ni 2.085 35.44500000000001 0.0
Ni 2.085 33.36000000000001 2.085
Ni 0.0 35.44500000000001 2.085
Ni 0.0 33.36000000000001 4.169999999999999
Ni 2.085 35.44500000000001 4.169999999999999
Ni 2.085 33.36000000000001 6.254999999999999
Ni 0.0 35.44500000000001 6.254999999999999
Ni 0.0 33.36000000000001 8.339999999999998
Ni 2.085 35.44500000000001 8.339999999999998
Ni 2.085 33.36000000000001 10.424999999999997
Ni 0.0 35.44500000000001 10.424999999999997
Ni 0.0 33.36000000000001 12.509999999999998
Ni 2.085 35.44500000000001 12.509999999999998
Ni 2.085 33.36000000000001 14.594999999999997
Ni 0.0 35.44500000000001 14.594999999999997
Ni 0.0 33.36000000000001 16.679999999999996
Ni 2.085 35.44500000000001 16.679999999999996
Ni 2.085 33.36000000000001 18.764999999999997
Ni 0.0 35.44500000000001 18.764999999999997
Ni 0.0 33.36000000000001 20.849999999999994
Ni 2.085 35.44500000000001 20.849999999999994
Ni 2.085 33.36000000000001 22.934999999999995
Ni 0.0 35.44500000000001 22.934999999999995
Ni 2.085 35.44500000000001 25.019999999999996
Ni 0.0 37.53 0.0
Ni 2.085 39.615 0.0
Ni 2.085 37.53 2.085
Ni 0.0 39.615 2.085
Ni 0.0 37.53 4.169999999999999
Ni 2.085 39.615 4.169999999999999
Ni 2.085 37.53 6.254999999999999
Ni 0.0 39.615 6.254999999999999
Ni 0.0 37.53 8.339999999999998
Ni 2.085 39.615 8.339999999999998
Ni 2.085 37.53 10.424999999999997
Ni 0.0 39.615 10.424999999999997
Ni 0.0 37.53 12.509999999999998
Ni 2.085 39.615 12.509999999999998
Ni 2.085 37.53 14.594999999999997
Ni 0.0 39.615 14.594999999999997
Ni 0.0 37.53 16.679999999999996
Ni 2.085 39.615 16.679999999999996
Ni 2.085 37.53 18.764999999999997
Ni 0.0 39.615 18.764999999999997
Ni 0.0 37.53 20.849999999999994
Ni 2.085 39.615 20.849999999999994
Ni 2.085 37.53 22.934999999999995
Ni 0.0 39.615 22.934999999999995
Ni 0.0 37.53 25.019999999999996
Ni 2.085 39.615 25.019999999999996
Ni 2.085 37.53 27.104999999999997
Ni 0.0 39.615 27.104999999999997
Ni 4.17 0.0 0.0
Ni 6.255 2.085 0.0
Ni 6.255 0.0 2.085
Ni 4.17 2.085 2.085
Ni 4.17 0.0 4.169999999999999
Ni 6.255 2.085 4.169999999999999
Ni 6.255 0.0 6.254999999999999
Ni 4.17 2.085 6.254999999999999
Ni 4.17 0.0 8.339999999999998
Ni 6.255 2.085 8.339999999999998
Ni 6.255 0.0 10.424999999999997
Ni 4.17 2.085 10.424999999999997
Ni 4.17 0.0 12.509999999999998
Ni 6.255 2.085 12.509999999999998
Ni 6.255 0.0 14.594999999999997
Ni 4.17 2.085 14.594999999999997
Ni 4.17 0.0 16.679999999999996
Ni 6.255 2.085 16.679999999999996
Ni 6.255 0.0 18.764999999999997
Ni 4.17 2.085 18.764999999999997
Ni 4.17 0.0 20.849999999999994
Ni 6.255 2.085 20.849999999999994
Ni 6.255 0.0 22.934999999999995
Ni 4.17 2.085 22.934999999999995
Ni 4.17 0.0 25.019999999999996
Ni 6.255 2.085 25.019999999999996
Ni 6.255 0.0 27.104999999999997
Ni 4.17 2.085 27.104999999999997
Ni 4.17 4.170000000000001 0.0
Ni 6.255 6.255000000000002 0.0
Ni 6.255 4.170000000000001 2.085
Ni 4.17 6.255000000000002 2.085
Ni 4.17 4.170000000000001 4.169999999999999
Ni 6.255 6.255000000000002 4.169999999999999
Ni 6.255 4.170000000000001 6.254999999999999
Ni 4.17 6.255000000000002 6.254999999999999
Ni 4.17 4.170000000000001 8.339999999999998
Ni 6.255 6.255000000000002 8.339999999999998
Ni 6.255 4.170000000000001 10.424999999999997
Ni 4.17 6.255000000000002 10.424999999999997
Ni 4.17 4.170000000000001 12.509999999999998
Ni 6.255 6.255000000000002 12.509999999999998
Ni 6.255 4.170000000000001 14.594999999999997
Ni 4.17 6.255000000000002 14.594999999999997
Ni 4.17 4.170000000000001 16.679999999999996
Ni 6.255 6.255000000000002 16.679999999999996
Ni 6.255 4.170000000000001 18.764999999999997
Ni 4.17 6.255000000000002 18.764999999999997
Ni 4.17 4.170000000000001 20.849999999999994
Ni 6.255 6.255000000000002 20.849999999999994
Ni 6.255 4.170000000000001 22.934999999999995
Ni 4.17 6.255000000000002 22.934999999999995
Ni 4.17 4.170000000000001 25.019999999999996
Ni 6.255 6.255000000000002 25.019999999999996
Ni 6.255 4.170000000000001 27.104999999999997
Ni 4.17 8.340000000000002 0.0
Ni 6.255 10.425 0.0
Ni 6.255 8.340000000000002 2.085
Ni 4.17 10.425 2.085
Ni 4.17 8.340000000000002 4.169999999999999
Ni 6.255 10.425 4.169999999999999
Ni 6.255 8.340000000000002 6.254999999999999
Ni 4.17 10.425 6.254999999999999
Ni 4.17 8.340000000000002 8.339999999999998
Ni 6.255 10.425 8.339999999999998
Ni 6.255 8.340000000000002 10.424999999999997
Ni 4.17 10.425 10.424999999999997
Ni 4.17 8.340000000000002 12.509999999999998
Ni 6.255 10.425 12.509999999999998
Ni 6.255 8.340000000000002 14.594999999999997
Ni 4.17 10.425 14.594999999999997
Ni 4.17 8.340000000000002 16.679999999999996
Ni 6.255 10.425 16.679999999999996
Ni 6.255 8.340000000000002 18.764999999999997
Ni 4.17 10.425 18.764999999999997
Ni 4.17 8.340000000000002 20.849999999999994
Ni 6.255 10.425 20.849999999999994
Ni 6.255 8.340000000000002 22.934999999999995
Ni 4.17 12.510000000000003 0.0
Ni 6.255 14.595000000000002 0.0
Ni 6.255 12.510000000000003 2.085
Ni 4.17 14.595000000000002 2.085
Ni 4.17 12.510000000000003 4.169999999999999
Ni 6.255 14.595000000000002 4.169999999999999
Ni 6.255 12.510000000000003 6.254999999999999
Ni 4.17 14.595000000000002 6.254999999999999
Ni 4.17 12.510000000000003 8.339999999999998
Ni 6.255 14.595000000000002 8.339999999999998
Ni 6.255 12.510000000000003 10.424999999999997
Ni 4.17 14.595000000000002 10.424999999999997
Ni 4.17 12.510000000000003 12.509999999999998
Ni 6.255 14.595000000000002 12.509999999999998
Ni 6.255 12.510000000000003 14.594999999999997
Ni 4.17 14.595000000000002 14.594999999999997
Ni 4.17 12.510000000000003 16.679999999999996
Ni 6.255 14.595000000000002 16.679999999999996
Ni 6.255 12.510000000000003 18.764999999999997
Ni 4.17 16.680000000000003 0.0
Ni 6.255 18.765000000000004 0.0
Ni 6.255 16.680000000000003 2.085
Ni 4.17 18.765000000000004 2.085
Ni 4.17 16.680000000000003 4.169999999999999
Ni 6.255 18.765000000000004 4.169999999999999
Ni 6.255 16.680000000000003 6.254999999999999
Ni 4.17 18.765000000000004 6.254999999999999
Ni 4.17 16.680000000000003 8.339999999999998
Ni 6.255 18.765000000000004 8.339999999999998
Ni 6.255 16.680000000000003 10.424999999999997
Ni 4.17 18.765000000000004 10.424999999999997
Ni 4.17 16.680000000000003 12.509999999999998
Ni 6.255 18.765000000000004 12.509999999999998
Ni 6.255 16.680000000000003 14.594999999999997
Ni 4.17 20.849999999999998 0.0
Ni 6.255 22.935000000000002 0.0
Ni 6.255 20.849999999999998 2.085
Ni 4.17 22.935000000000002 2.085
Ni 4.17 20.849999999999998 4.169999999999999
Ni 6.255 22.935000000000002 4.169999999999999
Ni 6.255 20.849999999999998 6.254999999999999
Ni 4.17 22.935000000000002 6.254999999999999
Ni 4.17 20.849999999999998 8.339999999999998
Ni 6.255 22.935000000000002 8.339999999999998
Ni 6.255 20.849999999999998 10.424999999999997
Ni 4.17 22.935000000000002 10.424999999999997
Ni 6.255 22.935000000000002 12.509999999999998
Ni 4.17 25.020000000000007 0.0
Ni 6.255 27.105000000000008 0.0
Ni 6.255 25.020000000000007 2.085
Ni 4.17 27.105000000000008 2.085
Ni 4.17 25.020000000000007 4.169999999999999
Ni 6.255 27.105000000000008 4.169999999999999
Ni 6.255 25.020000000000007 6.254999999999999
Ni 4.17 27.105000000000008 6.254999999999999
Ni 4.17 25.020000000000007 8.339999999999998
Ni 6.255 27.105000000000008 8.339999999999998
Ni 6.255 25.020000000000007 10.424999999999997
Ni 4.17 27.105000000000008 10.424999999999997
Ni 4.17 25.020000000000007 12.509999999999998
Ni 6.255 27.105000000000008 12.509999999999998
Ni 6.255 25.020000000000007 14.594999999999997
Ni 4.17 27.105000000000008 14.594999999999997
Ni 6.255 27.105000000000008 16.679999999999996
Ni 4.17 29.190000000000005 0.0
Ni 6.255 31.275000000000006 0.0
Ni 6.255 29.190000000000005 2.085
Ni 4.17 31.275000000000006 2.085
Ni 4.17 29.190000000000005 4.169999999999999
Ni 6.255 31.275000000000006 4.169999999999999
Ni 6.255 29.190000000000005 6.254999999999999
Ni 4.17 31.275000000000006 6.254999999999999
Ni 4.17 29.190000000000005 8.339999999999998
Ni 6.255 31.275000000000006 8.339999999999998
Ni 6.255 29.190000000000005 10.424999999999997
Ni 4.17 31.275000000000006 10.424999999999997
Ni 4.17 29.190000000000005 12.509999999999998
Ni 6.255 31.275000000000006 12.509999999999998
Ni 6.255 29.190000000000005 14.594999999999997
Ni 4.17 31.275000000000006 14.594999999999997
Ni 4.17 29.190000000000005 16.679999999999996
Ni 6.255 31.275000000000006 16.679999999999996
Ni 6.255 29.190000000000005 18.764999999999997
Ni 4.17 31.275000000000006 18.764999999999997
Ni 6.255 31.275000000000006 20.849999999999994
Ni 4.17 33.36000000000001 0.0
Ni 6.255 35.44500000000001 0.0
Ni 6.255 33.36000000000001 2.085
Ni 4.17 35.44500000000001 2.085
Ni 4.17 33.36000000000001 4.169999999999999
Ni 6.255 35.44500000000001 4.169999999999999
Ni 6.255 33.36000000000001 6.254999999999999
Ni 4.17 35.44500000000001 6.254999999999999
Ni 4.17 33.36000000000001 8.339999999999998
Ni 6.255 35.44500000000001 8.339999999999998
Ni 6.255 33.36000000000001 10.424999999999997
Ni 4.17 35.44500000000001 10.424999999999997
Ni 4.17 33.36000000000001 12.509999999999998
Ni 6.255 35.44500000000001 12.509999999999998
Ni 6.255 33.36000000000001 14.594999999999997
Ni 4.17 35.44500000000001 14.594999999999997
Ni 4.17 33.36000000000001 16.679999999999996
Ni 6.255 35.44500000000001 16.679999999999996
Ni 6.255 33.36000000000001 18.764999999999997
Ni 4.17 35.44500000000001 18.764999999999997
Ni 4.17 33.36000000000001 20.849999999999994
Ni 6.255 35.44500000000001 20.849999999999994
Ni 6.255 33.36000000000001 22.934999999999995
Ni 4.17 35.44500000000001 22.934999999999995
Ni 6.255 35.44500000000001 25.019999999999996
Ni 4.17 37.53 0.0
Ni 6.255 39.615 0.0
Ni 6.255 37.53 2.085
Ni 4.17 39.615 2.085
Ni 4.17 37.53 4.169999999999999
Ni 6.255 39.615 4.169999999999999
Ni 6.255 37.53 6.254999999999999
Ni 4.17 39.615 6.254999999999999
Ni 4.17 37.53 8.339999999999998
Ni 6.255 39.615 8.339999999999998
Ni 6.255 37.53 10.424999999999997
Ni 4.17 39.615 10.424999999999997
Ni 4.17 37.53 12.509999999999998
Ni 6.255 39.615 12.509999999999998
Ni 6.255 37.53 14.594999999999997
Ni 4.17 39.615 14.594999999999997
Ni 4.17 37.53 16.679999999999996
Ni 6.255 39.615 16.679999999999996
Ni 6.255 37.53 18.764999999999997
Ni 4.17 39.615 18.764999999999997
Ni 4.17 37.53 20.849999999999994
Ni 6.255 39.615 20.849999999999994
Ni 6.255 37.53 22.934999999999995
Ni 4.17 39.615 22.934999999999995
Ni 4.17 37.53 25.019999999999996
Ni 6.255 39.615 25.019999999999996
Ni 6.255 37.53 27.104999999999997
Ni 4.17 39.615 27.104999999999997
Ni 8.34 0.0 0.0
Ni 10.425 2.085 0.0
Ni 10.425 0.0 2.085
Ni 8.34 2.085 2.085
Ni 8.34 0.0 4.169999999999999
Ni 10.425 2.085 4.169999999999999
Ni 10.425 0.0 6.254999999999999
Ni 8.34 2.085 6.254999999999999
Ni 8.34 0.0 8.339999999999998
Ni 10.425 2.085 8.339999999999998
Ni 10.425 0.0 10.424999999999997
Ni 8.34 2.085 10.424999999999997
Ni 8.34 0.0 12.509999999999998
Ni 10.425 2.085 12.509999999999998
Ni 10.425 0.0 14.594999999999997
Ni 8.34 2.085 14.594999999999997
Ni 8.34 0.0 16.679999999999996
Ni 10.425 2.085 16.679999999999996
Ni 10.425 0.0 18.764999999999997
Ni 8.34 2.085 18.764999999999997
Ni 8.34 0.0 20.849999999999994
Ni 10.425 2.085 20.849999999999994
Ni 10.425 0.0 22.934999999999995
Ni 8.34 2.085 22.934999999999995
Ni 8.34 0.0 25.019999999999996
Ni 10.425 2.085 25.019999999999996
Ni 10.425 0.0 27.104999999999997
Ni 8.34 2.085 27.104999999999997
Ni 8.34 4.170000000000001 0.0
Ni 10.425 6.255000000000002 0.0
Ni 10.425 4.170000000000001 2.085
Ni 8.34 6.255000000000002 2.085
Ni 8.34 4.170000000000001 4.169999999999999
Ni 10.425 6.255000000000002 4.169999999999999
Ni 10.425 4.170000000000001 6.254999999999999
Ni 8.34 6.255000000000002 6.254999999999999
Ni 8.34 4.170000000000001 8.339999999999998
Ni 10.425 6.255000000000002 8.339999999999998
Ni 10.425 4.170000000000001 10.424999999999997
Ni 8.34 6.255000000000002 10.424999999999997
Ni 8.34 4.170000000000001 12.509999999999998
Ni 10.425 6.255000000000002 12.509999999999998
Ni 10.425 4.170000000000001 14.594999999999997
Ni 8.34 6.255000000000002 14.594999999999997
Ni 8.34 4.170000000000001 16.679999999999996
Ni 10.425 6.255000000000002 16.679999999999996
Ni 10.425 4.170000000000001 18.764999999999997
Ni 8.34 6.255000000000002 18.764999999999997
Ni 8.34 4.170000000000001 20.849999999999994
Ni 10.425 6.255000000000002 20.849999999999994
Ni 10.425 4.170000000000001 22.934999999999995
Ni 8.34 6.255000000000002 22.934999999999995
Ni 8.34 4.170000000000001 25.019999999999996
Ni 10.425 6.255000000000002 25.019999999999996
Ni 10.425 4.170000000000001 27.104999999999997
Ni 8.34 8.340000000000002 0.0
Ni 10.425 10.425 0.0
Ni 10.425 8.340000000000002 2.085
Ni 8.34 10.425 2.085
Ni 8.34 8.340000000000002 4.169999999999999
Ni 10.425 10.425 4.169999999999999
Ni 10.425 8.340000000000002 6.254999999999999
Ni 8.34 10.425 6.254999999999999
Ni 8.34 8.340000000000002 8.339999999999998
Ni 10.425 10.425 8.339999999999998
Ni 10.425 8.340000000000002 10.424999999999997
Ni 8.34 10.425 10.424999999999997
Ni 8.34 8.340000000000002 12.509999999999998
Ni 10.425 10.425 12.509999999999998
Ni 10.425 8.340000000000002 14.594999999999997
Ni 8.34 10.425 14.594999999999997
Ni 8.34 8.340000000000002 16.679999999999996
Ni 10.425 10.425 16.679999999999996
Ni 10.425 8.340000000000002 18.764999999999997
Ni 8.34 10.425 18.764999999999997
Ni 8.34 8.340000000000002 20.849999999999994
Ni 10.425 10.425 20.849999999999994
Ni 10.425 8.340000000000002 22.934999999999995
Ni 8.34 12.510000000000003 0.0
Ni 10.425 14.595000000000002 0.0
Ni 10.425 12.510000000000003 2.085
Ni 8.34 14.595000000000002 2.085
Ni 8.34 12.510000000000003 4.169999999999999
Ni 10.425 14.595000000000002 4.169999999999999
Ni 10.425 12.510000000000003 6.254999999999999
Ni 8.34 14.595000000000002 6.254999999999999
Ni 8.34 12.510000000000003 8.339999999999998
Ni 10.425 14.595000000000002 8.339999999999998
Ni 10.425 12.510000000000003 10.424999999999997
Ni 8.34 14.595000000000002 10.424999999999997
Ni 8.34 12.510000000000003 12.509999999999998
Ni 10.425 14.595000000000002 12.509999999999998
Ni 10.425 12.510000000000003 14.594999999999997
Ni 8.34 14.595000000000002 14.594999999999997
Ni 8.34 12.510000000000003 16.679999999999996
Ni 10.425 14.595000000000002 16.679999999999996
Ni 10.425 12.510000000000003 18.764999999999997
Ni 8.34 16.680000000000003 0.0
Ni 10.425 18.765000000000004 0.0
Ni 10.425 16.680000000000003 2.085
Ni 8.34 18.765000000000004 2.085
Ni 8.34 16.680000000000003 4.169999999999999
Ni 10.425 18.765000000000004 4.169999999999999
Ni 10.425 16.680000000000003 6.254999999999999
Ni 8.34 18.765000000000004 6.254999999999999
Ni 8.34 16.680000000000003 8.339999999999998
Ni 10.425 18.765000000000004 8.339999999999998
Ni 10.425 16.680000000000003 10.424999999999997
Ni 8.34 18.765000000000004 10.424999999999997
Ni 8.34 16.680000000000003 12.509999999999998
Ni 10.425 18.765000000000004 12.509999999999998
Ni 10.425 16.680000000000003 14.594999999999997
Ni 8.34 20.849999999999998 0.0
Ni 10.425 22.935000000000002 0.0
Ni 10.425 20.849999999999998 2.085
Ni 8.34 22.935000000000002 2.085
Ni 8.34 20.849999999999998 4.169999999999999
Ni 10.425 22.935000000000002 4.169999999999999
Ni 10.425 20.849999999999998 6.254999999999999
Ni 8.34 22.935000000000002 6.254999999999999
Ni 8.34 20.849999999999998 8.339999999999998
Ni 10.425 22.935000000000002 8.339999999999998
Ni 10.425 20.849999999999998 10.424999999999997
Ni 8.34 22.935000000000002 10.424999999999997
Ni 10.425 22.935000000000002 12.509999999999998
Ni 8.34 25.020000000000007 0.0
Ni 10.425 27.105000000000008 0.0
Ni 10.425 25.020000000000007 2.085
Ni 8.34 27.105000000000008 2.085
Ni 8.34 25.020000000000007 4.169999999999999
Ni 10.425 27.105000000000008 4.169999999999999
Ni 10.425 25.020000000000007 6.254999999999999
Ni 8.34 27.105000000000008 6.254999999999999
Ni 8.34 25.020000000000007 8.339999999999998
Ni 10.425 27.105000000000008 8.339999999999998
Ni 10.425 25.020000000000007 10.424999999999997
Ni 8.34 27.105000000000008 10.424999999999997
Ni 8.34 25.020000000000007 12.509999999999998
Ni 10.425 27.105000000000008 12.509999999999998
Ni 10.425 25.020000000000007 14.594999999999997
Ni 8.34 27.105000000000008 14.594999999999997
Ni 10.425 27.105000000000008 16.679999999999996
Ni 8.34 29.190000000000005 0.0
Ni 10.425 31.275000000000006 0.0
Ni 10.425 29.190000000000005 2.085
Ni 8.34 31.275000000000006 2.085
Ni 8.34 29.190000000000005 4.169999999999999
Ni 10.425 31.275000000000006 4.169999999999999
Ni 10.425 29.190000000000005 6.254999999999999
Ni 8.34 31.275000000000006 6.254999999999999
Ni 8.34 29.190000000000005 8.339999999999998
Ni 10.425 31.275000000000006 8.339999999999998
Ni 10.425 29.190000000000005 10.424999999999997
Ni 8.34 31.275000000000006 10.424999999999997
Ni 8.34 29.190000000000005 12.509999999999998
Ni 10.425 31.275000000000006 12.509999999999998
Ni 10.425 29.190000000000005 14.594999999999997
Ni 8.34 31.275000000000006 14.594999999999997
Ni 8.34 29.190000000000005 16.679999999999996
Ni 10.425 31.275000000000006 16.679999999999996
Ni 10.425 29.190000000000005 18.764999999999997
Ni 8.34 31.275000000000006 18.764999999999997
Ni 10.425 31.275000000000006 20.849999999999994
Ni 8.34 33.36000000000001 0.0
Ni 10.425 35.44500000000001 0.0
Ni 10.425 33.36000000000001 2.085
Ni 8.34 35.44500000000001 2.085
Ni 8.34 33.36000000000001 4.169999999999999
Ni 10.425 35.44500000000001 4.169999999999999
Ni 10.425 33.36000000000001 6.254999999999999
Ni 8.34 35.44500000000001 6.254999999999999
Ni 8.34 33.36000000000001 8.339999999999998
Ni 10.425 35.44500000000001 8.339999999999998
Ni 10.425 33.36000000000001 10.424999999999997
Ni 8.34 35.44500000000001 10.424999999999997
Ni 8.34 33.36000000000001 12.509999999999998
Ni 10.425 35.44500000000001 12.509999999999998
Ni 10.425 33.36000000000001 14.594999999999997
Ni 8.34 35.44500000000001 14.594999999999997
Ni 8.34 33.36000000000001 16.679999999999996
Ni 10.425 35.44500000000001 16.679999999999996
Ni 10.425 33.36000000000001 18.764999999999997
Ni 8.34 35.44500000000001 18.764999999999997
Ni 8.34 33.36000000000001 20.849999999999994
Ni 10.425 35.44500000000001 20.849999999999994
Ni 10.425 33.36000000000001 22.934999999999995
Ni 8.34 35.44500000000001 22.934999999999995
Ni 10.425 35.44500000000001 25.019999999999996
Ni 8.34 37.53 0.0
Ni 10.425 39.615 0.0
Ni 10.425 37.53 2.085
Ni 8.34 39.615 2.085
Ni 8.34 37.53 4.169999999999999
Ni 10.425 39.615 4.169999999999999
Ni 10.425 37.53 6.254999999999999
Ni 8.34 39.615 6.254999999999999
Ni 8.34 37.53 8.339999999999998
Ni 10.425 39.615 8.339999999999998
Ni 10.425 37.53 10.424999999999997
Ni 8.34 39.615 10.424999999999997
Ni 8.34 37.53 12.509999999999998
Ni 10.425 39.615 12.509999999999998
Ni 10.425 37.53 14.594999999999997
Ni 8.34 39.615 14.594999999999997
Ni 8.34 37.53 16.679999999999996
Ni 10.425 39.615 16.679999999999996
Ni 10.425 37.53 18.764999999999997
Ni 8.34 39.615 18.764999999999997
Ni 8.34 37.53 20.849999999999994
Ni 10.425 39.615 20.849999999999994
Ni 10.425 37.53 22.934999999999995
Ni 8.34 39.615 22.934999999999995
Ni 8.34 37.53 25.019999999999996
Ni 10.425 39.615 25.019999999999996
Ni 10.425 37.53 27.104999999999997
Ni 8.34 39.615 27.104999999999997
Ni 12.51 0.0 0.0
Ni 14.594999999999999 2.085 0.0
Ni 14.594999999999999 0.0 2.085
Ni 12.51 2.085 2.085
Ni 12.51 0.0 4.169999999999999
Ni 14.594999999999999 2.085 4.169999999999999
Ni 14.594999999999999 0.0 6.254999999999999
Ni 12.51 2.085 6.254999999999999
Ni 12.51 0.0 8.339999999999998
Ni 14.594999999999999 2.085 8.339999999999998
Ni 14.594999999999999 0.0 10.424999999999997
Ni 12.51 2.085 10.424999999999997
Ni 12.51 0.0 12.509999999999998
Ni 14.594999999999999 2.085 12.509999999999998
Ni 14.594999999999999 0.0 14.594999999999997
Ni 12.51 2.085 14.594999999999997
Ni 12.51 0.0 16.679999999999996
Ni 14.594999999999999 2.085 16.679999999999996
Ni 14.594999999999999 0.0 18.764999999999997
Ni 12.51 2.085 18.764999999999997
Ni 12.51 0.0 20.849999999999994
Ni 14.594999999999999 2.085 20.849999999999994
Ni 14.594999999999999 0.0 22.934999999999995
Ni 12.51 2.085 22.934999999999995
Ni 12.51 0.0 25.019999999999996
Ni 14.594999999999999 2.085 25.019999999999996
Ni 14.594999999999999 0.0 27.104999999999997
Ni 12.51 2.085 27.104999999999997
Ni 12.51 4.170000000000001 0.0
Ni 14.594999999999999 6.255000000000002 0.0
Ni 14.594999999999999 4.170000000000001 2.085
Ni 12.51 6.255000000000002 2.085
Ni 12.51 4.170000000000001 4.169999999999999
Ni 14.594999999999999 6.255000000000002 4.169999999999999
Ni 14.594999999999999 4.170000000000001 6.254999999999999
Ni 12.51 6.255000000000002 6.254999999999999
Ni 12.51 4.170000000000001 8.339999999999998
Ni 14.594999999999999 6.255000000000002 8.339999999999998
Ni 14.594999999999999 4.170000000000001 10.424999999999997
Ni 12.51 6.255000000000002 10.424999999999997
Ni 12.51 4.170000000000001 12.509999999999998
Ni 14.594999999999999 6.255000000000002 12.509999999999998
Ni 14.594999999999999 4.170000000000001 14.594999999999997
Ni 12.51 6.255000000000002 14.594999999999997
Ni 12.51 4.170000000000001 16.679999999999996
Ni 14.594999999999999 6.255000000000002 16.679999999999996
Ni 14.594999999999999 4.170000000000001 18.764999999999997
Ni 12.51 6.255000000000002 18.764999999999997
Ni 12.51 4.170000000000001 20.849999999999994
Ni 14.594999999999999 6.255000000000002 20.849999999999994
Ni 14.594999999999999 4.170000000000001 22.934999999999995
Ni 12.51 6.255000000000002 22.934999999999995
Ni 12.51 4.170000000000001 25.019999999999996
Ni 14.594999999999999 6.255000000000002 25.019999999999996
Ni 14.594999999999999 4.170000000000001 27.104999999999997
Ni 12.51 8.340000000000002 0.0
Ni 14.594999999999999 10.425 0.0
Ni 14.594999999999999 8.340000000000002 2.085
Ni 12.51 10.425 2.085
Ni 12.51 8.340000000000002 4.169999999999999
Ni 14.594999999999999 10.425 4.169999999999999
Ni 14.594999999999999 8.340000000000002 6.254999999999999
Ni 12.51 10.425 6.254999999999999
Ni 12.51 8.340000000000002 8.339999999999998
Ni 14.594999999999999 10.425 8.339999999999998
Ni 14.594999999999999 8.340000000000002 10.424999999999997
Ni 12.51 10.425 10.424999999999997
Ni 12.51 8.340000000000002 12.509999999999998
Ni 14.594999999999999 10.425 12.509999999999998
Ni 14.594999999999999 8.340000000000002 14.594999999999997
Ni 12.51 10.425 14.594999999999997
Ni 12.51 8.340000000000002 16.679999999999996
Ni 14.594999999999999 10.425 16.679999999999996
Ni 14.594999999999999 8.340000000000002 18.764999999999997
Ni 12.51 10.425 18.764999999999997
Ni 12.51 8.340000000000002 20.849999999999994
Ni 14.594999999999999 10.425 20.849999999999994
Ni 14.594999999999999 8.340000000000002 22.934999999999995
Ni 12.51 12.510000000000003 0.0
Ni 14.594999999999999 14.595000000000002 0.0
Ni 14.594999999999999 12.510000000000003 2.085
Ni 12.51 14.595000000000002 2.085
Ni 12.51 12.510000000000003 4.169999999999999
Ni 14.594999999999999 14.595000000000002 4.169999999999999
Ni 14.594999999999999 12.510000000000003 6.254999999999999
Ni 12.51 14.595000000000002 6.254999999999999
Ni 12.51 12.510000000000003 8.339999999999998
Ni 14.594999999999999 14.595000000000002 8.339999999999998
Ni 14.594999999999999 12.510000000000003 10.424999999999997
Ni 12.51 14.595000000000002 10.424999999999997
Ni 12.51 12.510000000000003 12.509999999999998
Ni 14.594999999999999 14.595000000000002 12.509999999999998
Ni 14.594999999999999 12.510000000000003 14.594999999999997
Ni 12.51 14.595000000000002 14.594999999999997
Ni 12.51 12.510000000000003 16.679999999999996
Ni 14.594999999999999 14.595000000000002 16.679999999999996
Ni 14.594999999999999 12.510000000000003 18.764999999999997
Ni 12.51 16.680000000000003 0.0
Ni 14.594999999999999 18.765000000000004 0.0
Ni 14.594999999999999 16.680000000000003 2.085
Ni 12.51 18.765000000000004 2.085
Ni 12.51 16.680000000000003 4.169999999999999
Ni 14.594999999999999 18.765000000000004 4.169999999999999
Ni 14.594999999999999 16.680000000000003 6.254999999999999
Ni 12.51 18.765000000000004 6.254999999999999
Ni 12.51 16.680000000000003 8.339999999999998
Ni 14.594999999999999 18.765000000000004 8.339999999999998
Ni 14.594999999999999 16.680000000000003 10.424999999999997
Ni 12.51 18.765000000000004 10.424999999999997
Ni 12.51 16.680000000000003 12.509999999999998
Ni 14.594999999999999 18.765000000000004 12.509999999999998
Ni 14.594999999999999 16.680000000000003 14.594999999999997
Ni 12.51 20.849999999999998 0.0
Ni 14.594999999999999 22.935000000000002 0.0
Ni 14.594999999999999 20.849999999999998 2.085
Ni 12.51 22.935000000000002 2.085
Ni 12.51 20.849999999999998 4.169999999999999
Ni 14.594999999999999 22.935000000000002 4.169999999999999
Ni 14.594999999999999 20.849999999999998 6.254999999999999
Ni 12.51 22.935000000000002 6.254999999999999
Ni 12.51 20.849999999999998 8.339999999999998
Ni 14.594999999999999 22.935000000000002 8.339999999999998
Ni 14.594999999999999 20.849999999999998 10.424999999999997
Ni 12.51 22.935000000000002 10.424999999999997
Ni 14.594999999999999 22.935000000000002 12.509999999999998
Ni 12.51 25.020000000000007 0.0
Ni 14.594999999999999 27.105000000000008 0.0
Ni 14.594999999999999 25.020000000000007 2.085
Ni 12.51 27.105000000000008 2.085
Ni 12.51 25.020000000000007 4.169999999999999
Ni 14.594999999999999 27.105000000000008 4.169999999999999
Ni 14.594999999999999 25.020000000000007 6.254999999999999
Ni 12.51 27.105000000000008 6.254999999999999
Ni 12.51 25.020000000000007 8.339999999999998
Ni 14.594999999999999 27.105000000000008 8.339999999999998
Ni 14.594999999999999 25.020000000000007 10.424999999999997
Ni 12.51 27.105000000000008 10.424999999999997
Ni 12.51 25.020000000000007 12.509999999999998
Ni 14.594999999999999 27.105000000000008 12.509999999999998
Ni 14.594999999999999 25.020000000000007 14.594999999999997
Ni 12.51 27.105000000000008 14.594999999999997
Ni 14.594999999999999 27.105000000000008 16.679999999999996
Ni 12.51 29.190000000000005 0.0
Ni 14.594999999999999 31.275000000000006 0.0
Ni 14.594999999999999 29.190000000000005 2.085
Ni 12.51 31.275000000000006 2.085
Ni 12.51 29.190000000000005 4.169999999999999
Ni 14.594999999999999 31.275000000000006 4.169999999999999
Ni 14.594999999999999 29.190000000000005 6.254999999999999
Ni 12.51 31.275000000000006 6.254999999999999
Ni 12.51 29.190000000000005 8.339999999999998
Ni 14.594999999999999 31.275000000000006 8.339999999999998
Ni 14.594999999999999 29.190000000000005 10.424999999999997
Ni 12.51 31.275000000000006 10.424999999999997
Ni 12.51 29.190000000000005 12.509999999999998
Ni 14.594999999999999 31.275000000000006 12.509999999999998
Ni 14.594999999999999 29.190000000000005 14.594999999999997
Ni 12.51 31.275000000000006 14.594999999999997
Ni 12.51 29.190000000000005 16.679999999999996
Ni 14.594999999999999 31.275000000000006 16.679999999999996
Ni 14.594999999999999 29.190000000000005 18.764999999999997
Ni 12.51 31.275000000000006 18.764999999999997
Ni 14.594999999999999 31.275000000000006 20.849999999999994
Ni 12.51 33.36000000000001 0.0
Ni 14.594999999999999 35.44500000000001 0.0
Ni 14.594999999999999 33.36000000000001 2.085
Ni 12.51 35.44500000000001 2.085
Ni 12.51 33.36000000000001 4.169999999999999
Ni 14.594999999999999 35.44500000000001 4.169999999999999
Ni 14.594999999999999 33.36000000000001 6.254999999999999
Ni 12.51 35.44500000000001 6.254999999999999
Ni 12.51 33.36000000000001 8.339999999999998
Ni 14.594999999999999 35.44500000000001 8.339999999999998
Ni 14.594999999999999 33.36000000000001 10.424999999999997
Ni 12.51 35.44500000000001 10.424999999999997
Ni 12.51 33.36000000000001 12.509999999999998
Ni 14.594999999999999 35.44500000000001 12.509999999999998
Ni 14.594999999999999 33.36000000000001 14.594999999999997
Ni 12.51 35.44500000000001 14.594999999999997
Ni 12.51 33.36000000000001 16.679999999999996
Ni 14.594999999999999 35.44500000000001 16.679999999999996
Ni 14.594999999999999 33.36000000000001 18.764999999999997
Ni 12.51 35.44500000000001 18.764999999999997
Ni 12.51 33.36000000000001 20.849999999999994
Ni 14.594999999999999 35.44500000000001 20.849999999999994
Ni 14.594999999999999 33.36000000000001 22.934999999999995
Ni 12.51 35.44500000000001 22.934999999999995
Ni 14.594999999999999 35.44500000000001 25.019999999999996
Ni 12.51 37.53 0.0
Ni 14.594999999999999 39.615 0.0
Ni 14.594999999999999 37.53 2.085
Ni 12.51 39.615 2.085
Ni 12.51 37.53 4.169999999999999
Ni 14.594999999999999 39.615 4.169999999999999
Ni 14.594999999999999 37.53 6.254999999999999
Ni 12.51 39.615 6.254999999999999
Ni 12.51 37.53 8.339999999999998
Ni 14.594999999999999 39.615 8.339999999999998
Ni 14.594999999999999 37.53 10.424999999999997
Ni 12.51 39.615 10.424999999999997
Ni 12.51 37.53 12.509999999999998
Ni 14.594999999999999 39.615 12.509999999999998
Ni 14.594999999999999 37.53 14.594999999999997
Ni 12.51 39.615 14.594999999999997
Ni 12.51 37.53 16.679999999999996
Ni 14.594999999999999 39.615 16.679999999999996
Ni 14.594999999999999 37.53 18.764999999999997
Ni 12.51 39.615 18.764999999999997
Ni 12.51 37.53 20.849999999999994
Ni 14.594999999999999 39.615 20.849999999999994
Ni 14.594999999999999 37.53 22.934999999999995
Ni 12.51 39.615 22.934999999999995
Ni 12.51 37.53 25.019999999999996
Ni 14.594999999999999 39.615 25.019999999999996
Ni 14.594999999999999 37.53 27.104999999999997
Ni 12.51 39.615 27.104999999999997
Ni 16.68 0.0 0.0
Ni 18.765 2.085 0.0
Ni 18.765 0.0 2.085
Ni 16.68 2.085 2.085
Ni 16.68 0.0 4.169999999999999
Ni 18.765 2.085 4.169999999999999
Ni 18.765 0.0 6.254999999999999
Ni 16.68 2.085 6.254999999999999
Ni 16.68 0.0 8.339999999999998
Ni 18.765 2.085 8.339999999999998
Ni 18.765 0.0 10.424999999999997
Ni 16.68 2.085 10.424999999999997
Ni 16.68 0.0 12.509999999999998
Ni 18.765 2.085 12.509999999999998
Ni 18.765 0.0 14.594999999999997
Ni 16.68 2.085 14.594999999999997
Ni 16.68 0.0 16.679999999999996
Ni 18.765 2.085 16.679999999999996
Ni 18.765 0.0 18.764999999999997
Ni 16.68 2.085 18.764999999999997
Ni 16.68 0.0 20.849999999999994
Ni 18.765 2.085 20.849999999999994
Ni 18.765 0.0 22.934999999999995
Ni 16.68 2.085 22.934999999999995
Ni 16.68 0.0 25.019999999999996
Ni 18.765 2.085 25.019999999999996
Ni 18.765 0.0 27.104999999999997
Ni 16.68 2.085 27.104999999999997
Ni 16.68 4.170000000000001 0.0
Ni 18.765 6.255000000000002 0.0
Ni 18.765 4.170000000000001 2.085
Ni 16.68 6.255000000000002 2.085
Ni 16.68 4.170000000000001 4.169999999999999
Ni 18.765 6.255000000000002 4.169999999999999
Ni 18.765 4.170000000000001 6.254999999999999
Ni 16.68 6.255000000000002 6.254999999999999
Ni 16.68 4.170000000000001 8.339999999999998
Ni 18.765 6.255000000000002 8.339999999999998
Ni 18.765 4.170000000000001 10.424999999999997
Ni 16.68 6.255000000000002 10.424999999999997
Ni 16.68 4.170000000000001 12.509999999999998
Ni 18.765 6.255000000000002 12.509999999999998
Ni 18.765 4.170000000000001 14.594999999999997
Ni 16.68 6.255000000000002 14.594999999999997
Ni 16.68 4.170000000000001 16.679999999999996
Ni 18.765 6.255000000000002 16.679999999999996
Ni 18.765 4.170000000000001 18.764999999999997
Ni 16.68 6.255000000000002 18.764999999999997
Ni 16.68 4.170000000000001 20.849999999999994
Ni 18.765 6.255000000000002 20.849999999999994
Ni 18.765 4.170000000000001 22.934999999999995
Ni 16.68 6.255000000000002 22.934999999999995
Ni 16.68 4.170000000000001 25.019999999999996
Ni 18.765 6.255000000000002 25.019999999999996
Ni 18.765 4.170000000000001 27.104999999999997
Ni 16.68 8.340000000000002 0.0
Ni 18.765 10.425 0.0
Ni 18.765 8.340000000000002 2.085
Ni 16.68 10.425 2.085
Ni 16.68 8.340000000000002 4.169999999999999
Ni 18.765 10.425 4.169999999999999
Ni 18.765 8.340000000000002 6.254999999999999
Ni 16.68 10.425 6.254999999999999
Ni 16.68 8.340000000000002 8.339999999999998
Ni 18.765 10.425 8.339999999999998
Ni 18.765 8.340000000000002 10.424999999999997
Ni 16.68 10.425 10.424999999999997
Ni 16.68 8.340000000000002 12.509999999999998
Ni 18.765 10.425 12.509999999999998
Ni 18.765 8.340000000000002 14.594999999999997
Ni 16.68 10.425 14.594999999999997
Ni 16.68 8.340000000000002 16.679999999999996
Ni 18.765 10.425 16.679999999999996
Ni 18.765 8.340000000000002 18.764999999999997
Ni 16.68 10.425 18.764999999999997
Ni 16.68 8.340000000000002 20.849999999999994
Ni 18.765 10.425 20.849999999999994
Ni 18.765 8.340000000000002 22.934999999999995
Ni 16.68 12.510000000000003 0.0
Ni 18.765 14.595000000000002 0.0
Ni 18.765 12.510000000000003 2.085
Ni 16.68 14.595000000000002 2.085
Ni 16.68 12.510000000000003 4.169999999999999
Ni 18.765 14.595000000000002 4.169999999999999
Ni 18.765 12.510000000000003 6.254999999999999
Ni 16.68 14.595000000000002 6.254999999999999
Ni 16.68 12.510000000000003 8.339999999999998
Ni 18.765 14.595000000000002 8.339999999999998
Ni 18.765 12.510000000000003 10.424999999999997
Ni 16.68 14.595000000000002 10.424999999999997
Ni 16.68 12.510000000000003 12.509999999999998
Ni 18.765 14.595000000000002 12.509999999999998
Ni 18.765 12.510000000000003 14.594999999999997
Ni 16.68 14.595000000000002 14.594999999999997
Ni 16.68 12.510000000000003 16.679999999999996
Ni 18.765 14.595000000000002 16.679999999999996
Ni 18.765 12.510000000000003 18.764999999999997
Ni 16.68 16.680000000000003 0.0
Ni 18.765 18.765000000000004 0.0
Ni 18.765 16.680000000000003 2.085
Ni 16.68 18.765000000000004 2.085
Ni 16.68 16.680000000000003 4.169999999999999
Ni 18.765 18.765000000000004 4.169999999999999
Ni 18.765 16.680000000000003 6.254999999999999
Ni 16.68 18.765000000000004 6.254999999999999
Ni 16.68 16.680000000000003 8.339999999999998
Ni 18.765 18.765000000000004 8.339999999999998
Ni 18.765 16.680000000000003 10.424999999999997
Ni 16.68 18.765000000000004 10.424999999999997
Ni 16.68 16.680000000000003 12.509999999999998
Ni 18.765 18.765000000000004 12.509999999999998
Ni 18.765 16.680000000000003 14.594999999999997
Ni 16.68 20.849999999999998 0.0
Ni 18.765 22.935000000000002 0.0
Ni 18.765 20.849999999999998 2.085
Ni 16.68 22.935000000000002 2.085
Ni 16.68 20.849999999999998 4.169999999999999
Ni 18.765 22.935000000000002 4.169999999999999
Ni 18.765 20.849999999999998 6.254999999999999
Ni 16.68 22.935000000000002 6.254999999999999
Ni 16.68 20.849999999999998 8.339999999999998
Ni 18.765 22.935000000000002 8.339999999999998
Ni 18.765 20.849999999999998 10.424999999999997
Ni 16.68 22.935000000000002 10.424999999999997
Ni 18.765 22.935000000000002 12.509999999999998
Ni 16.68 25.020000000000007 0.0
Ni 18.765 27.105000000000008 0.0
Ni 18.765 25.020000000000007 2.085
Ni 16.68 27.105000000000008 2.085
Ni 16.68 25.020000000000007 4.169999999999999
Ni 18.765 27.105000000000008 4.169999999999999
Ni 18.765 25.020000000000007 6.254999999999999
Ni 16.68 27.105000000000008 6.254999999999999
Ni 16.68 25.020000000000007 8.339999999999998
Ni 18.765 27.105000000000008 8.339999999999998
Ni 18.765 25.020000000000007 10.424999999999997
Ni 16.68 27.105000000000008 10.424999999999997
Ni 16.68 25.020000000000007 12.509999999999998
Ni 18.765 27.105000000000008 12.509999999999998
Ni 18.765 25.020000000000007 14.594999999999997
Ni 16.68 27.105000000000008 14.594999999999997
Ni 18.765 27.105000000000008 16.679999999999996
Ni 16.68 29.190000000000005 0.0
Ni 18.765 31.275000000000006 0.0
Ni 18.765 29.190000000000005 2.085
Ni 16.68 31.275000000000006 2.085
Ni 16.68 29.190000000000005 4.169999999999999
Ni 18.765 31.275000000000006 4.169999999999999
Ni 18.765 29.190000000000005 6.254999999999999
Ni 16.68 31.275000000000006 6.254999999999999
Ni 16.68 29.190000000000005 8.339999999999998
Ni 18.765 31.275000000000006 8.339999999999998
Ni 18.765 29.190000000000005 10.424999999999997
Ni 16.68 31.275000000000006 10.424999999999997
Ni 16.68 29.190000000000005 12.509999999999998
Ni 18.765 31.275000000000006 12.509999999999998
Ni 18.765 29.190000000000005 14.594999999999997
Ni 16.68 31.275000000000006 14.594999999999997
Ni 16.68 29.190000000000005 16.679999999999996
Ni 18.765 31.275000000000006 16.679999999999996
Ni 18.765 29.190000000000005 18.764999999999997
Ni 16.68 31.275000000000006 18.764999999999997
Ni 18.765 31.275000000000006 20.849999999999994
Ni 16.68 33.36000000000001 0.0
Ni 18.765 35.44500000000001 0.0
Ni 18.765 33.36000000000001 2.085
Ni 16.68 35.44500000000001 2.085
Ni 16.68 33.36000000000001 4.169999999999999
Ni 18.765 35.44500000000001 4.169999999999999
Ni 18.765 33.36000000000001 6.254999999999999
Ni 16.68 35.44500000000001 6.254999999999999
Ni 16.68 33.36000000000001 8.339999999999998
Ni 18.765 35.44500000000001 8.339999999999998
Ni 18.765 33.36000000000001 10.424999999999997
Ni 16.68 35.44500000000001 10.424999999999997
Ni 16.68 33.36000000000001 12.509999999999998
Ni 18.765 35.44500000000001 12.509999999999998
Ni 18.765 33.36000000000001 14.594999999999997
Ni 16.68 35.44500000000001 14.594999999999997
Ni 16.68 33.36000000000001 16.679999999999996
Ni 18.765 35.44500000000001 16.679999999999996
Ni 18.765 33.36000000000001 18.764999999999997
Ni 16.68 35.44500000000001 18.764999999999997
Ni 16.68 33.36000000000001 20.849999999999994
Ni 18.765 35.44500000000001 20.849999999999994
Ni 18.765 33.36000000000001 22.934999999999995
Ni 16.68 35.44500000000001 22.934999999999995
Ni 18.765 35.44500000000001 25.019999999999996
Ni 16.68 37.53 0.0
Ni 18.765 39.615 0.0
Ni 18.765 37.53 2.085
Ni 16.68 39.615 2.085
Ni 16.68 37.53 4.169999999999999
Ni 18.765 39.615 4.169999999999999
Ni 18.765 37.53 6.254999999999999
Ni 16.68 39.615 6.254999999999999
Ni 16.68 37.53 8.339999999999998
Ni 18.765 39.615 8.339999999999998
Ni 18.765 37.53 10.424999999999997
Ni 16.68 39.615 10.424999999999997
Ni 16.68 37.53 12.509999999999998
Ni 18.765 39.615 12.509999999999998
Ni 18.765 37.53 14.594999999999997
Ni 16.68 39.615 14.594999999999997
Ni 16.68 37.53 16.679999999999996
Ni 18.765 39.615 16.679999999999996
Ni 18.765 37.53 18.764999999999997
Ni 16.68 39.615 18.764999999999997
Ni 16.68 37.53 20.849999999999994
Ni 18.765 39.615 20.849999999999994
Ni 18.765 37.53 22.934999999999995
Ni 16.68 39.615 22.934999999999995
Ni 16.68 37.53 25.019999999999996
Ni 18.765 39.615 25.019999999999996
Ni 18.765 37.53 27.104999999999997
Ni 16.68 39.615 27.104999999999997
Ni 20.849999999999998 0.0 0.0
Ni 22.935 2.085 0.0
Ni 22.935 0.0 2.085
Ni 20.849999999999998 2.085 2.085
Ni 20.849999999999998 0.0 4.169999999999999
Ni 22.935 2.085 4.169999999999999
Ni 22.935 0.0 6.254999999999999
Ni 20.849999999999998 2.085 6.254999999999999
Ni 20.849999999999998 0.0 8.339999999999998
Ni 22.935 2.085 8.339999999999998
Ni 22.935 0.0 10.424999999999997
Ni 20.849999999999998 2.085 10.424999999999997
Ni 20.849999999999998 0.0 12.509999999999998
Ni 22.935 2.085 12.509999999999998
Ni 22.935 0.0 14.594999999999997
Ni 20.849999999999998 2.085 14.594999999999997
Ni 20.849999999999998 0.0 16.679999999999996
Ni 22.935 2.085 16.679999999999996
Ni 22.935 0.0 18.764999999999997
Ni 20.849999999999998 2.085 18.764999999999997
Ni 20.849999999999998 0.0 20.849999999999994
Ni 22.935 2.085 20.849999999999994
Ni 22.935 0.0 22.934999999999995
Ni 20.849999999999998 2.085 22.934999999999995
Ni 20.849999999999998 0.0 25.019999999999996
Ni 22.935 2.085 25.019999999999996
Ni 22.935 0.0 27.104999999999997
Ni 20.849999999999998 2.085 27.104999999999997
Ni 20.849999999999998 4.170000000000001 0.0
Ni 22.935 6.255000000000002 0.0
Ni 22.935 4.170000000000001 2.085
Ni 20.849999999999998 6.255000000000002 2.085
Ni 20.849999999999998 4.170000000000001 4.169999999999999
Ni 22.935 6.255000000000002 4.169999999999999
Ni 22.935 4.170000000000001 6.254999999999999
Ni 20.849999999999998 6.255000000000002 6.254999999999999
Ni 20.849999999999998 4.170000000000001 8.339999999999998
Ni 22.935 6.255000000000002 8.339999999999998
Ni 22.935 4.170000000000001 10.424999999999997
Ni 20.849999999999998 6.255000000000002 10.424999999999997
Ni 20.849999999999998 4.170000000000001 12.509999999999998
Ni 22.935 6.255000000000002 12.509999999999998
Ni 22.935 4.170000000000001 14.594999999999997
Ni 20.849999999999998 6.255000000000002 14.594999999999997
Ni 20.849999999999998 4.170000000000001 16.679999999999996
Ni 22.935 6.255000000000002 16.679999999999996
Ni 22.935 4.170000000000001 18.764999999999997
Ni 20.849999999999998 6.255000000000002 18.764999999999997
Ni 20.849999999999998 4.170000000000001 20.849999999999994
Ni 22.935 6.255000000000002 20.849999999999994
Ni 22.935 4.170000000000001 22.934999999999995
Ni 20.849999999999998 6.255000000000002 22.934999999999995
Ni 20.849999999999998 4.170000000000001 25.019999999999996
Ni 22.935 6.255000000000002 25.019999999999996
Ni 22.935 4.170000000000001 27.104999999999997
Ni 20.849999999999998 8.340000000000002 0.0
Ni 22.935 10.425 0.0
Ni 22.935 8.340000000000002 2.085
Ni 20.849999999999998 10.425 2.085
Ni 20.849999999999998 8.340000000000002 4.169999999999999
Ni 22.935 10.425 4.169999999999999
Ni 22.935 8.340000000000002 6.254999999999999
Ni 20.849999999999998 10.425 6.254999999999999
Ni 20.849999999999998 8.340000000000002 8.339999999999998
Ni 22.935 10.425 8.339999999999998
Ni 22.935 8.340000000000002 10.424999999999997
Ni 20.849999999999998 10.425 10.424999999999997
Ni 20.849999999999998 8.340000000000002 12.509999999999998
Ni 22.935 10.425 12.509999999999998
Ni 22.935 8.340000000000002 14.594999999999997
Ni 20.849999999999998 10.425 14.594999999999997
Ni 20.849999999999998 8.340000000000002 16.679999999999996
Ni 22.935 10.425 16.679999999999996
Ni 22.935 8.340000000000002 18.764999999999997
Ni 20.849999999999998 10.425 18.764999999999997
Ni 20.849999999999998 8.340000000000002 20.849999999999994
Ni 22.935 10.425 20.849999999999994
Ni 22.935 8.340000000000002 22.934999999999995
Ni 20.849999999999998 12.510000000000003 0.0
Ni 22.935 14.595000000000002 0.0
Ni 22.935 12.510000000000003 2.085
Ni 20.849999999999998 14.595000000000002 2.085
Ni 20.849999999999998 12.510000000000003 4.169999999999999
Ni 22.935 14.595000000000002 4.169999999999999
Ni 22.935 12.510000000000003 6.254999999999999
Ni 20.849999999999998 14.595000000000002 6.254999999999999
Ni 20.849999999999998 12.510000000000003 8.339999999999998
Ni 22.935 14.595000000000002 8.339999999999998
Ni 22.935 12.510000000000003 10.424999999999997
Ni 20.849999999999998 14.595000000000002 10.424999999999997
Ni 20.849999999999998 12.510000000000003 12.509999999999998
Ni 22.935 14.595000000000002 12.509999999999998
Ni 22.935 12.510000000000003 14.594999999999997
Ni 20.849999999999998 14.595000000000002 14.594999999999997
Ni 20.849999999999998 12.510000000000003 16.679999999999996
Ni 22.935 14.595000000000002 16.679999999999996
Ni 22.935 12.510000000000003 18.764999999999997
Ni 20.849999999999998 16.680000000000003 0.0
Ni 22.935 18.765000000000004 0.0
Ni 22.935 16.680000000000003 2.085
Ni 20.849999999999998 18.765000000000004 2.085
Ni 20.849999999999998 16.680000000000003 4.169999999999999
Ni 22.935 18.765000000000004 4.169999999999999
Ni 22.935 16.680000000000003 6.254999999999999
Ni 20.849999999999998 18.765000000000004 6.254999999999999
Ni 20.849999999999998 16.680000000000003 8.339999999999998
Ni 22.935 18.765000000000004 8.339999999999998
Ni 22.935 16.680000000000003 10.424999999999997
Ni 20.849999999999998 18.765000000000004 10.424999999999997
Ni 20.849999999999998 16.680000000000003 12.509999999999998
Ni 22.935 18.765000000000004 12.509999999999998
Ni 22.935 16.680000000000003 14.594999999999997
Ni 20.849999999999998 20.849999999999998 0.0
Ni 22.935 22.935000000000002 0.0
Ni 22.935 20.849999999999998 2.085
Ni 20.849999999999998 22.935000000000002 2.085
Ni 20.849999999999998 20.849999999999998 4.169999999999999
Ni 22.935 22.935000000000002 4.169999999999999
Ni 22.935 20.849999999999998 6.254999999999999
Ni 20.849999999999998 22.935000000000002 6.254999999999999
Ni 20.849999999999998 20.849999999999998 8.339999999999998
Ni 22.935 22.935000000000002 8.339999999999998
Ni 22.935 20.849999999999998 10.424999999999997
Ni 20.849999999999998 22.935000000000002 10.424999999999997
Ni 22.935 22.935000000000002 12.509999999999998
Ni 20.849999999999998 25.020000000000007 0.0
Ni 22.935 27.105000000000008 0.0
Ni 22.935 25.020000000000007 2.085
Ni 20.849999999999998 27.105000000000008 2.085
Ni 20.849999999999998 25.020000000000007 4.169999999999999
Ni 22.935 27.105000000000008 4.169999999999999
Ni 22.935 25.020000000000007 6.254999999999999
Ni 20.849999999999998 27.105000000000008 6.254999999999999
Ni 20.849999999999998 25.020000000000007 8.339999999999998
Ni 22.935 27.105000000000008 8.339999999999998
Ni 22.935 25.020000000000007 10.424999999999997
Ni 20.849999999999998 27.105000000000008 10.424999999999997
Ni 20.849999999999998 25.020000000000007 12.509999999999998
Ni 22.935 27.105000000000008 12.509999999999998
Ni 22.935 25.020000000000007 14.594999999999997
Ni 20.849999999999998 27.105000000000008 14.594999999999997
Ni 22.935 27.105000000000008 16.679999999999996
Ni 20.849999999999998 29.190000000000005 0.0
Ni 22.935 31.275000000000006 0.0
Ni 22.935 29.190000000000005 2.085
Ni 20.849999999999998 31.275000000000006 2.085
Ni 20.849999999999998 29.190000000000005 4.169999999999999
Ni 22.935 31.275000000000006 4.169999999999999
Ni 22.935 29.190000000000005 6.254999999999999
Ni 20.849999999999998 31.275000000000006 6.254999999999999
Ni 20.849999999999998 29.190000000000005 8.339999999999998
Ni 22.935 31.275000000000006 8.339999999999998
Ni 22.935 29.190000000000005 10.424999999999997
Ni 20.849999999999998 31.275000000000006 10.424999999999997
Ni 20.849999999999998 29.190000000000005 12.509999999999998
Ni 22.935 31.275000000000006 12.509999999999998
Ni 22.935 29.190000000000005 14.594999999999997
Ni 20.849999999999998 31.275000000000006 14.594999999999997
Ni 20.849999999999998 29.190000000000005 16.679999999999996
Ni 22.935 31.275000000000006 16.679999999999996
Ni 22.935 29.190000000000005 18.764999999999997
Ni 20.849999999999998 31.275000000000006 18.764999999999997
Ni 22.935 31.275000000000006 20.849999999999994
Ni 20.849999999999998 33.36000000000001 0.0
Ni 22.935 35.44500000000001 0.0
Ni 22.935 33.36000000000001 2.085
Ni 20.849999999999998 35.44500000000001 2.085
Ni 20.849999999999998 33.36000000000001 4.169999999999999
Ni 22.935 35.44500000000001 4.169999999999999
Ni 22.935 33.36000000000001 6.254999999999999
Ni 20.849999999999998 35.44500000000001 6.254999999999999
Ni 20.849999999999998 33.36000000000001 8.339999999999998
Ni 22.935 35.44500000000001 8.339999999999998
Ni 22.935 33.36000000000001 10.424999999999997
Ni 20.849999999999998 35.44500000000001 10.424999999999997
Ni 20.849999999999998 33.36000000000001 12.509999999999998
Ni 22.935 35.44500000000001 12.509999999999998
Ni 22.935 33.36000000000001 14.594999999999997
Ni 20.849999999999998 35.44500000000001 14.594999999999997
Ni 20.849999999999998 33.36000000000001 16.679999999999996
Ni 22.935 35.44500000000001 16.679999999999996
Ni 22.935 33.36000000000001 18.764999999999997
Ni 20.849999999999998 35.44500000000001 18.764999999999997
Ni 20.849999999999998 33.36000000000001 20.849999999999994
Ni 22.935 35.44500000000001 20.849999999999994
Ni 22.935 33.36000000000001 22.934999999999995
Ni 20.849999999999998 35.44500000000001 22.934999999999995
Ni 22.935 35.44500000000001 25.019999999999996
Ni 20.849999999999998 37.53 0.0
Ni 22.935 39.615 0.0
Ni 22.935 37.53 2.085
Ni 20.849999999999998 39.615 2.085
Ni 20.849999999999998 37.53 4.169999999999999
Ni 22.935 39.615 4.169999999999999
Ni 22.935 37.53 6.254999999999999
Ni 20.849999999999998 39.615 6.254999999999999
Ni 20.849999999999998 37.53 8.339999999999998
Ni 22.935 39.615 8.339999999999998
Ni 22.935 37.53 10.424999999999997
Ni 20.849999999999998 39.615 10.424999999999997
Ni 20.849999999999998 37.53 12.509999999999998
Ni 22.935 39.615 12.509999999999998
Ni 22.935 37.53 14.594999999999997
Ni 20.849999999999998 39.615 14.594999999999997
Ni 20.849999999999998 37.53 16.679999999999996
Ni 22.935 39.615 16.679999999999996
Ni 22.935 37.53 18.764999999999997
Ni 20.849999999999998 39.615 18.764999999999997
Ni 20.849999999999998 37.53 20.849999999999994
Ni 22.935 39.615 20.849999999999994
Ni 22.935 37.53 22.934999999999995
Ni 20.849999999999998 39.615 22.934999999999995
Ni 20.849999999999998 37.53 25.019999999999996
Ni 22.935 39.615 25.019999999999996
Ni 22.935 37.53 27.104999999999997
Ni 20.849999999999998 39.615 27.104999999999997
Ni 25.02 0.0 0.0
Ni 27.105 2.085 0.0
Ni 27.105 0.0 2.085
Ni 25.02 2.085 2.085
Ni 25.02 0.0 4.169999999999999
Ni 27.105 2.085 4.169999999999999
Ni 27.105 0.0 6.254999999999999
Ni 25.02 2.085 6.254999999999999
Ni 25.02 0.0 8.339999999999998
Ni 27.105 2.085 8.339999999999998
Ni 27.105 0.0 10.424999999999997
Ni 25.02 2.085 10.424999999999997
Ni 25.02 0.0 12.509999999999998
Ni 27.105 2.085 12.509999999999998
Ni 27.105 0.0 14.594999999999997
Ni 25.02 2.085 14.594999999999997
Ni 25.02 0.0 16.679999999999996
Ni 27.105 2.085 16.679999999999996
Ni 27.105 0.0 18.764999999999997
Ni 25.02 2.085 18.764999999999997
Ni 25.02 0.0 20.849999999999994
Ni 27.105 2.085 20.849999999999994
Ni 27.105 0.0 22.934999999999995
Ni 25.02 2.085 22.934999999999995
Ni 25.02 0.0 25.019999999999996
Ni 27.105 2.085 25.019999999999996
Ni 27.105 0.0 27.104999999999997
Ni 25.02 2.085 27.104999999999997
Ni 25.02 4.170000000000001 0.0
Ni 27.105 6.255000000000002 0.0
Ni 27.105 4.170000000000001 2.085
Ni 25.02 6.255000000000002 2.085
Ni 25.02 4.170000000000001 4.169999999999999
Ni 27.105 6.255000000000002 4.169999999999999
Ni 27.105 4.170000000000001 6.254999999999999
Ni 25.02 6.255000000000002 6.254999999999999
Ni 25.02 4.170000000000001 8.339999999999998
Ni 27.105 6.255000000000002 8.339999999999998
Ni 27.105 4.170000000000001 10.424999999999997
Ni 25.02 6.255000000000002 10.424999999999997
Ni 25.02 4.170000000000001 12.509999999999998
Ni 27.105 6.255000000000002 12.509999999999998
Ni 27.105 4.170000000000001 14.594999999999997
Ni 25.02 6.255000000000002 14.594999999999997
Ni 25.02 4.170000000000001 16.679999999999996
Ni 27.105 6.255000000000002 16.679999999999996
Ni 27.105 4.170000000000001 18.764999999999997
Ni 25.02 6.255000000000002 18.764999999999997
Ni 25.02 4.170000000000001 20.849999999999994
Ni 27.105 6.255000000000002 20.849999999999994
Ni 27.105 4.170000000000001 22.934999999999995
Ni 25.02 6.255000000000002 22.934999999999995
Ni 25.02 4.170000000000001 25.019999999999996
Ni 27.105 6.255000000000002 25.019999999999996
Ni 27.105 4.170000000000001 27.104999999999997
Ni 25.02 8.340000000000002 0.0
Ni 27.105 10.425 0.0
Ni 27.105 8.340000000000002 2.085
Ni 25.02 10.425 2.085
Ni 25.02 8.340000000000002 4.169999999999999
Ni 27.105 10.425 4.169999999999999
Ni 27.105 8.340000000000002 6.254999999999999
Ni 25.02 10.425 6.254999999999999
Ni 25.02 8.340000000000002 8.339999999999998
Ni 27.105 10.425 8.339999999999998
Ni 27.105 8.340000000000002 10.424999999999997
Ni 25.02 10.425 10.424999999999997
Ni 25.02 8.340000000000002 12.509999999999998
Ni 27.105 10.425 12.509999999999998
Ni 27.105 8.340000000000002 14.594999999999997
Ni 25.02 10.425 14.594999999999997
Ni 25.02 8.340000000000002 16.679999999999996
Ni 27.105 10.425 16.679999999999996
Ni 27.105 8.340000000000002 18.764999999999997
Ni 25.02 10.425 18.764999999999997
Ni 25.02 8.340000000000002 20.849999999999994
Ni 27.105 10.425 20.849999999999994
Ni 27.105 8.340000000000002 22.934999999999995
Ni 25.02 12.510000000000003 0.0
Ni 27.105 14.595000000000002 0.0
Ni 27.105 12.510000000000003 2.085
Ni 25.02 14.595000000000002 2.085
Ni 25.02 12.510000000000003 4.169999999999999
Ni 27.105 14.595000000000002 4.169999999999999
Ni 27.105 12.510000000000003 6.254999999999999
Ni 25.02 14.595000000000002 6.254999999999999
Ni 25.02 12.510000000000003 8.339999999999998
Ni 27.105 14.595000000000002 8.339999999999998
Ni 27.105 12.510000000000003 10.424999999999997
Ni 25.02 14.595000000000002 10.424999999999997
Ni 25.02 12.510000000000003 12.509999999999998
Ni 27.105 14.595000000000002 12.509999999999998
Ni 27.105 12.510000000000003 14.594999999999997
Ni 25.02 14.595000000000002 14.594999999999997
Ni 25.02 12.510000000000003 16.679999999999996
Ni 27.105 14.595000000000002 16.679999999999996
Ni 27.105 12.510000000000003 18.764999999999997
Ni 25.02 16.680000000000003 0.0
Ni 27.105 18.765000000000004 0.0
Ni 27.105 16.680000000000003 2.085
Ni 25.02 18.765000000000004 2.085
Ni 25.02 16.680000000000003 4.169999999999999
Ni 27.105 18.765000000000004 4.169999999999999
Ni 27.105 16.680000000000003 6.254999999999999
Ni 25.02 18.765000000000004 6.254999999999999
Ni 25.02 16.680000000000003 8.339999999999998
Ni 27.105 18.765000000000004 8.339999999999998
Ni 27.105 16.680000000000003 10.424999999999997
Ni 25.02 18.765000000000004 10.424999999999997
Ni 25.02 16.680000000000003 12.509999999999998
Ni 27.105 18.765000000000004 12.509999999999998
Ni 27.105 16.680000000000003 14.594999999999997
Ni 25.02 20.849999999999998 0.0
Ni 27.105 22.935000000000002 0.0
Ni 27.105 20.849999999999998 2.085
Ni 25.02 22.935000000000002 2.085
Ni 25.02 20.849999999999998 4.169999999999999
Ni 27.105 22.935000000000002 4.169999999999999
Ni 27.105 20.849999999999998 6.254999999999999
Ni 25.02 22.935000000000002 6.254999999999999
Ni 25.02 20.849999999999998 8.339999999999998
Ni 27.105 22.935000000000002 8.339999999999998
Ni 27.105 20.849999999999998 10.424999999999997
Ni 25.02 22.935000000000002 10.424999999999997
Ni 27.105 22.935000000000002 12.509999999999998
Ni 25.02 25.020000000000007 0.0
Ni 27.105 27.105000000000008 0.0
Ni 27.105 25.020000000000007 2.085
Ni 25.02 27.105000000000008 2.085
Ni 25.02 25.020000000000007 4.169999999999999
Ni 27.105 27.105000000000008 4.169999999999999
Ni 27.105 25.020000000000007 6.254999999999999
Ni 25.02 27.105000000000008 6.254999999999999
Ni 25.02 25.020000000000007 8.339999999999998
Ni 27.105 27.105000000000008 8.339999999999998
Ni 27.105 25.020000000000007 10.424999999999997
Ni 25.02 27.105000000000008 10.424999999999997
Ni 25.02 25.020000000000007 12.509999999999998
Ni 27.105 27.105000000000008 12.509999999999998
Ni 27.105 25.020000000000007 14.594999999999997
Ni 25.02 27.105000000000008 14.594999999999997
Ni 27.105 27.105000000000008 16.679999999999996
Ni 25.02 29.190000000000005 0.0
Ni 27.105 31.275000000000006 0.0
Ni 27.105 29.190000000000005 2.085
Ni 25.02 31.275000000000006 2.085
Ni 25.02 29.190000000000005 4.169999999999999
Ni 27.105 31.275000000000006 4.169999999999999
Ni 27.105 29.190000000000005 6.254999999999999
Ni 25.02 31.275000000000006 6.254999999999999
Ni 25.02 29.190000000000005 8.339999999999998
Ni 27.105 31.275000000000006 8.339999999999998
Ni 27.105 29.190000000000005 10.424999999999997
Ni 25.02 31.275000000000006 10.424999999999997
Ni 25.02 29.190000000000005 12.509999999999998
Ni 27.105 31.275000000000006 12.509999999999998
Ni 27.105 29.190000000000005 14.594999999999997
Ni 25.02 31.275000000000006 14.594999999999997
Ni 25.02 29.190000000000005 16.679999999999996
Ni 27.105 31.275000000000006 16.679999999999996
Ni 27.105 29.190000000000005 18.764999999999997
Ni 25.02 31.275000000000006 18.764999999999997
Ni 27.105 31.275000000000006 20.849999999999994
Ni 25.02 33.36000000000001 0.0
Ni 27.105 35.44500000000001 0.0
Ni 27.105 33.36000000000001 2.085
Ni 25.02 35.44500000000001 2.085
Ni 25.02 33.36000000000001 4.169999999999999
Ni 27.105 35.44500000000001 4.169999999999999
Ni 27.105 33.36000000000001 6.254999999999999
Ni 25.02 35.44500000000001 6.254999999999999
Ni 25.02 33.36000000000001 8.339999999999998
Ni 27.105 35.44500000000001 8.339999999999998
Ni 27.105 33.36000000000001 10.424999999999997
Ni 25.02 35.44500000000001 10.424999999999997
Ni 25.02 33.36000000000001 12.509999999999998
Ni 27.105 35.44500000000001 12.509999999999998
Ni 27.105 33.36000000000001 14.594999999999997
Ni 25.02 35.44500000000001 14.594999999999997
Ni 25.02 33.36000000000001 16.679999999999996
Ni 27.105 35.44500000000001 16.679999999999996
Ni 27.105 33.36000000000001 18.764999999999997
Ni 25.02 35.44500000000001 18.764999999999997
Ni 25.02 33.36000000000001 20.849999999999994
Ni 27.105 35.44500000000001 20.849999999999994
Ni 27.105 33.36000000000001 22.934999999999995
Ni 25.02 35.44500000000001 22.934999999999995
Ni 27.105 35.44500000000001 25.019999999999996
Ni 25.02 37.53 0.0
Ni 27.105 39.615 0.0
Ni 27.105 37.53 2.085
Ni 25.02 39.615 2.085
Ni 25.02 37.53 4.169999999999999
Ni 27.105 39.615 4.169999999999999
Ni 27.105 37.53 6.254999999999999
Ni 25.02 39.615 6.254999999999999
Ni 25.02 37.53 8.339999999999998
Ni 27.105 39.615 8.339999999999998
Ni 27.105 37.53 10.424999999999997
Ni 25.02 39.615 10.424999999999997
Ni 25.02 37.53 12.509999999999998
Ni 27.105 39.615 12.509999999999998
Ni 27.105 37.53 14.594999999999997
Ni 25.02 39.615 14.594999999999997
Ni 25.02 37.53 16.679999999999996
Ni 27.105 39.615 16.679999999999996
Ni 27.105 37.53 18.764999999999997
Ni 25.02 39.615 18.764999999999997
Ni 25.02 37.53 20.849999999999994
Ni 27.105 39.615 20.849999999999994
Ni 27.105 37.53 22.934999999999995
Ni 25.02 39.615 22.934999999999995
Ni 25.02 37.53 25.019999999999996
Ni 27.105 39.615 25.019999999999996
Ni 27.105 37.53 27.104999999999997
Ni 25.02 39.615 27.104999999999997
Ni 29.189999999999998 0.0 0.0
Ni 31.275 2.085 0.0
Ni 31.275 0.0 2.085
Ni 29.189999999999998 2.085 2.085
Ni 29.189999999999998 0.0 4.169999999999999
Ni 31.275 2.085 4.169999999999999
Ni 31.275 0.0 6.254999999999999
Ni 29.189999999999998 2.085 6.254999999999999
Ni 29.189999999999998 0.0 8.339999999999998
Ni 31.275 2.085 8.339999999999998
Ni 31.275 0.0 10.424999999999997
Ni 29.189999999999998 2.085 10.424999999999997
Ni 29.189999999999998 0.0 12.509999999999998
Ni 31.275 2.085 12.509999999999998
Ni 31.275 0.0 14.594999999999997
Ni 29.189999999999998 2.085 14.594999999999997
Ni 29.189999999999998 0.0 16.679999999999996
Ni 31.275 2.085 16.679999999999996
Ni 31.275 0.0 18.764999999999997
Ni 29.189999999999998 2.085 18.764999999999997
Ni 29.189999999999998 0.0 20.849999999999994
Ni 31.275 2.085 20.849999999999994
Ni 31.275 0.0 22.934999999999995
Ni 29.189999999999998 2.085 22.934999999999995
Ni 29.189999999999998 0.0 25.019999999999996
Ni 31.275 2.085 25.019999999999996
Ni 31.275 0.0 27.104999999999997
Ni 29.189999999999998 2.085 27.104999999999997
Ni 29.189999999999998 4.170000000000001 0.0
Ni 31.275 6.255000000000002 0.0
Ni 31.275 4.170000000000001 2.085
Ni 29.189999999999998 6.255000000000002 2.085
Ni 29.189999999999998 4.170000000000001 4.169999999999999
Ni 31.275 6.255000000000002 4.169999999999999
Ni 31.275 4.170000000000001 6.254999999999999
Ni 29.189999999999998 6.255000000000002 6.254999999999999
Ni 29.189999999999998 4.170000000000001 8.339999999999998
Ni 31.275 6.255000000000002 8.339999999999998
Ni 31.275 4.170000000000001 10.424999999999997
Ni 29.189999999999998 6.255000000000002 10.424999999999997
Ni 29.189999999999998 4.170000000000001 12.509999999999998
Ni 31.275 6.255000000000002 12.509999999999998
Ni 31.275 4.170000000000001 14.594999999999997
Ni 29.189999999999998 6.255000000000002 14.594999999999997
Ni 29.189999999999998 4.170000000000001 16.679999999999996
Ni 31.275 6.255000000000002 16.679999999999996
Ni 31.275 4.170000000000001 18.764999999999997
Ni 29.189999999999998 6.255000000000002 18.764999999999997
Ni 29.189999999999998 4.170000000000001 20.849999999999994
Ni 31.275 6.255000000000002 20.849999999999994
Ni 31.275 4.170000000000001 22.934999999999995
Ni 29.189999999999998 6.255000000000002 22.934999999999995
Ni 29.189999999999998 4.170000000000001 25.019999999999996
Ni 31.275 6.255000000000002 25.019999999999996
Ni 31.275 4.170000000000001 27.104999999999997
Ni 29.189999999999998 8.340000000000002 0.0
Ni 31.275 10.425 0.0
Ni 31.275 8.340000000000002 2.085
Ni 29.189999999999998 10.425 2.085
Ni 29.189999999999998 8.340000000000002 4.169999999999999
Ni 31.275 10.425 4.169999999999999
Ni 31.275 8.340000000000002 6.254999999999999
Ni 29.189999999999998 10.425 6.254999999999999
Ni 29.189999999999998 8.340000000000002 8.339999999999998
Ni 31.275 10.425 8.339999999999998
Ni 31.275 8.340000000000002 10.424999999999997
Ni 29.189999999999998 10.425 10.424999999999997
Ni 29.189999999999998 8.340000000000002 12.509999999999998
Ni 31.275 10.425 12.509999999999998
Ni 31.275 8.340000000000002 14.594999999999997
Ni 29.189999999999998 10.425 14.594999999999997
Ni 29.189999999999998 8.340000000000002 16.679999999999996
Ni 31.275 10.425 16.679999999999996
Ni 31.275 8.340000000000002 18.764999999999997
Ni 29.189999999999998 10.425 18.764999999999997
Ni 29.189999999999998 8.340000000000002 20.849999999999994
Ni 31.275 10.425 20.849999999999994
Ni 31.275 8.340000000000002 22.934999999999995
Ni 29.189999999999998 12.510000000000003 0.0
Ni 31.275 14.595000000000002 0.0
Ni 31.275 12.510000000000003 2.085
Ni 29.189999999999998 14.595000000000002 2.085
Ni 29.189999999999998 12.510000000000003 4.169999999999999
Ni 31.275 14.595000000000002 4.169999999999999
Ni 31.275 12.510000000000003 6.254999999999999
Ni 29.189999999999998 14.595000000000002 6.254999999999999
Ni 29.189999999999998 12.510000000000003 8.339999999999998
Ni 31.275 14.595000000000002 8.339999999999998
Ni 31.275 12.510000000000003 10.424999999999997
Ni 29.189999999999998 14.595000000000002 10.424999999999997
Ni 29.189999999999998 12.510000000000003 12.509999999999998
Ni 31.275 14.595000000000002 12.509999999999998
Ni 31.275 12.510000000000003 14.594999999999997
Ni 29.189999999999998 14.595000000000002 14.594999999999997
Ni 29.189999999999998 12.510000000000003 16.679999999999996
Ni 31.275 14.595000000000002 16.679999999999996
Ni 31.275 12.510000000000003 18.764999999999997
Ni 29.189999999999998 16.680000000000003 0.0
Ni 31.275 18.765000000000004 0.0
Ni 31.275 16.680000000000003 2.085
Ni 29.189999999999998 18.765000000000004 2.085
Ni 29.189999999999998 16.680000000000003 4.169999999999999
Ni 31.275 18.765000000000004 4.169999999999999
Ni 31.275 16.680000000000003 6.254999999999999
Ni 29.189999999999998 18.765000000000004 6.254999999999999
Ni 29.189999999999998 16.680000000000003 8.339999999999998
Ni 31.275 18.765000000000004 8.339999999999998
Ni 31.275 16.680000000000003 10.424999999999997
Ni 29.189999999999998 18.765000000000004 10.424999999999997
Ni 29.189999999999998 16.680000000000003 12.509999999999998
Ni 31.275 18.765000000000004 12.509999999999998
Ni 31.275 16.680000000000003 14.594999999999997
Ni 29.189999999999998 20.849999999999998 0.0
Ni 31.275 22.935000000000002 0.0
Ni 31.275 20.849999999999998 2.085
Ni 29.189999999999998 22.935000000000002 2.085
Ni 29.189999999999998 20.849999999999998 4.169999999999999
Ni 31.275 22.935000000000002 4.169999999999999
Ni 31.275 20.849999999999998 6.254999999999999
Ni 29.189999999999998 22.935000000000002 6.254999999999999
Ni 29.189999999999998 20.849999999999998 8.339999999999998
Ni 31.275 22.935000000000002 8.339999999999998
Ni 31.275 20.849999999999998 10.424999999999997
Ni 29.189999999999998 22.935000000000002 10.424999999999997
Ni 31.275 22.935000000000002 12.509999999999998
Ni 29.189999999999998 25.020000000000007 0.0
Ni 31.275 27.105000000000008 0.0
Ni 31.275 25.020000000000007 2.085
Ni 29.189999999999998 27.105000000000008 2.085
Ni 29.189999999999998 25.020000000000007 4.169999999999999
Ni 31.275 27.105000000000008 4.169999999999999
Ni 31.275 25.020000000000007 6.254999999999999
Ni 29.189999999999998 27.105000000000008 6.254999999999999
Ni 29.189999999999998 25.020000000000007 8.339999999999998
Ni 31.275 27.105000000000008 8.339999999999998
Ni 31.275 25.020000000000007 10.424999999999997
Ni 29.189999999999998 27.105000000000008 10.424999999999997
Ni 29.189999999999998 25.020000000000007 12.509999999999998
Ni 31.275 27.105000000000008 12.509999999999998
Ni 31.275 25.020000000000007 14.594999999999997
Ni 29.189999999999998 27.105000000000008 14.594999999999997
Ni 31.275 27.105000000000008 16.679999999999996
Ni 29.189999999999998 29.190000000000005 0.0
Ni 31.275 31.275000000000006 0.0
Ni 31.275 29.190000000000005 2.085
Ni 29.189999999999998 31.275000000000006 2.085
Ni 29.189999999999998 29.190000000000005 4.169999999999999
Ni 31.275 31.275000000000006 4.169999999999999
Ni 31.275 29.190000000000005 6.254999999999999
Ni 29.189999999999998 31.275000000000006 6.254999999999999
Ni 29.189999999999998 29.190000000000005 8.339999999999998
Ni 31.275 31.275000000000006 8.339999999999998
Ni 31.275 29.190000000000005 10.424999999999997
Ni 29.189999999999998 31.275000000000006 10.424999999999997
Ni 29.189999999999998 29.190000000000005 12.509999999999998
Ni 31.275 31.275000000000006 12.509999999999998
Ni 31.275 29.190000000000005 14.594999999999997
Ni 29.189999999999998 31.275000000000006 14.594999999999997
Ni 29.189999999999998 29.190000000000005 16.679999999999996
Ni 31.275 31.275000000000006 16.679999999999996
Ni 31.275 29.190000000000005 18.764999999999997
Ni 29.189999999999998 31.275000000000006 18.764999999999997
Ni 31.275 31.275000000000006 20.849999999999994
Ni 29.189999999999998 33.36000000000001 0.0
Ni 31.275 35.44500000000001 0.0
Ni 31.275 33.36000000000001 2.085
Ni 29.189999999999998 35.44500000000001 2.085
Ni 29.189999999999998 33.36000000000001 4.169999999999999
Ni 31.275 35.44500000000001 4.169999999999999
Ni 31.275 33.36000000000001 6.254999999999999
Ni 29.189999999999998 35.44500000000001 6.254999999999999
Ni 29.189999999999998 33.36000000000001 8.339999999999998
Ni 31.275 35.44500000000001 8.339999999999998
Ni 31.275 33.36000000000001 10.424999999999997
Ni 29.189999999999998 35.44500000000001 10.424999999999997
Ni 29.189999999999998 33.36000000000001 12.509999999999998
Ni 31.275 35.44500000000001 12.509999999999998
Ni 31.275 33.36000000000001 14.594999999999997
Ni 29.189999999999998 35.44500000000001 14.594999999999997
Ni 29.189999999999998 33.36000000000001 16.679999999999996
Ni 31.275 35.44500000000001 16.679999999999996
Ni 31.275 33.36000000000001 18.764999999999997
Ni 29.189999999999998 35.44500000000001 18.764999999999997
Ni 29.189999999999998 33.36000000000001 20.849999999999994
Ni 31.275 35.44500000000001 20.849999999999994
Ni 31.275 33.36000000000001 22.934999999999995
Ni 29.189999999999998 35.44500000000001 22.934999999999995
Ni 31.275 35.44500000000001 25.019999999999996
Ni 29.189999999999998 37.53 0.0
Ni 31.275 39.615 0.0
Ni 31.275 37.53 2.085
Ni 29.189999999999998 39.615 2.085
Ni 29.189999999999998 37.53 4.169999999999999
Ni 31.275 39.615 4.169999999999999
Ni 31.275 37.53 6.254999999999999
Ni 29.189999999999998 39.615 6.254999999999999
Ni 29.189999999999998 37.53 8.339999999999998
Ni 31.275 39.615 8.339999999999998
Ni 31.275 37.53 10.424999999999997
Ni 29.189999999999998 39.615 10.424999999999997
Ni 29.189999999999998 37.53 12.509999999999998
Ni 31.275 39.615 12.509999999999998
Ni 31.275 37.53 14.594999999999997
Ni 29.189999999999998 39.615 14.594999999999997
Ni 29.189999999999998 37.53 16.679999999999996
Ni 31.275 39.615 16.679999999999996
Ni 31.275 37.53 18.764999999999997
Ni 29.189999999999998 39.615 18.764999999999997
Ni 29.189999999999998 37.53 20.849999999999994
Ni 31.275 39.615 20.849999999999994
Ni 31.275 37.53 22.934999999999995
Ni 29.189999999999998 39.615 22.934999999999995
Ni 29.189999999999998 37.53 25.019999999999996
Ni 31.275 39.615 25.019999999999996
Ni 31.275 37.53 27.104999999999997
Ni 29.189999999999998 39.615 27.104999999999997
Ni 33.36 0.0 0.0
Ni 35.445 2.085 0.0
Ni 35.445 0.0 2.085
Ni 33.36 2.085 2.085
Ni 33.36 0.0 4.169999999999999
Ni 35.445 2.085 4.169999999999999
Ni 35.445 0.0 6.254999999999999
Ni 33.36 2.085 6.254999999999999
Ni 33.36 0.0 8.339999999999998
Ni 35.445 2.085 8.339999999999998
Ni 35.445 0.0 10.424999999999997
Ni 33.36 2.085 10.424999999999997
Ni 33.36 0.0 12.509999999999998
Ni 35.445 2.085 12.509999999999998
Ni 35.445 0.0 14.594999999999997
Ni 33.36 2.085 14.594999999999997
Ni 33.36 0.0 16.679999999999996
Ni 35.445 2.085 16.679999999999996
Ni 35.445 0.0 18.764999999999997
Ni 33.36 2.085 18.764999999999997
Ni 33.36 0.0 20.849999999999994
Ni 35.445 2.085 20.849999999999994
Ni 35.445 0.0 22.934999999999995
Ni 33.36 2.085 22.934999999999995
Ni 33.36 0.0 25.019999999999996
Ni 35.445 2.085 25.019999999999996
Ni 35.445 0.0 27.104999999999997
Ni 33.36 2.085 27.104999999999997
Ni 33.36 4.170000000000001 0.0
Ni 35.445 6.255000000000002 0.0
Ni 35.445 4.170000000000001 2.085
Ni 33.36 6.255000000000002 2.085
Ni 33.36 4.170000000000001 4.169999999999999
Ni 35.445 6.255000000000002 4.169999999999999
Ni 35.445 4.170000000000001 6.254999999999999
Ni 33.36 6.255000000000002 6.254999999999999
Ni 33.36 4.170000000000001 8.339999999999998
Ni 35.445 6.255000000000002 8.339999999999998
Ni 35.445 4.170000000000001 10.424999999999997
Ni 33.36 6.255000000000002 10.424999999999997
Ni 33.36 4.170000000000001 12.509999999999998
Ni 35.445 6.255000000000002 12.509999999999998
Ni 35.445 4.170000000000001 14.594999999999997
Ni 33.36 6.255000000000002 14.594999999999997
Ni 33.36 4.170000000000001 16.679999999999996
Ni 35.445 6.255000000000002 16.679999999999996
Ni 35.445 4.170000000000001 18.764999999999997
Ni 33.36 6.255000000000002 18.764999999999997
Ni 33.36 4.170000000000001 20.849999999999994
Ni 35.445 6.255000000000002 20.849999999999994
Ni 35.445 4.170000000000001 22.934999999999995
Ni 33.36 6.255000000000002 22.934999999999995
Ni 33.36 4.170000000000001 25.019999999999996
Ni 35.445 6.255000000000002 25.019999999999996
Ni 35.445 4.170000000000001 27.104999999999997
Ni 33.36 8.340000000000002 0.0
Ni 35.445 10.425 0.0
Ni 35.445 8.340000000000002 2.085
Ni 33.36 10.425 2.085
Ni 33.36 8.340000000000002 4.169999999999999
Ni 35.445 10.425 4.169999999999999
Ni 35.445 8.340000000000002 6.254999999999999
Ni 33.36 10.425 6.254999999999999
Ni 33.36 8.340000000000002 8.339999999999998
Ni 35.445 10.425 8.339999999999998
Ni 35.445 8.340000000000002 10.424999999999997
Ni 33.36 10.425 10.424999999999997
Ni 33.36 8.340000000000002 12.509999999999998
Ni 35.445 10.425 12.509999999999998
Ni 35.445 8.340000000000002 14.594999999999997
Ni 33.36 10.425 14.594999999999997
Ni 33.36 8.340000000000002 16.679999999999996
Ni 35.445 10.425 16.679999999999996
Ni 35.445 8.340000000000002 18.764999999999997
Ni 33.36 10.425 18.764999999999997
Ni 33.36 8.340000000000002 20.849999999999994
Ni 35.445 10.425 20.849999999999994
Ni 35.445 8.340000000000002 22.934999999999995
Ni 33.36 12.510000000000003 0.0
Ni 35.445 14.595000000000002 0.0
Ni 35.445 12.510000000000003 2.085
Ni 33.36 14.595000000000002 2.085
Ni 33.36 12.510000000000003 4.169999999999999
Ni 35.445 14.595000000000002 4.169999999999999
Ni 35.445 12.510000000000003 6.254999999999999
Ni 33.36 14.595000000000002 6.254999999999999
Ni 33.36 12.510000000000003 8.339999999999998
Ni 35.445 14.595000000000002 8.339999999999998
Ni 35.445 12.510000000000003 10.424999999999997
Ni 33.36 14.595000000000002 10.424999999999997
Ni 33.36 12.510000000000003 12.509999999999998
Ni 35.445 14.595000000000002 12.509999999999998
Ni 35.445 12.510000000000003 14.594999999999997
Ni 33.36 14.595000000000002 14.594999999999997
Ni 33.36 12.510000000000003 16.679999999999996
Ni 35.445 14.595000000000002 16.679999999999996
Ni 35.445 12.510000000000003 18.764999999999997
Ni 33.36 16.680000000000003 0.0
Ni 35.445 18.765000000000004 0.0
Ni 35.445 16.680000000000003 2.085
Ni 33.36 18.765000000000004 2.085
Ni 33.36 16.680000000000003 4.169999999999999
Ni 35.445 18.765000000000004 4.169999999999999
Ni 35.445 16.680000000000003 6.254999999999999
Ni 33.36 18.765000000000004 6.254999999999999
Ni 33.36 16.680000000000003 8.339999999999998
Ni 35.445 18.765000000000004 8.339999999999998
Ni 35.445 16.680000000000003 10.424999999999997
Ni 33.36 18.765000000000004 10.424999999999997
Ni 33.36 16.680000000000003 12.509999999999998
Ni 35.445 18.765000000000004 12.509999999999998
Ni 35.445 16.680000000000003 14.594999999999997
Ni 33.36 20.849999999999998 0.0
Ni 35.445 22.935000000000002 0.0
Ni 35.445 20.849999999999998 2.085
Ni 33.36 22.935000000000002 2.085
Ni 33.36 20.849999999999998 4.169999999999999
Ni 35.445 22.935000000000002 4.169999999999999
Ni 35.445 20.849999999999998 6.254999999999999
Ni 33.36 22.935000000000002 6.254999999999999
Ni 33.36 20.849999999999998 8.339999999999998
Ni 35.445 22.935000000000002 8.339999999999998
Ni 35.445 20.849999999999998 10.424999999999997
Ni 33.36 22.935000000000002 10.424999999999997
Ni 35.445 22.935000000000002 12.509999999999998
Ni 33.36 25.020000000000007 0.0
Ni 35.445 27.105000000000008 0.0
Ni 35.445 25.020000000000007 2.085
Ni 33.36 27.105000000000008 2.085
Ni 33.36 25.020000000000007 4.169999999999999
Ni 35.445 27.105000000000008 4.169999999999999
Ni 35.445 25.020000000000007 6.254999999999999
Ni 33.36 27.105000000000008 6.254999999999999
Ni 33.36 25.020000000000007 8.339999999999998
Ni 35.445 27.105000000000008 8.339999999999998
Ni 35.445 25.020000000000007 10.424999999999997
Ni 33.36 27.105000000000008 10.424999999999997
Ni 33.36 25.020000000000007 12.509999999999998
Ni 35.445 27.105000000000008 12.509999999999998
Ni 35.445 25.020000000000007 14.594999999999997
Ni 33.36 27.105000000000008 14.594999999999997
Ni 35.445 27.105000000000008 16.679999999999996
Ni 33.36 29.190000000000005 0.0
Ni 35.445 31.275000000000006 0.0
Ni 35.445 29.190000000000005 2.085
Ni 33.36 31.275000000000006 2.085
Ni 33.36 29.190000000000005 4.169999999999999
Ni 35.445 31.275000000000006 4.169999999999999
Ni 35.445 29.190000000000005 6.254999999999999
Ni 33.36 31.275000000000006 6.254999999999999
Ni 33.36 29.190000000000005 8.339999999999998
Ni 35.445 31.275000000000006 8.339999999999998
Ni 35.445 29.190000000000005 10.424999999999997
Ni 33.36 31.275000000000006 10.424999999999997
Ni 33.36 29.190000000000005 12.509999999999998
Ni 35.445 31.275000000000006 12.509999999999998
Ni 35.445 29.190000000000005 14.594999999999997
Ni 33.36 31.275000000000006 14.594999999999997
Ni 33.36 29.190000000000005 16.679999999999996
Ni 35.445 31.275000000000006 16.679999999999996
Ni 35.445 29.190000000000005 18.764999999999997
Ni 33.36 31.275000000000006 18.764999999999997
Ni 35.445 31.275000000000006 20.849999999999994
Ni 33.36 33.36000000000001 0.0
Ni 35.445 35.44500000000001 0.0
Ni 35.445 33.36000000000001 2.085
Ni 33.36 35.44500000000001 2.085
Ni 33.36 33.36000000000001 4.169999999999999
Ni 35.445 35.44500000000001 4.169999999999999
Ni 35.445 33.36000000000001 6.254999999999999
Ni 33.36 35.44500000000001 6.254999999999999
Ni 33.36 33.36000000000001 8.339999999999998
Ni 35.445 35.44500000000001 8.339999999999998
Ni 35.445 33.36000000000001 10.424999999999997
Ni 33.36 35.44500000000001 10.424999999999997
Ni 33.36 33.36000000000001 12.509999999999998
Ni 35.445 35.44500000000001 12.509999999999998
Ni 35.445 33.36000000000001 14.594999999999997
Ni 33.36 35.44500000000001 14.594999999999997
Ni 33.36 33.36000000000001 16.679999999999996
Ni 35.445 35.44500000000001 16.679999999999996
Ni 35.445 33.36000000000001 18.764999999999997
Ni 33.36 35.44500000000001 18.764999999999997
Ni 33.36 33.36000000000001 20.849999999999994
Ni 35.445 35.44500000000001 20.849999999999994
Ni 35.445 33.36000000000001 22.934999999999995
Ni 33.36 35.44500000000001 22.934999999999995
Ni 35.445 35.44500000000001 25.019999999999996
Ni 33.36 37.53 0.0
Ni 35.445 39.615 0.0
Ni 35.445 37.53 2.085
Ni 33.36 39.615 2.085
Ni 33.36 37.53 4.169999999999999
Ni 35.445 39.615 4.169999999999999
Ni 35.445 37.53 6.254999999999999
Ni 33.36 39.615 6.254999999999999
Ni 33.36 37.53 8.339999999999998
Ni 35.445 39.615 8.339999999999998
Ni 35.445 37.53 10.424999999999997
Ni 33.36 39.615 10.424999999999997
Ni 33.36 37.53 12.509999999999998
Ni 35.445 39.615 12.509999999999998
Ni 35.445 37.53 14.594999999999997
Ni 33.36 39.615 14.594999999999997
Ni 33.36 37.53 16.679999999999996
Ni 35.445 39.615 16.679999999999996
Ni 35.445 37.53 18.764999999999997
Ni 33.36 39.615 18.764999999999997
Ni 33.36 37.53 20.849999999999994
Ni 35.445 39.615 20.849999999999994
Ni 35.445 37.53 22.934999999999995
Ni 33.36 39.615 22.934999999999995
Ni 33.36 37.53 25.019999999999996
Ni 35.445 39.615 25.019999999999996
Ni 35.445 37.53 27.104999999999997
Ni 33.36 39.615 27.104999999999997
Ni 37.529999999999994 0.0 0.0
Ni 39.614999999999995 2.085 0.0
Ni 39.614999999999995 0.0 2.085
Ni 37.529999999999994 2.085 2.085
Ni 37.529999999999994 0.0 4.169999999999999
Ni 39.614999999999995 2.085 4.169999999999999
Ni 39.614999999999995 0.0 6.254999999999999
Ni 37.529999999999994 2.085 6.254999999999999
Ni 37.529999999999994 0.0 8.339999999999998
Ni 39.614999999999995 2.085 8.339999999999998
Ni 39.614999999999995 0.0 10.424999999999997
Ni 37.529999999999994 2.085 10.424999999999997
Ni 37.529999999999994 0.0 12.509999999999998
Ni 39.614999999999995 2.085 12.509999999999998
Ni 39.614999999999995 0.0 14.594999999999997
Ni 37.529999999999994 2.085 14.594999999999997
Ni 37.529999999999994 0.0 16.679999999999996
Ni 39.614999999999995 2.085 16.679999999999996
Ni 39.614999999999995 0.0 18.764999999999997
Ni 37.529999999999994 2.085 18.764999999999997
Ni 37.529999999999994 0.0 20.849999999999994
Ni 39.614999999999995 2.085 20.849999999999994
Ni 39.614999999999995 0.0 22.934999999999995
Ni 37.529999999999994 2.085 22.934999999999995
Ni 37.529999999999994 0.0 25.019999999999996
Ni 39.614999999999995 2.085 25.019999999999996
Ni 39.614999999999995 0.0 27.104999999999997
Ni 37.529999999999994 2.085 27.104999999999997
Ni 37.529999999999994 4.170000000000001 0.0
Ni 39.614999999999995 6.255000000000002 0.0
Ni 39.614999999999995 4.170000000000001 2.085
Ni 37.529999999999994 6.255000000000002 2.085
Ni 37.529999999999994 4.170000000000001 4.169999999999999
Ni 39.614999999999995 6.255000000000002 4.169999999999999
Ni 39.614999999999995 4.170000000000001 6.254999999999999
Ni 37.529999999999994 6.255000000000002 6.254999999999999
Ni 37.529999999999994 4.170000000000001 8.339999999999998
Ni 39.614999999999995 6.255000000000002 8.339999999999998
Ni 39.614999999999995 4.170000000000001 10.424999999999997
Ni 37.529999999999994 6.255000000000002 10.424999999999997
Ni 37.529999999999994 4.170000000000001 12.509999999999998
Ni 39.614999999999995 6.255000000000002 12.509999999999998
Ni 39.614999999999995 4.170000000000001 14.594999999999997
Ni 37.529999999999994 6.255000000000002 14.594999999999997
Ni 37.529999999999994 4.170000000000001 16.679999999999996
Ni 39.614999999999995 6.255000000000002 16.679999999999996
Ni 39.614999999999995 4.170000000000001 18.764999999999997
Ni 37.529999999999994 6.255000000000002 18.764999999999997
Ni 37.529999999999994 4.170000000000001 20.849999999999994
Ni 39.614999999999995 6.255000000000002 20.849999999999994
Ni 39.614999999999995 4.170000000000001 22.934999999999995
Ni 37.529999999999994 6.255000000000002 22.934999999999995
Ni 37.529999999999994 4.170000000000001 25.019999999999996
Ni 39.614999999999995 6.255000000000002 25.019999999999996
Ni 39.614999999999995 4.170000000000001 27.104999999999997
Ni 37.529999999999994 8.340000000000002 0.0
Ni 39.614999999999995 10.425 0.0
Ni 39.614999999999995 8.340000000000002 2.085
Ni 37.529999999999994 10.425 2.085
Ni 37.529999999999994 8.340000000000002 4.169999999999999
Ni 39.614999999999995 10.425 4.169999999999999
Ni 39.614999999999995 8.340000000000002 6.254999999999999
Ni 37.529999999999994 10.425 6.254999999999999
Ni 37.529999999999994 8.340000000000002 8.339999999999998
Ni 39.614999999999995 10.425 8.339999999999998
Ni 39.614999999999995 8.340000000000002 10.424999999999997
Ni 37.529999999999994 10.425 10.424999999999997
Ni 37.529999999999994 8.340000000000002 12.509999999999998
Ni 39.614999999999995 10.425 12.509999999999998
Ni 39.614999999999995 8.340000000000002 14.594999999999997
Ni 37.529999999999994 10.425 14.594999999999997
Ni 37.529999999999994 8.340000000000002 16.679999999999996
Ni 39.614999999999995 10.425 16.679999999999996
Ni 39.614999999999995 8.340000000000002 18.764999999999997
Ni 37.529999999999994 10.425 18.764999999999997
Ni 37.529999999999994 8.340000000000002 20.849999999999994
Ni 39.614999999999995 10.425 20.849999999999994
Ni 39.614999999999995 8.340000000000002 22.934999999999995
Ni 37.529999999999994 12.510000000000003 0.0
Ni 39.614999999999995 14.595000000000002 0.0
Ni 39.614999999999995 12.510000000000003 2.085
Ni 37.529999999999994 14.595000000000002 2.085
Ni 37.529999999999994 12.510000000000003 4.169999999999999
Ni 39.614999999999995 14.595000000000002 4.169999999999999
Ni 39.614999999999995 12.510000000000003 6.254999999999999
Ni 37.529999999999994 14.595000000000002 6.254999999999999
Ni 37.529999999999994 12.510000000000003 8.339999999999998
Ni 39.614999999999995 14.595000000000002 8.339999999999998
Ni 39.614999999999995 12.510000000000003 10.424999999999997
Ni 37.529999999999994 14.595000000000002 10.424999999999997
Ni 37.529999999999994 12.510000000000003 12.509999999999998
Ni 39.614999999999995 14.595000000000002 12.509999999999998
Ni 39.614999999999995 12.510000000000003 14.594999999999997
Ni 37.529999999999994 14.595000000000002 14.594999999999997
Ni 37.529999999999994 12.510000000000003 16.679999999999996
Ni 39.614999999999995 14.595000000000002 16.679999999999996
Ni 39.614999999999995 12.510000000000003 18.764999999999997
Ni 37.529999999999994 16.680000000000003 0.0
Ni 39.614999999999995 18.765000000000004 0.0
Ni 39.614999999999995 16.680000000000003 2.085
Ni 37.529999999999994 18.765000000000004 2.085
Ni 37.529999999999994 16.680000000000003 4.169999999999999
Ni 39.614999999999995 18.765000000000004 4.169999999999999
Ni 39.614999999999995 16.680000000000003 6.254999999999999
Ni 37.529999999999994 18.765000000000004 6.254999999999999
Ni 37.529999999999994 16.680000000000003 8.339999999999998
Ni 39.614999999999995 18.765000000000004 8.339999999999998
Ni 39.614999999999995 16.680000000000003 10.424999999999997
Ni 37.529999999999994 18.765000000000004 10.424999999999997
Ni 37.529999999999994 16.680000000000003 12.509999999999998
Ni 39.614999999999995 18.765000000000004 12.509999999999998
Ni 39.614999999999995 16.680000000000003 14.594999999999997
Ni 37.529999999999994 20.849999999999998 0.0
Ni 39.614999999999995 22.935000000000002 0.0
Ni 39.614999999999995 20.849999999999998 2.085
Ni 37.529999999999994 22.935000000000002 2.085
Ni 37.529999999999994 20.849999999999998 4.169999999999999
Ni 39.614999999999995 22.935000000000002 4.169999999999999
Ni 39.614999999999995 20.849999999999998 6.254999999999999
Ni 37.529999999999994 22.935000000000002 6.254999999999999
Ni 37.529999999999994 20.849999999999998 8.339999999999998
Ni 39.614999999999995 22.935000000000002 8.339999999999998
Ni 39.614999999999995 20.849999999999998 10.424999999999997
Ni 37.529999999999994 22.935000000000002 10.424999999999997
Ni 39.614999999999995 22.935000000000002 12.509999999999998
Ni 37.529999999999994 25.020000000000007 0.0
Ni 39.614999999999995 27.105000000000008 0.0
Ni 39.614999999999995 25.020000000000007 2.085
Ni 37.529999999999994 27.105000000000008 2.085
Ni 37.529999999999994 25.020000000000007 4.169999999999999
Ni 39.614999999999995 27.105000000000008 4.169999999999999
Ni 39.614999999999995 25.020000000000007 6.254999999999999
Ni 37.529999999999994 27.105000000000008 6.254999999999999
Ni 37.529999999999994 25.020000000000007 8.339999999999998
Ni 39.614999999999995 27.105000000000008 8.339999999999998
Ni 39.614999999999995 25.020000000000007 10.424999999999997
Ni 37.529999999999994 27.105000000000008 10.424999999999997
Ni 37.529999999999994 25.020000000000007 12.509999999999998
Ni 39.614999999999995 27.105000000000008 12.509999999999998
Ni 39.614999999999995 25.020000000000007 14.594999999999997
Ni 37.529999999999994 27.105000000000008 14.594999999999997
Ni 39.614999999999995 27.105000000000008 16.679999999999996
Ni 37.529999999999994 29.190000000000005 0.0
Ni 39.614999999999995 31.275000000000006 0.0
Ni 39.614999999999995 29.190000000000005 2.085
Ni 37.529999999999994 31.275000000000006 2.085
Ni 37.529999999999994 29.190000000000005 4.169999999999999
Ni 39.614999999999995 31.275000000000006 4.169999999999999
Ni 39.614999999999995 29.190000000000005 6.254999999999999
Ni 37.529999999999994 31.275000000000006 6.254999999999999
Ni 37.529999999999994 29.190000000000005 8.339999999999998
Ni 39.614999999999995 31.275000000000006 8.339999999999998
Ni 39.614999999999995 29.190000000000005 10.424999999999997
Ni 37.529999999999994 31.275000000000006 10.424999999999997
Ni 37.529999999999994 29.190000000000005 12.509999999999998
Ni 39.614999999999995 31.275000000000006 12.509999999999998
Ni 39.614999999999995 29.190000000000005 14.594999999999997
Ni 37.529999999999994 31.275000000000006 14.594999999999997
Ni 37.529999999999994 29.190000000000005 16.679999999999996
Ni 39.614999999999995 31.275000000000006 16.679999999999996
Ni 39.614999999999995 29.190000000000005 18.764999999999997
Ni 37.529999999999994 31.275000000000006 18.764999999999997
Ni 39.614999999999995 31.275000000000006 20.849999999999994
Ni 37.529999999999994 33.36000000000001 0.0
Ni 39.614999999999995 35.44500000000001 0.0
Ni 39.614999999999995 33.36000000000001 2.085
Ni 37.529999999999994 35.44500000000001 2.085
Ni 37.529999999999994 33.36000000000001 4.169999999999999
Ni 39.614999999999995 35.44500000000001 4.169999999999999
Ni 39.614999999999995 33.36000000000001 6.254999999999999
Ni 37.529999999999994 35.44500000000001 6.254999999999999
Ni 37.529999999999994 33.36000000000001 8.339999999999998
Ni 39.614999999999995 35.44500000000001 8.339999999999998
Ni 39.614999999999995 33.36000000000001 10.424999999999997
Ni 37.529999999999994 35.44500000000001 10.424999999999997
Ni 37.529999999999994 33.36000000000001 12.509999999999998
Ni 39.614999999999995 35.44500000000001 12.509999999999998
Ni 39.614999999999995 33.36000000000001 14.594999999999997
Ni 37.529999999999994 35.44500000000001 14.594999999999997
Ni 37.529999999999994 33.36000000000001 16.679999999999996
Ni 39.614999999999995 35.44500000000001 16.679999999999996
Ni 39.614999999999995 33.36000000000001 18.764999999999997
Ni 37.529999999999994 35.44500000000001 18.764999999999997
Ni 37.529999999999994 33.36000000000001 20.849999999999994
Ni 39.614999999999995 35.44500000000001 20.849999999999994
Ni 39.614999999999995 33.36000000000001 22.934999999999995
Ni 37.529999999999994 35.44500000000001 22.934999999999995
Ni 39.614999999999995 35.44500000000001 25.019999999999996
Ni 37.529999999999994 37.53 0.0
Ni 39.614999999999995 39.615 0.0
Ni 39.614999999999995 37.53 2.085
Ni 37.529999999999994 39.615 2.085
Ni 37.529999999999994 37.53 4.169999999999999
Ni 39.614999999999995 39.615 4.169999999999999
Ni 39.614999999999995 37.53 6.254999999999999
Ni 37.529999999999994 39.615 6.254999999999999
Ni 37.529999999999994 37.53 8.339999999999998
Ni 39.614999999999995 39.615 8.339999999999998
Ni 39.614999999999995 37.53 10.424999999999997
Ni 37.529999999999994 39.615 10.424999999999997
Ni 37.529999999999994 37.53 12.509999999999998
Ni 39.614999999999995 39.615 12.509999999999998
Ni 39.614999999999995 37.53 14.594999999999997
Ni 37.529999999999994 39.615 14.594999999999997
Ni 37.529999999999994 37.53 16.679999999999996
Ni 39.614999999999995 39.615 16.679999999999996
Ni 39.614999999999995 37.53 18.764999999999997
Ni 37.529999999999994 39.615 18.764999999999997
Ni 37.529999999999994 37.53 20.849999999999994
Ni 39.614999999999995 39.615 20.849999999999994
Ni 39.614999999999995 37.53 22.934999999999995
Ni 37.529999999999994 39.615 22.934999999999995
Ni 37.529999999999994 37.53 25.019999999999996
Ni 39.614999999999995 39.615 25.019999999999996
Ni 39.614999999999995 37.53 27.104999999999997
Ni 37.529999999999994 39.615 27.104999999999997
Ni 41.699999999999996 0.0 0.0
Ni 43.785 2.085 0.0
Ni 43.785 0.0 2.085
Ni 41.699999999999996 2.085 2.085
Ni 41.699999999999996 0.0 4.169999999999999
Ni 43.785 2.085 4.169999999999999
Ni 43.785 0.0 6.254999999999999
Ni 41.699999999999996 2.085 6.254999999999999
Ni 41.699999999999996 0.0 8.339999999999998
Ni 43.785 2.085 8.339999999999998
Ni 43.785 0.0 10.424999999999997
Ni 41.699999999999996 2.085 10.424999999999997
Ni 41.699999999999996 0.0 12.509999999999998
Ni 43.785 2.085 12.509999999999998
Ni 43.785 0.0 14.594999999999997
Ni 41.699999999999996 2.085 14.594999999999997
Ni 41.699999999999996 0.0 16.679999999999996
Ni 43.785 2.085 16.679999999999996
Ni 43.785 0.0 18.764999999999997
Ni 41.699999999999996 2.085 18.764999999999997
Ni 41.699999999999996 0.0 20.849999999999994
Ni 43.785 2.085 20.849999999999994
Ni 43.785 0.0 22.934999999999995
Ni 41.699999999999996 2.085 22.934999999999995
Ni 41.699999999999996 0.0 25.019999999999996
Ni 43.785 2.085 25.019999999999996
Ni 43.785 0.0 27.104999999999997
Ni 41.699999999999996 2.085 27.104999999999997
Ni 41.699999999999996 4.170000000000001 0.0
Ni 43.785 6.255000000000002 0.0
Ni 43.785 4.170000000000001 2.085
Ni 41.699999999999996 6.255000000000002 2.085
Ni 41.699999999999996 4.170000000000001 4.169999999999999
Ni 43.785 6.255000000000002 4.169999999999999
Ni 43.785 4.170000000000001 6.254999999999999
Ni 41.699999999999996 6.255000000000002 6.254999999999999
Ni 41.699999999999996 4.170000000000001 8.339999999999998
Ni 43.785 6.255000000000002 8.339999999999998
Ni 43.785 4.170000000000001 10.424999999999997
Ni 41.699999999999996 6.255000000000002 10.424999999999997
Ni 41.699999999999996 4.170000000000001 12.509999999999998
Ni 43.785 6.255000000000002 12.509999999999998
Ni 43.785 4.170000000000001 14.594999999999997
Ni 41.699999999999996 6.255000000000002 14.594999999999997
Ni 41.699999999999996 4.170000000000001 16.679999999999996
Ni 43.785 6.255000000000002 16.679999999999996
Ni 43.785 4.170000000000001 18.764999999999997
Ni 41.699999999999996 6.255000000000002 18.764999999999997
Ni 41.699999999999996 4.170000000000001 20.849999999999994
Ni 43.785 6.255000000000002 20.849999999999994
Ni 43.785 4.170000000000001 22.934999999999995
Ni 41.699999999999996 6.255000000000002 22.934999999999995
Ni 41.699999999999996 4.170000000000001 25.019999999999996
Ni 43.785 6.255000000000002 25.019999999999996
Ni 43.785 4.170000000000001 27.104999999999997
Ni 41.699999999999996 8.340000000000002 0.0
Ni 43.785 10.425 0.0
Ni 43.785 8.340000000000002 2.085
Ni 41.699999999999996 10.425 2.085
Ni 41.699999999999996 8.340000000000002 4.169999999999999
Ni 43.785 10.425 4.169999999999999
Ni 43.785 8.340000000000002 6.254999999999999
Ni 41.699999999999996 10.425 6.254999999999999
Ni 41.699999999999996 8.340000000000002 8.339999999999998
Ni 43.785 10.425 8.339999999999998
Ni 43.785 8.340000000000002 10.424999999999997
Ni 41.699999999999996 10.425 10.424999999999997
Ni 41.699999999999996 8.340000000000002 12.509999999999998
Ni 43.785 10.425 12.509999999999998
Ni 43.785 8.340000000000002 14.594999999999997
Ni 41.699999999999996 10.425 14.594999999999997
Ni 41.699999999999996 8.340000000000002 16.679999999999996
Ni 43.785 10.425 16.679999999999996
Ni 43.785 8.340000000000002 18.764999999999997
Ni 41.699999999999996 10.425 18.764999999999997
Ni 41.699999999999996 8.340000000000002 20.849999999999994
Ni 43.785 10.425 20.849999999999994
Ni 43.785 8.340000000000002 22.934999999999995
Ni 41.699999999999996 12.510000000000003 0.0
Ni 43.785 14.595000000000002 0.0
Ni 43.785 12.510000000000003 2.085
Ni 41.699999999999996 14.595000000000002 2.085
Ni 41.699999999999996 12.510000000000003 4.169999999999999
Ni 43.785 14.595000000000002 4.169999999999999
Ni 43.785 12.510000000000003 6.254999999999999
Ni 41.699999999999996 14.595000000000002 6.254999999999999
Ni 41.699999999999996 12.510000000000003 8.339999999999998
Ni 43.785 14.595000000000002 8.339999999999998
Ni 43.785 12.510000000000003 10.424999999999997
Ni 41.699999999999996 14.595000000000002 10.424999999999997
Ni 41.699999999999996 12.510000000000003 12.509999999999998
Ni 43.785 14.595000000000002 12.509999999999998
Ni 43.785 12.510000000000003 14.594999999999997
Ni 41.699999999999996 14.595000000000002 14.594999999999997
Ni 41.699999999999996 12.510000000000003 16.679999999999996
Ni 43.785 14.595000000000002 16.679999999999996
Ni 43.785 12.510000000000003 18.764999999999997
Ni 41.699999999999996 16.680000000000003 0.0
Ni 43.785 18.765000000000004 0.0
Ni 43.785 16.680000000000003 2.085
Ni 41.699999999999996 18.765000000000004 2.085
Ni 41.699999999999996 16.680000000000003 4.169999999999999
Ni 43.785 18.765000000000004 4.169999999999999
Ni 43.785 16.680000000000003 6.254999999999999
Ni 41.699999999999996 18.765000000000004 6.254999999999999
Ni 41.699999999999996 16.680000000000003 8.339999999999998
Ni 43.785 18.765000000000004 8.339999999999998
Ni 43.785 16.680000000000003 10.424999999999997
Ni 41.699999999999996 18.765000000000004 10.424999999999997
Ni 41.699999999999996 16.680000000000003 12.509999999999998
Ni 43.785 18.765000000000004 12.509999999999998
Ni 43.785 16.680000000000003 14.594999999999997
Ni 41.699999999999996 20.849999999999998 0.0
Ni 43.785 22.935000000000002 0.0
Ni 43.785 20.849999999999998 2.085
Ni 41.699999999999996 22.935000000000002 2.085
Ni 41.699999999999996 20.849999999999998 4.169999999999999
Ni 43.785 22.935000000000002 4.169999999999999
Ni 43.785 20.849999999999998 6.254999999999999
Ni 41.699999999999996 22.935000000000002 6.254999999999999
Ni 41.699999999999996 20.849999999999998 8.339999999999998
Ni 43.785 22.935000000000002 8.339999999999998
Ni 43.785 20.849999999999998 10.424999999999997
Ni 41.699999999999996 22.935000000000002 10.424999999999997
Ni 43.785 22.935000000000002 12.509999999999998
Ni 41.699999999999996 25.020000000000007 0.0
Ni 43.785 27.105000000000008 0.0
Ni 43.785 25.020000000000007 2.085
Ni 41.699999999999996 27.105000000000008 2.085
Ni 41.699999999999996 25.020000000000007 4.169999999999999
Ni 43.785 27.105000000000008 4.169999999999999
Ni 43.785 25.020000000000007 6.254999999999999
Ni 41.699999999999996 27.105000000000008 6.254999999999999
Ni 41.699999999999996 25.020000000000007 8.339999999999998
Ni 43.785 27.105000000000008 8.339999999999998
Ni 43.785 25.020000000000007 10.424999999999997
Ni 41.699999999999996 27.105000000000008 10.424999999999997
Ni 41.699999999999996 25.020000000000007 12.509999999999998
Ni 43.785 27.105000000000008 12.509999999999998
Ni 43.785 25.020000000000007 14.594999999999997
Ni 41.699999999999996 27.105000000000008 14.594999999999997
Ni 43.785 27.105000000000008 16.679999999999996
Ni 41.699999999999996 29.190000000000005 0.0
Ni 43.785 31.275000000000006 0.0
Ni 43.785 29.190000000000005 2.085
Ni 41.699999999999996 31.275000000000006 2.085
Ni 41.699999999999996 29.190000000000005 4.169999999999999
Ni 43.785 31.275000000000006 4.169999999999999
Ni 43.785 29.190000000000005 6.254999999999999
Ni 41.699999999999996 31.275000000000006 6.254999999999999
Ni 41.699999999999996 29.190000000000005 8.339999999999998
Ni 43.785 31.275000000000006 8.339999999999998
Ni 43.785 29.190000000000005 10.424999999999997
Ni 41.699999999999996 31.275000000000006 10.424999999999997
Ni 41.699999999999996 29.190000000000005 12.509999999999998
Ni 43.785 31.275000000000006 12.509999999999998
Ni 43.785 29.190000000000005 14.594999999999997
Ni 41.699999999999996 31.275000000000006 14.594999999999997
Ni 41.699999999999996 29.190000000000005 16.679999999999996
Ni 43.785 31.275000000000006 16.679999999999996
Ni 43.785 29.190000000000005 18.764999999999997
Ni 41.699999999999996 31.275000000000006 18.764999999999997
Ni 43.785 31.275000000000006 20.849999999999994
Ni 41.699999999999996 33.36000000000001 0.0
Ni 43.785 35.44500000000001 0.0
Ni 43.785 33.36000000000001 2.085
Ni 41.699999999999996 35.44500000000001 2.085
Ni 41.699999999999996 33.36000000000001 4.169999999999999
Ni 43.785 35.44500000000001 4.169999999999999
Ni 43.785 33.36000000000001 6.254999999999999
Ni 41.699999999999996 35.44500000000001 6.254999999999999
Ni 41.699999999999996 33.36000000000001 8.339999999999998
Ni 43.785 35.44500000000001 8.339999999999998
Ni 43.785 33.36000000000001 10.424999999999997
Ni 41.699999999999996 35.44500000000001 10.424999999999997
Ni 41.699999999999996 33.36000000000001 12.509999999999998
Ni 43.785 35.44500000000001 12.509999999999998
Ni 43.785 33.36000000000001 14.594999999999997
Ni 41.699999999999996 35.44500000000001 14.594999999999997
Ni 41.699999999999996 33.36000000000001 16.679999999999996
Ni 43.785 35.44500000000001 16.679999999999996
Ni 43.785 33.36000000000001 18.764999999999997
Ni 41.699999999999996 35.44500000000001 18.764999999999997
Ni 41.699999999999996 33.36000000000001 20.849999999999994
Ni 43.785 35.44500000000001 20.849999999999994
Ni 43.785 33.36000000000001 22.934999999999995
Ni 41.699999999999996 35.44500000000001 22.934999999999995
Ni 43.785 35.44500000000001 25.019999999999996
Ni 41.699999999999996 37.53 0.0
Ni 43.785 39.615 0.0
Ni 43.785 37.53 2.085
Ni 41.699999999999996 39.615 2.085
Ni 41.699999999999996 37.53 4.169999999999999
Ni 43.785 39.615 4.169999999999999
Ni 43.785 37.53 6.254999999999999
Ni 41.699999999999996 39.615 6.254999999999999
Ni 41.699999999999996 37.53 8.339999999999998
Ni 43.785 39.615 8.339999999999998
Ni 43.785 37.53 10.424999999999997
Ni 41.699999999999996 39.615 10.424999999999997
Ni 41.699999999999996 37.53 12.509999999999998
Ni 43.785 39.615 12.509999999999998
Ni 43.785 37.53 14.594999999999997
Ni 41.699999999999996 39.615 14.594999999999997
Ni 41.699999999999996 37.53 16.679999999999996
Ni 43.785 39.615 16.679999999999996
Ni 43.785 37.53 18.764999999999997
Ni 41.699999999999996 39.615 18.764999999999997
Ni 41.699999999999996 37.53 20.849999999999994
Ni 43.785 39.615 20.849999999999994
Ni 43.785 37.53 22.934999999999995
Ni 41.699999999999996 39.615 22.934999999999995
Ni 41.699999999999996 37.53 25.019999999999996
Ni 43.785 39.615 25.019999999999996
Ni 43.785 37.53 27.104999999999997
Ni 41.699999999999996 39.615 27.104999999999997
Ni 45.87 0.0 0.0
Ni 47.955 2.085 0.0
Ni 47.955 0.0 2.085
Ni 45.87 2.085 2.085
Ni 45.87 0.0 4.169999999999999
Ni 47.955 2.085 4.169999999999999
Ni 47.955 0.0 6.254999999999999
Ni 45.87 2.085 6.254999999999999
Ni 45.87 0.0 8.339999999999998
Ni 47.955 2.085 8.339999999999998
Ni 47.955 0.0 10.424999999999997
Ni 45.87 2.085 10.424999999999997
Ni 45.87 0.0 12.509999999999998
Ni 47.955 2.085 12.509999999999998
Ni 47.955 0.0 14.594999999999997
Ni 45.87 2.085 14.594999999999997
Ni 45.87 0.0 16.679999999999996
Ni 47.955 2.085 16.679999999999996
Ni 47.955 0.0 18.764999999999997
Ni 45.87 2.085 18.764999999999997
Ni 45.87 0.0 20.849999999999994
Ni 47.955 2.085 20.849999999999994
Ni 47.955 0.0 22.934999999999995
Ni 45.87 2.085 22.934999999999995
Ni 45.87 0.0 25.019999999999996
Ni 47.955 2.085 25.019999999999996
Ni 47.955 0.0 27.104999999999997
Ni 45.87 2.085 27.104999999999997
Ni 45.87 4.170000000000001 0.0
Ni 47.955 6.255000000000002 0.0
Ni 47.955 4.170000000000001 2.085
Ni 45.87 6.255000000000002 2.085
Ni 45.87 4.170000000000001 4.169999999999999
Ni 47.955 6.255000000000002 4.169999999999999
Ni 47.955 4.170000000000001 6.254999999999999
Ni 45.87 6.255000000000002 6.254999999999999
Ni 45.87 4.170000000000001 8.339999999999998
Ni 47.955 6.255000000000002 8.339999999999998
Ni 47.955 4.170000000000001 10.424999999999997
Ni 45.87 6.255000000000002 10.424999999999997
Ni 45.87 4.170000000000001 12.509999999999998
Ni 47.955 6.255000000000002 12.509999999999998
Ni 47.955 4.170000000000001 14.594999999999997
Ni 45.87 6.255000000000002 14.594999999999997
Ni 45.87 4.170000000000001 16.679999999999996
Ni 47.955 6.255000000000002 16.679999999999996
Ni 47.955 4.170000000000001 18.764999999999997
Ni 45.87 6.255000000000002 18.764999999999997
Ni 45.87 4.170000000000001 20.849999999999994
Ni 47.955 6.255000000000002 20.849999999999994
Ni 47.955 4.170000000000001 22.934999999999995
Ni 45.87 6.255000000000002 22.934999999999995
Ni 45.87 4.170000000000001 25.019999999999996
Ni 47.955 6.255000000000002 25.019999999999996
Ni 47.955 4.170000000000001 27.104999999999997
Ni 45.87 8.340000000000002 0.0
Ni 47.955 10.425 0.0
Ni 47.955 8.340000000000002 2.085
Ni 45.87 10.425 2.085
Ni 45.87 8.340000000000002 4.169999999999999
Ni 47.955 10.425 4.169999999999999
Ni 47.955 8.340000000000002 6.254999999999999
Ni 45.87 10.425 6.254999999999999
Ni 45.87 8.340000000000002 8.339999999999998
Ni 47.955 10.425 8.339999999999998
Ni 47.955 8.340000000000002 10.424999999999997
Ni 45.87 10.425 10.424999999999997
Ni 45.87 8.340000000000002 12.509999999999998
Ni 47.955 10.425 12.509999999999998
Ni 47.955 8.340000000000002 14.594999999999997
Ni 45.87 10.425 14.594999999999997
Ni 45.87 8.340000000000002 16.679999999999996
Ni 47.955 10.425 16.679999999999996
Ni 47.955 8.340000000000002 18.764999999999997
Ni 45.87 10.425 18.764999999999997
Ni 45.87 8.340000000000002 20.849999999999994
Ni 47.955 10.425 20.849999999999994
Ni 47.955 8.340000000000002 22.934999999999995
Ni 45.87 12.510000000000003 0.0
Ni 47.955 14.595000000000002 0.0
Ni 47.955 12.510000000000003 2.085
Ni 45.87 14.595000000000002 2.085
Ni 45.87 12.510000000000003 4.169999999999999
Ni 47.955 14.595000000000002 4.169999999999999
Ni 47.955 12.510000000000003 6.254999999999999
Ni 45.87 14.595000000000002 6.254999999999999
Ni 45.87 12.510000000000003 8.339999999999998
Ni 47.955 14.595000000000002 8.339999999999998
Ni 47.955 12.510000000000003 10.424999999999997
Ni 45.87 14.595000000000002 10.424999999999997
Ni 45.87 12.510000000000003 12.509999999999998
Ni 47.955 14.595000000000002 12.509999999999998
Ni 47.955 12.510000000000003 14.594999999999997
Ni 45.87 14.595000000000002 14.594999999999997
Ni 45.87 12.510000000000003 16.679999999999996
Ni 47.955 14.595000000000002 16.679999999999996
Ni 47.955 12.510000000000003 18.764999999999997
Ni 45.87 16.680000000000003 0.0
Ni 47.955 18.765000000000004 0.0
Ni 47.955 16.680000000000003 2.085
Ni 45.87 18.765000000000004 2.085
Ni 45.87 16.680000000000003 4.169999999999999
Ni 47.955 18.765000000000004 4.169999999999999
Ni 47.955 16.680000000000003 6.254999999999999
Ni 45.87 18.765000000000004 6.254999999999999
Ni 45.87 16.680000000000003 8.339999999999998
Ni 47.955 18.765000000000004 8.339999999999998
Ni 47.955 16.680000000000003 10.424999999999997
Ni 45.87 18.765000000000004 10.424999999999997
Ni 45.87 16.680000000000003 12.509999999999998
Ni 47.955 18.765000000000004 12.509999999999998
Ni 47.955 16.680000000000003 14.594999999999997
Ni 45.87 20.849999999999998 0.0
Ni 47.955 22.935000000000002 0.0
Ni 47.955 20.849999999999998 2.085
Ni 45.87 22.935000000000002 2.085
Ni 45.87 20.849999999999998 4.169999999999999
Ni 47.955 22.935000000000002 4.169999999999999
Ni 47.955 20.849999999999998 6.254999999999999
Ni 45.87 22.935000000000002 6.254999999999999
Ni 45.87 20.849999999999998 8.339999999999998
Ni 47.955 22.935000000000002 8.339999999999998
Ni 47.955 20.849999999999998 10.424999999999997
Ni 45.87 22.935000000000002 10.424999999999997
Ni 47.955 22.935000000000002 12.509999999999998
Ni 45.87 25.020000000000007 0.0
Ni 47.955 27.105000000000008 0.0
Ni 47.955 25.020000000000007 2.085
Ni 45.87 27.105000000000008 2.085
Ni 45.87 25.020000000000007 4.169999999999999
Ni 47.955 27.105000000000008 4.169999999999999
Ni 47.955 25.020000000000007 6.254999999999999
Ni 45.87 27.105000000000008 6.254999999999999
Ni 45.87 25.020000000000007 8.339999999999998
Ni 47.955 27.105000000000008 8.339999999999998
Ni 47.955 25.020000000000007 10.424999999999997
Ni 45.87 27.105000000000008 10.424999999999997
Ni 45.87 25.020000000000007 12.509999999999998
Ni 47.955 27.105000000000008 12.509999999999998
Ni 47.955 25.020000000000007 14.594999999999997
Ni 45.87 27.105000000000008 14.594999999999997
Ni 47.955 27.105000000000008 16.679999999999996
Ni 45.87 29.190000000000005 0.0
Ni 47.955 31.275000000000006 0.0
Ni 47.955 29.190000000000005 2.085
Ni 45.87 31.275000000000006 2.085
Ni 45.87 29.190000000000005 4.169999999999999
Ni 47.955 31.275000000000006 4.169999999999999
Ni 47.955 29.190000000000005 6.254999999999999
Ni 45.87 31.275000000000006 6.254999999999999
Ni 45.87 29.190000000000005 8.339999999999998
Ni 47.955 31.275000000000006 8.339999999999998
Ni 47.955 29.190000000000005 10.424999999999997
Ni 45.87 31.275000000000006 10.424999999999997
Ni 45.87 29.190000000000005 12.509999999999998
Ni 47.955 31.275000000000006 12.509999999999998
Ni 47.955 29.190000000000005 14.594999999999997
Ni 45.87 31.275000000000006 14.594999999999997
Ni 45.87 29.190000000000005 16.679999999999996
Ni 47.955 31.275000000000006 16.679999999999996
Ni 47.955 29.190000000000005 18.764999999999997
Ni 45.87 31.275000000000006 18.764999999999997
Ni 47.955 31.275000000000006 20.849999999999994
Ni 45.87 33.36000000000001 0.0
Ni 47.955 35.44500000000001 0.0
Ni 47.955 33.36000000000001 2.085
Ni 45.87 35.44500000000001 2.085
Ni 45.87 33.36000000000001 4.169999999999999
Ni 47.955 35.44500000000001 4.169999999999999
Ni 47.955 33.36000000000001 6.254999999999999
Ni 45.87 35.44500000000001 6.254999999999999
Ni 45.87 33.36000000000001 8.339999999999998
Ni 47.955 35.44500000000001 8.339999999999998
Ni 47.955 33.36000000000001 10.424999999999997
Ni 45.87 35.44500000000001 10.424999999999997
Ni 45.87 33.36000000000001 12.509999999999998
Ni 47.955 35.44500000000001 12.509999999999998
Ni 47.955 33.36000000000001 14.594999999999997
Ni 45.87 35.44500000000001 14.594999999999997
Ni 45.87 33.36000000000001 16.679999999999996
Ni 47.955 35.44500000000001 16.679999999999996
Ni 47.955 33.36000000000001 18.764999999999997
Ni 45.87 35.44500000000001 18.764999999999997
Ni 45.87 33.36000000000001 20.849999999999994
Ni 47.955 35.44500000000001 20.849999999999994
Ni 47.955 33.36000000000001 22.934999999999995
Ni 45.87 35.44500000000001 22.934999999999995
Ni 47.955 35.44500000000001 25.019999999999996
Ni 45.87 37.53 0.0
Ni 47.955 39.615 0.0
Ni 47.955 37.53 2.085
Ni 45.87 39.615 2.085
Ni 45.87 37.53 4.169999999999999
Ni 47.955 39.615 4.169999999999999
Ni 47.955 37.53 6.254999999999999
Ni 45.87 39.615 6.254999999999999
Ni 45.87 37.53 8.339999999999998
Ni 47.955 39.615 8.339999999999998
Ni 47.955 37.53 10.424999999999997
Ni 45.87 39.615 10.424999999999997
Ni 45.87 37.53 12.509999999999998
Ni 47.955 39.615 12.509999999999998
Ni 47.955 37.53 14.594999999999997
Ni 45.87 39.615 14.594999999999997
Ni 45.87 37.53 16.679999999999996
Ni 47.955 39.615 16.679999999999996
Ni 47.955 37.53 18.764999999999997
Ni 45.87 39.615 18.764999999999997
Ni 45.87 37.53 20.849999999999994
Ni 47.955 39.615 20.849999999999994
Ni 47.955 37.53 22.934999999999995
Ni 45.87 39.615 22.934999999999995
Ni 45.87 37.53 25.019999999999996
Ni 47.955 39.615 25.019999999999996
Ni 47.955 37.53 27.104999999999997
Ni 45.87 39.615 27.104999999999997
Ni 50.04 0.0 0.0
Ni 52.125 2.085 0.0
Ni 52.125 0.0 2.085
Ni 50.04 2.085 2.085
Ni 50.04 0.0 4.169999999999999
Ni 52.125 2.085 4.169999999999999
Ni 52.125 0.0 6.254999999999999
Ni 50.04 2.085 6.254999999999999
Ni 50.04 0.0 8.339999999999998
Ni 52.125 2.085 8.339999999999998
Ni 52.125 0.0 10.424999999999997
Ni 50.04 2.085 10.424999999999997
Ni 50.04 0.0 12.509999999999998
Ni 52.125 2.085 12.509999999999998
Ni 52.125 0.0 14.594999999999997
Ni 50.04 2.085 14.594999999999997
Ni 50.04 0.0 16.679999999999996
Ni 52.125 2.085 16.679999999999996
Ni 52.125 0.0 18.764999999999997
Ni 50.04 2.085 18.764999999999997
Ni 50.04 0.0 20.849999999999994
Ni 52.125 2.085 20.849999999999994
Ni 52.125 0.0 22.934999999999995
Ni 50.04 2.085 22.934999999999995
Ni 50.04 0.0 25.019999999999996
Ni 52.125 2.085 25.019999999999996
Ni 52.125 0.0 27.104999999999997
Ni 50.04 2.085 27.104999999999997
Ni 50.04 4.170000000000001 0.0
Ni 52.125 6.255000000000002 0.0
Ni 52.125 4.170000000000001 2.085
Ni 50.04 6.255000000000002 2.085
Ni 50.04 4.170000000000001 4.169999999999999
Ni 52.125 6.255000000000002 4.169999999999999
Ni 52.125 4.170000000000001 6.254999999999999
Ni 50.04 6.255000000000002 6.254999999999999
Ni 50.04 4.170000000000001 8.339999999999998
Ni 52.125 6.255000000000002 8.339999999999998
Ni 52.125 4.170000000000001 10.424999999999997
Ni 50.04 6.255000000000002 10.424999999999997
Ni 50.04 4.170000000000001 12.509999999999998
Ni 52.125 6.255000000000002 12.509999999999998
Ni 52.125 4.170000000000001 14.594999999999997
Ni 50.04 6.255000000000002 14.594999999999997
Ni 50.04 4.170000000000001 16.679999999999996
Ni 52.125 6.255000000000002 16.679999999999996
Ni 52.125 4.170000000000001 18.764999999999997
Ni 50.04 6.255000000000002 18.764999999999997
Ni 50.04 4.170000000000001 20.849999999999994
Ni 52.125 6.255000000000002 20.849999999999994
Ni 52.125 4.170000000000001 22.934999999999995
Ni 50.04 6.255000000000002 22.934999999999995
Ni 50.04 4.170000000000001 25.019999999999996
Ni 52.125 6.255000000000002 25.019999999999996
Ni 52.125 4.170000000000001 27.104999999999997
Ni 50.04 8.340000000000002 0.0
Ni 52.125 10.425 0.0
Ni 52.125 8.340000000000002 2.085
Ni 50.04 10.425 2.085
Ni 50.04 8.340000000000002 4.169999999999999
Ni 52.125 10.425 4.169999999999999
Ni 52.125 8.340000000000002 6.254999999999999
Ni 50.04 10.425 6.254999999999999
Ni 50.04 8.340000000000002 8.339999999999998
Ni 52.125 10.425 8.339999999999998
Ni 52.125 8.340000000000002 10.424999999999997
Ni 50.04 10.425 10.424999999999997
Ni 50.04 8.340000000000002 12.509999999999998
Ni 52.125 10.425 12.509999999999998
Ni 52.125 8.340000000000002 14.594999999999997
Ni 50.04 10.425 14.594999999999997
Ni 50.04 8.340000000000002 16.679999999999996
Ni 52.125 10.425 16.679999999999996
Ni 52.125 8.340000000000002 18.764999999999997
Ni 50.04 10.425 18.764999999999997
Ni 50.04 8.340000000000002 20.849999999999994
Ni 52.125 10.425 20.849999999999994
Ni 52.125 8.340000000000002 22.934999999999995
Ni 50.04 12.510000000000003 0.0
Ni 52.125 14.595000000000002 0.0
Ni 52.125 12.510000000000003 2.085
Ni 50.04 14.595000000000002 2.085
Ni 50.04 12.510000000000003 4.169999999999999
Ni 52.125 14.595000000000002 4.169999999999999
Ni 52.125 12.510000000000003 6.254999999999999
Ni 50.04 14.595000000000002 6.254999999999999
Ni 50.04 12.510000000000003 8.339999999999998
Ni 52.125 14.595000000000002 8.339999999999998
Ni 52.125 12.510000000000003 10.424999999999997
Ni 50.04 14.595000000000002 10.424999999999997
Ni 50.04 12.510000000000003 12.509999999999998
Ni 52.125 14.595000000000002 12.509999999999998
Ni 52.125 12.510000000000003 14.594999999999997
Ni 50.04 14.595000000000002 14.594999999999997
Ni 50.04 12.510000000000003 16.679999999999996
Ni 52.125 14.595000000000002 16.679999999999996
Ni 52.125 12.510000000000003 18.764999999999997
Ni 50.04 16.680000000000003 0.0
Ni 52.125 18.765000000000004 0.0
Ni 52.125 16.680000000000003 2.085
Ni 50.04 18.765000000000004 2.085
Ni 50.04 16.680000000000003 4.169999999999999
Ni 52.125 18.765000000000004 4.169999999999999
Ni 52.125 16.680000000000003 6.254999999999999
Ni 50.04 18.765000000000004 6.254999999999999
Ni 50.04 16.680000000000003 8.339999999999998
Ni 52.125 18.765000000000004 8.339999999999998
Ni 52.125 16.680000000000003 10.424999999999997
Ni 50.04 18.765000000000004 10.424999999999997
Ni 50.04 16.680000000000003 12.509999999999998
Ni 52.125 18.765000000000004 12.509999999999998
Ni 52.125 16.680000000000003 14.594999999999997
Ni 50.04 20.849999999999998 0.0
Ni 52.125 22.935000000000002 0.0
Ni 52.125 20.849999999999998 2.085
Ni 50.04 22.935000000000002 2.085
Ni 50.04 20.849999999999998 4.169999999999999
Ni 52.125 22.935000000000002 4.169999999999999
Ni 52.125 20.849999999999998 6.254999999999999
Ni 50.04 22.935000000000002 6.254999999999999
Ni 50.04 20.849999999999998 8.339999999999998
Ni 52.125 22.935000000000002 8.339999999999998
Ni 52.125 20.849999999999998 10.424999999999997
Ni 50.04 22.935000000000002 10.424999999999997
Ni 52.125 22.935000000000002 12.509999999999998
Ni 50.04 25.020000000000007 0.0
Ni 52.125 27.105000000000008 0.0
Ni 52.125 25.020000000000007 2.085
Ni 50.04 27.105000000000008 2.085
Ni 50.04 25.020000000000007 4.169999999999999
Ni 52.125 27.105000000000008 4.169999999999999
Ni 52.125 25.020000000000007 6.254999999999999
Ni 50.04 27.105000000000008 6.254999999999999
Ni 50.04 25.020000000000007 8.339999999999998
Ni 52.125 27.105000000000008 8.339999999999998
Ni 52.125 25.020000000000007 10.424999999999997
Ni 50.04 27.105000000000008 10.424999999999997
Ni 50.04 25.020000000000007 12.509999999999998
Ni 52.125 27.105000000000008 12.509999999999998
Ni 52.125 25.020000000000007 14.594999999999997
Ni 50.04 27.105000000000008 14.594999999999997
Ni 52.125 27.105000000000008 16.679999999999996
Ni 50.04 29.190000000000005 0.0
Ni 52.125 31.275000000000006 0.0
Ni 52.125 29.190000000000005 2.085
Ni 50.04 31.275000000000006 2.085
Ni 50.04 29.190000000000005 4.169999999999999
Ni 52.125 31.275000000000006 4.169999999999999
Ni 52.125 29.190000000000005 6.254999999999999
Ni 50.04 31.275000000000006 6.254999999999999
Ni 50.04 29.190000000000005 8.339999999999998
Ni 52.125 31.275000000000006 8.339999999999998
Ni 52.125 29.190000000000005 10.424999999999997
Ni 50.04 31.275000000000006 10.424999999999997
Ni 50.04 29.190000000000005 12.509999999999998
Ni 52.125 31.275000000000006 12.509999999999998
Ni 52.125 29.190000000000005 14.594999999999997
Ni 50.04 31.275000000000006 14.594999999999997
Ni 50.04 29.190000000000005 16.679999999999996
Ni 52.125 31.275000000000006 16.679999999999996
Ni 52.125 29.190000000000005 18.764999999999997
Ni 50.04 31.275000000000006 18.764999999999997
Ni 52.125 31.275000000000006 20.849999999999994
Ni 50.04 33.36000000000001 0.0
Ni 52.125 35.44500000000001 0.0
Ni 52.125 33.36000000000001 2.085
Ni 50.04 35.44500000000001 2.085
Ni 50.04 33.36000000000001 4.169999999999999
Ni 52.125 35.44500000000001 4.169999999999999
Ni 52.125 33.36000000000001 6.254999999999999
Ni 50.04 35.44500000000001 6.254999999999999
Ni 50.04 33.36000000000001 8.339999999999998
Ni 52.125 35.44500000000001 8.339999999999998
Ni 52.125 33.36000000000001 10.424999999999997
Ni 50.04 35.44500000000001 10.424999999999997
Ni 50.04 33.36000000000001 12.509999999999998
Ni 52.125 35.44500000000001 12.509999999999998
Ni 52.125 33.36000000000001 14.594999999999997
Ni 50.04 35.44500000000001 14.594999999999997
Ni 50.04 33.36000000000001 16.679999999999996
Ni 52.125 35.44500000000001 16.679999999999996
Ni 52.125 33.36000000000001 18.764999999999997
Ni 50.04 35.44500000000001 18.764999999999997
Ni 50.04 33.36000000000001 20.849999999999994
Ni 52.125 35.44500000000001 20.849999999999994
Ni 52.125 33.36000000000001 22.934999999999995
Ni 50.04 35.44500000000001 22.934999999999995
Ni 52.125 35.44500000000001 25.019999999999996
Ni 50.04 37.53 0.0
Ni 52.125 39.615 0.0
Ni 52.125 37.53 2.085
Ni 50.04 39.615 2.085
Ni 50.04 37.53 4.169999999999999
Ni 52.125 39.615 4.169999999999999
Ni 52.125 37.53 6.254999999999999
Ni 50.04 39.615 6.254999999999999
Ni 50.04 37.53 8.339999999999998
Ni 52.125 39.615 8.339999999999998
Ni 52.125 37.53 10.424999999999997
Ni 50.04 39.615 10.424999999999997
Ni 50.04 37.53 12.509999999999998
Ni 52.125 39.615 12.509999999999998
Ni 52.125 37.53 14.594999999999997
Ni 50.04 39.615 14.594999999999997
Ni 50.04 37.53 16.679999999999996
Ni 52.125 39.615 16.679999999999996
Ni 52.125 37.53 18.764999999999997
Ni 50.04 39.615 18.764999999999997
Ni 50.04 37.53 20.849999999999994
Ni 52.125 39.615 20.849999999999994
Ni 52.125 37.53 22.934999999999995
Ni 50.04 39.615 22.934999999999995
Ni 50.04 37.53 25.019999999999996
Ni 52.125 39.615 25.019999999999996
Ni 52.125 37.53 27.104999999999997
Ni 50.04 39.615 27.104999999999997
Ni 54.21 0.0 0.0
Ni 56.295 2.085 0.0
Ni 56.295 0.0 2.085
Ni 54.21 2.085 2.085
Ni 54.21 0.0 4.169999999999999
Ni 56.295 2.085 4.169999999999999
Ni 56.295 0.0 6.254999999999999
Ni 54.21 2.085 6.254999999999999
Ni 54.21 0.0 8.339999999999998
Ni 56.295 2.085 8.339999999999998
Ni 56.295 0.0 10.424999999999997
Ni 54.21 2.085 10.424999999999997
Ni 54.21 0.0 12.509999999999998
Ni 56.295 2.085 12.509999999999998
Ni 56.295 0.0 14.594999999999997
Ni 54.21 2.085 14.594999999999997
Ni 54.21 0.0 16.679999999999996
Ni 56.295 2.085 16.679999999999996
Ni 56.295 0.0 18.764999999999997
Ni 54.21 2.085 18.764999999999997
Ni 54.21 0.0 20.849999999999994
Ni 56.295 2.085 20.849999999999994
Ni 56.295 0.0 22.934999999999995
Ni 54.21 2.085 22.934999999999995
Ni 54.21 0.0 25.019999999999996
Ni 56.295 2.085 25.019999999999996
Ni 56.295 0.0 27.104999999999997
Ni 54.21 2.085 27.104999999999997
Ni 54.21 4.170000000000001 0.0
Ni 56.295 6.255000000000002 0.0
Ni 56.295 4.170000000000001 2.085
Ni 54.21 6.255000000000002 2.085
Ni 54.21 4.170000000000001 4.169999999999999
Ni 56.295 6.255000000000002 4.169999999999999
Ni 56.295 4.170000000000001 6.254999999999999
Ni 54.21 6.255000000000002 6.254999999999999
Ni 54.21 4.170000000000001 8.339999999999998
Ni 56.295 6.255000000000002 8.339999999999998
Ni 56.295 4.170000000000001 10.424999999999997
Ni 54.21 6.255000000000002 10.424999999999997
Ni 54.21 4.170000000000001 12.509999999999998
Ni 56.295 6.255000000000002 12.509999999999998
Ni 56.295 4.170000000000001 14.594999999999997
Ni 54.21 6.255000000000002 14.594999999999997
Ni 54.21 4.170000000000001 16.679999999999996
Ni 56.295 6.255000000000002 16.679999999999996
Ni 56.295 4.170000000000001 18.764999999999997
Ni 54.21 6.255000000000002 18.764999999999997
Ni 54.21 4.170000000000001 20.849999999999994
Ni 56.295 6.255000000000002 20.849999999999994
Ni 56.295 4.170000000000001 22.934999999999995
Ni 54.21 6.255000000000002 22.934999999999995
Ni 54.21 4.170000000000001 25.019999999999996
Ni 56.295 6.255000000000002 25.019999999999996
Ni 56.295 4.170000000000001 27.104999999999997
Ni 54.21 8.340000000000002 0.0
Ni 56.295 10.425 0.0
Ni 56.295 8.340000000000002 2.085
Ni 54.21 10.425 2.085
Ni 54.21 8.340000000000002 4.169999999999999
Ni 56.295 10.425 4.169999999999999
Ni 56.295 8.340000000000002 6.254999999999999
Ni 54.21 10.425 6.254999999999999
Ni 54.21 8.340000000000002 8.339999999999998
Ni 56.295 10.425 8.339999999999998
Ni 56.295 8.340000000000002 10.424999999999997
Ni 54.21 10.425 10.424999999999997
Ni 54.21 8.340000000000002 12.509999999999998
Ni 56.295 10.425 12.509999999999998
Ni 56.295 8.340000000000002 14.594999999999997
Ni 54.21 10.425 14.594999999999997
Ni 54.21 8.340000000000002 16.679999999999996
Ni 56.295 10.425 16.679999999999996
Ni 56.295 8.340000000000002 18.764999999999997
Ni 54.21 10.425 18.764999999999997
Ni 54.21 8.340000000000002 20.849999999999994
Ni 56.295 10.425 20.849999999999994
Ni 56.295 8.340000000000002 22.934999999999995
Ni 54.21 12.510000000000003 0.0
Ni 56.295 14.595000000000002 0.0
Ni 56.295 12.510000000000003 2.085
Ni 54.21 14.595000000000002 2.085
Ni 54.21 12.510000000000003 4.169999999999999
Ni 56.295 14.595000000000002 4.169999999999999
Ni 56.295 12.510000000000003 6.254999999999999
Ni 54.21 14.595000000000002 6.254999999999999
Ni 54.21 12.510000000000003 8.339999999999998
Ni 56.295 14.595000000000002 8.339999999999998
Ni 56.295 12.510000000000003 10.424999999999997
Ni 54.21 14.595000000000002 10.424999999999997
Ni 54.21 12.510000000000003 12.509999999999998
Ni 56.295 14.595000000000002 12.509999999999998
Ni 56.295 12.510000000000003 14.594999999999997
Ni 54.21 14.595000000000002 14.594999999999997
Ni 54.21 12.510000000000003 16.679999999999996
Ni 56.295 14.595000000000002 16.679999999999996
Ni 56.295 12.510000000000003 18.764999999999997
Ni 54.21 16.680000000000003 0.0
Ni 56.295 18.765000000000004 0.0
Ni 56.295 16.680000000000003 2.085
Ni 54.21 18.765000000000004 2.085
Ni 54.21 16.680000000000003 4.169999999999999
Ni 56.295 18.765000000000004 4.169999999999999
Ni 56.295 16.680000000000003 6.254999999999999
Ni 54.21 18.765000000000004 6.254999999999999
Ni 54.21 16.680000000000003 8.339999999999998
Ni 56.295 18.765000000000004 8.339999999999998
Ni 56.295 16.680000000000003 10.424999999999997
Ni 54.21 18.765000000000004 10.424999999999997
Ni 54.21 16.680000000000003 12.509999999999998
Ni 56.295 18.765000000000004 12.509999999999998
Ni 56.295 16.680000000000003 14.594999999999997
Ni 54.21 20.849999999999998 0.0
Ni 56.295 22.935000000000002 0.0
Ni 56.295 20.849999999999998 2.085
Ni 54.21 22.935000000000002 2.085
Ni 54.21 20.849999999999998 4.169999999999999
Ni 56.295 22.935000000000002 4.169999999999999
Ni 56.295 20.849999999999998 6.254999999999999
Ni 54.21 22.935000000000002 6.254999999999999
Ni 54.21 20.849999999999998 8.339999999999998
Ni 56.295 22.935000000000002 8.339999999999998
Ni 56.295 20.849999999999998 10.424999999999997
Ni 54.21 22.935000000000002 10.424999999999997
Ni 56.295 22.935000000000002 12.509999999999998
Ni 54.21 25.020000000000007 0.0
Ni 56.295 27.105000000000008 0.0
Ni 56.295 25.020000000000007 2.085
Ni 54.21 27.105000000000008 2.085
Ni 54.21 25.020000000000007 4.169999999999999
Ni 56.295 27.105000000000008 4.169999999999999
Ni 56.295 25.020000000000007 6.254999999999999
Ni 54.21 27.105000000000008 6.254999999999999
Ni 54.21 25.020000000000007 8.339999999999998
Ni 56.295 27.105000000000008 8.339999999999998
Ni 56.295 25.020000000000007 10.424999999999997
Ni 54.21 27.105000000000008 10.424999999999997
Ni 54.21 25.020000000000007 12.509999999999998
Ni 56.295 27.105000000000008 12.509999999999998
Ni 56.295 25.020000000000007 14.594999999999997
Ni 54.21 27.105000000000008 14.594999999999997
Ni 56.295 27.105000000000008 16.679999999999996
Ni 54.21 29.190000000000005 0.0
Ni 56.295 31.275000000000006 0.0
Ni 56.295 29.190000000000005 2.085
Ni 54.21 31.275000000000006 2.085
Ni 54.21 29.190000000000005 4.169999999999999
Ni 56.295 31.275000000000006 4.169999999999999
Ni 56.295 29.190000000000005 6.254999999999999
Ni 54.21 31.275000000000006 6.254999999999999
Ni 54.21 29.190000000000005 8.339999999999998
Ni 56.295 31.275000000000006 8.339999999999998
Ni 56.295 29.190000000000005 10.424999999999997
Ni 54.21 31.275000000000006 10.424999999999997
Ni 54.21 29.190000000000005 12.509999999999998
Ni 56.295 31.275000000000006 12.509999999999998
Ni 56.295 29.190000000000005 14.594999999999997
Ni 54.21 31.275000000000006 14.594999999999997
Ni 54.21 29.190000000000005 16.679999999999996
Ni 56.295 31.275000000000006 16.679999999999996
Ni 56.295 29.190000000000005 18.764999999999997
Ni 54.21 31.275000000000006 18.764999999999997
Ni 56.295 31.275000000000006 20.849999999999994
Ni 54.21 33.36000000000001 0.0
Ni 56.295 35.44500000000001 0.0
Ni 56.295 33.36000000000001 2.085
Ni 54.21 35.44500000000001 2.085
Ni 54.21 33.36000000000001 4.169999999999999
Ni 56.295 35.44500000000001 4.169999999999999
Ni 56.295 33.36000000000001 6.254999999999999
Ni 54.21 35.44500000000001 6.254999999999999
Ni 54.21 33.36000000000001 8.339999999999998
Ni 56.295 35.44500000000001 8.339999999999998
Ni 56.295 33.36000000000001 10.424999999999997
Ni 54.21 35.44500000000001 10.424999999999997
Ni 54.21 33.36000000000001 12.509999999999998
Ni 56.295 35.44500000000001 12.509999999999998
Ni 56.295 33.36000000000001 14.594999999999997
Ni 54.21 35.44500000000001 14.594999999999997
Ni 54.21 33.36000000000001 16.679999999999996
Ni 56.295 35.44500000000001 16.679999999999996
Ni 56.295 33.36000000000001 18.764999999999997
Ni 54.21 35.44500000000001 18.764999999999997
Ni 54.21 33.36000000000001 20.849999999999994
Ni 56.295 35.44500000000001 20.849999999999994
Ni 56.295 33.36000000000001 22.934999999999995
Ni 54.21 35.44500000000001 22.934999999999995
Ni 56.295 35.44500000000001 25.019999999999996
Ni 54.21 37.53 0.0
Ni 56.295 39.615 0.0
Ni 56.295 37.53 2.085
Ni 54.21 39.615 2.085
Ni 54.21 37.53 4.169999999999999
Ni 56.295 39.615 4.169999999999999
Ni 56.295 37.53 6.254999999999999
Ni 54.21 39.615 6.254999999999999
Ni 54.21 37.53 8.339999999999998
Ni 56.295 39.615 8.339999999999998
Ni 56.295 37.53 10.424999999999997
Ni 54.21 39.615 10.424999999999997
Ni 54.21 37.53 12.509999999999998
Ni 56.295 39.615 12.509999999999998
Ni 56.295 37.53 14.594999999999997
Ni 54.21 39.615 14.594999999999997
Ni 54.21 37.53 16.679999999999996
Ni 56.295 39.615 16.679999999999996
Ni 56.295 37.53 18.764999999999997
Ni 54.21 39.615 18.764999999999997
Ni 54.21 37.53 20.849999999999994
Ni 56.295 39.615 20.849999999999994
Ni 56.295 37.53 22.934999999999995
Ni 54.21 39.615 22.934999999999995
Ni 54.21 37.53 25.019999999999996
Ni 56.295 39.615 25.019999999999996
Ni 56.295 37.53 27.104999999999997
Ni 54.21 39.615 27.104999999999997
Ni 58.379999999999995 0.0 0.0
Ni 60.464999999999996 2.085 0.0
Ni 60.464999999999996 0.0 2.085
Ni 58.379999999999995 2.085 2.085
Ni 58.379999999999995 0.0 4.169999999999999
Ni 60.464999999999996 2.085 4.169999999999999
Ni 60.464999999999996 0.0 6.254999999999999
Ni 58.379999999999995 2.085 6.254999999999999
Ni 58.379999999999995 0.0 8.339999999999998
Ni 60.464999999999996 2.085 8.339999999999998
Ni 60.464999999999996 0.0 10.424999999999997
Ni 58.379999999999995 2.085 10.424999999999997
Ni 58.379999999999995 0.0 12.509999999999998
Ni 60.464999999999996 2.085 12.509999999999998
Ni 60.464999999999996 0.0 14.594999999999997
Ni 58.379999999999995 2.085 14.594999999999997
Ni 58.379999999999995 0.0 16.679999999999996
Ni 60.464999999999996 2.085 16.679999999999996
Ni 60.464999999999996 0.0 18.764999999999997
Ni 58.379999999999995 2.085 18.764999999999997
Ni 58.379999999999995 0.0 20.849999999999994
Ni 60.464999999999996 2.085 20.849999999999994
Ni 60.464999999999996 0.0 22.934999999999995
Ni 58.379999999999995 2.085 22.934999999999995
Ni 58.379999999999995 0.0 25.019999999999996
Ni 60.464999999999996 2.085 25.019999999999996
Ni 60.464999999999996 0.0 27.104999999999997
Ni 58.379999999999995 2.085 27.104999999999997
Ni 58.379999999999995 4.170000000000001 0.0
Ni 60.464999999999996 6.255000000000002 0.0
Ni 60.464999999999996 4.170000000000001 2.085
Ni 58.379999999999995 6.255000000000002 2.085
Ni 58.379999999999995 4.170000000000001 4.169999999999999
Ni 60.464999999999996 6.255000000000002 4.169999999999999
Ni 60.464999999999996 4.170000000000001 6.254999999999999
Ni 58.379999999999995 6.255000000000002 6.254999999999999
Ni 58.379999999999995 4.170000000000001 8.339999999999998
Ni 60.464999999999996 6.255000000000002 8.339999999999998
Ni 60.464999999999996 4.170000000000001 10.424999999999997
Ni 58.379999999999995 6.255000000000002 10.424999999999997
Ni 58.379999999999995 4.170000000000001 12.509999999999998
Ni 60.464999999999996 6.255000000000002 12.509999999999998
Ni 60.464999999999996 4.170000000000001 14.594999999999997
Ni 58.379999999999995 6.255000000000002 14.594999999999997
Ni 58.379999999999995 4.170000000000001 16.679999999999996
Ni 60.464999999999996 6.255000000000002 16.679999999999996
Ni 60.464999999999996 4.170000000000001 18.764999999999997
Ni 58.379999999999995 6.255000000000002 18.764999999999997
Ni 58.379999999999995 4.170000000000001 20.849999999999994
Ni 60.464999999999996 6.255000000000002 20.849999999999994
Ni 60.464999999999996 4.170000000000001 22.934999999999995
Ni 58.379999999999995 6.255000000000002 22.934999999999995
Ni 58.379999999999995 4.170000000000001 25.019999999999996
Ni 60.464999999999996 6.255000000000002 25.019999999999996
Ni 60.464999999999996 4.170000000000001 27.104999999999997
Ni 58.379999999999995 8.340000000000002 0.0
Ni 60.464999999999996 10.425 0.0
Ni 60.464999999999996 8.340000000000002 2.085
Ni 58.379999999999995 10.425 2.085
Ni 58.379999999999995 8.340000000000002 4.169999999999999
Ni 60.464999999999996 10.425 4.169999999999999
Ni 60.464999999999996 8.340000000000002 6.254999999999999
Ni 58.379999999999995 10.425 6.254999999999999
Ni 58.379999999999995 8.340000000000002 8.339999999999998
Ni 60.464999999999996 10.425 8.339999999999998
Ni 60.464999999999996 8.340000000000002 10.424999999999997
Ni 58.379999999999995 10.425 10.424999999999997
Ni 58.379999999999995 8.340000000000002 12.509999999999998
Ni 60.464999999999996 10.425 12.509999999999998
Ni 60.464999999999996 8.340000000000002 14.594999999999997
Ni 58.379999999999995 10.425 14.594999999999997
Ni 58.379999999999995 8.340000000000002 16.679999999999996
Ni 60.464999999999996 10.425 16.679999999999996
Ni 60.464999999999996 8.340000000000002 18.764999999999997
Ni 58.379999999999995 10.425 18.764999999999997
Ni 58.379999999999995 8.340000000000002 20.849999999999994
Ni 60.464999999999996 10.425 20.849999999999994
Ni 60.464999999999996 8.340000000000002 22.934999999999995
Ni 58.379999999999995 12.510000000000003 0.0
Ni 60.464999999999996 14.595000000000002 0.0
Ni 60.464999999999996 12.510000000000003 2.085
Ni 58.379999999999995 14.595000000000002 2.085
Ni 58.379999999999995 12.510000000000003 4.169999999999999
Ni 60.464999999999996 14.595000000000002 4.169999999999999
Ni 60.464999999999996 12.510000000000003 6.254999999999999
Ni 58.379999999999995 14.595000000000002 6.254999999999999
Ni 58.379999999999995 12.510000000000003 8.339999999999998
Ni 60.464999999999996 14.595000000000002 8.339999999999998
Ni 60.464999999999996 12.510000000000003 10.424999999999997
Ni 58.379999999999995 14.595000000000002 10.424999999999997
Ni 58.379999999999995 12.510000000000003 12.509999999999998
Ni 60.464999999999996 14.595000000000002 12.509999999999998
Ni 60.464999999999996 12.510000000000003 14.594999999999997
Ni 58.379999999999995 14.595000000000002 14.594999999999997
Ni 58.379999999999995 12.510000000000003 16.679999999999996
Ni 60.464999999999996 14.595000000000002 16.679999999999996
Ni 60.464999999999996 12.510000000000003 18.764999999999997
Ni 58.379999999999995 16.680000000000003 0.0
Ni 60.464999999999996 18.765000000000004 0.0
Ni 60.464999999999996 16.680000000000003 2.085
Ni 58.379999999999995 18.765000000000004 2.085
Ni 58.379999999999995 16.680000000000003 4.169999999999999
Ni 60.464999999999996 18.765000000000004 4.169999999999999
Ni 60.464999999999996 16.680000000000003 6.254999999999999
Ni 58.379999999999995 18.765000000000004 6.254999999999999
Ni 58.379999999999995 16.680000000000003 8.339999999999998
Ni 60.464999999999996 18.765000000000004 8.339999999999998
Ni 60.464999999999996 16.680000000000003 10.424999999999997
Ni 58.379999999999995 18.765000000000004 10.424999999999997
Ni 58.379999999999995 16.680000000000003 12.509999999999998
Ni 60.464999999999996 18.765000000000004 12.509999999999998
Ni 60.464999999999996 16.680000000000003 14.594999999999997
Ni 58.379999999999995 20.849999999999998 0.0
Ni 60.464999999999996 22.935000000000002 0.0
Ni 60.464999999999996 20.849999999999998 2.085
Ni 58.379999999999995 22.935000000000002 2.085
Ni 58.379999999999995 20.849999999999998 4.169999999999999
Ni 60.464999999999996 22.935000000000002 4.169999999999999
Ni 60.464999999999996 20.849999999999998 6.254999999999999
Ni 58.379999999999995 22.935000000000002 6.254999999999999
Ni 58.379999999999995 20.849999999999998 8.339999999999998
Ni 60.464999999999996 22.935000000000002 8.339999999999998
Ni 60.464999999999996 20.849999999999998 10.424999999999997
Ni 58.379999999999995 22.935000000000002 10.424999999999997
Ni 60.464999999999996 22.935000000000002 12.509999999999998
Ni 58.379999999999995 25.020000000000007 0.0
Ni 60.464999999999996 27.105000000000008 0.0
Ni 60.464999999999996 25.020000000000007 2.085
Ni 58.379999999999995 27.105000000000008 2.085
Ni 58.379999999999995 25.020000000000007 4.169999999999999
Ni 60.464999999999996 27.105000000000008 4.169999999999999
Ni 60.464999999999996 25.020000000000007 6.254999999999999
Ni 58.379999999999995 27.105000000000008 6.254999999999999
Ni 58.379999999999995 25.020000000000007 8.339999999999998
Ni 60.464999999999996 27.105000000000008 8.339999999999998
Ni 60.464999999999996 25.020000000000007 10.424999999999997
Ni 58.379999999999995 27.105000000000008 10.424999999999997
Ni 58.379999999999995 25.020000000000007 12.509999999999998
Ni 60.464999999999996 27.105000000000008 12.509999999999998
Ni 60.464999999999996 25.020000000000007 14.594999999999997
Ni 58.379999999999995 27.105000000000008 14.594999999999997
Ni 60.464999999999996 27.105000000000008 16.679999999999996
Ni 58.379999999999995 29.190000000000005 0.0
Ni 60.464999999999996 31.275000000000006 0.0
Ni 60.464999999999996 29.190000000000005 2.085
Ni 58.379999999999995 31.275000000000006 2.085
Ni 58.379999999999995 29.190000000000005 4.169999999999999
Ni 60.464999999999996 31.275000000000006 4.169999999999999
Ni 60.464999999999996 29.190000000000005 6.254999999999999
Ni 58.379999999999995 31.275000000000006 6.254999999999999
Ni 58.379999999999995 29.190000000000005 8.339999999999998
Ni 60.464999999999996 31.275000000000006 8.339999999999998
Ni 60.464999999999996 29.190000000000005 10.424999999999997
Ni 58.379999999999995 31.275000000000006 10.424999999999997
Ni 58.379999999999995 29.190000000000005 12.509999999999998
Ni 60.464999999999996 31.275000000000006 12.509999999999998
Ni 60.464999999999996 29.190000000000005 14.594999999999997
Ni 58.379999999999995 31.275000000000006 14.594999999999997
Ni 58.379999999999995 29.190000000000005 16.679999999999996
Ni 60.464999999999996 31.275000000000006 16.679999999999996
Ni 60.464999999999996 29.190000000000005 18.764999999999997
Ni 58.379999999999995 31.275000000000006 18.764999999999997
Ni 60.464999999999996 31.275000000000006 20.849999999999994
Ni 58.379999999999995 33.36000000000001 0.0
Ni 60.464999999999996 35.44500000000001 0.0
Ni 60.464999999999996 33.36000000000001 2.085
Ni 58.379999999999995 35.44500000000001 2.085
Ni 58.379999999999995 33.36000000000001 4.169999999999999
Ni 60.464999999999996 35.44500000000001 4.169999999999999
Ni 60.464999999999996 33.36000000000001 6.254999999999999
Ni 58.379999999999995 35.44500000000001 6.254999999999999
Ni 58.379999999999995 33.36000000000001 8.339999999999998
Ni 60.464999999999996 35.44500000000001 8.339999999999998
Ni 60.464999999999996 33.36000000000001 10.424999999999997
Ni 58.379999999999995 35.44500000000001 10.424999999999997
Ni 58.379999999999995 33.36000000000001 12.509999999999998
Ni 60.464999999999996 35.44500000000001 12.509999999999998
Ni 60.464999999999996 33.36000000000001 14.594999999999997
Ni 58.379999999999995 35.44500000000001 14.594999999999997
Ni 58.379999999999995 33.36000000000001 16.679999999999996
Ni 60.464999999999996 35.44500000000001 16.679999999999996
Ni 60.464999999999996 33.36000000000001 18.764999999999997
Ni 58.379999999999995 35.44500000000001 18.764999999999997
Ni 58.379999999999995 33.36000000000001 20.849999999999994
Ni 60.464999999999996 35.44500000000001 20.849999999999994
Ni 60.464999999999996 33.36000000000001 22.934999999999995
Ni 58.379999999999995 35.44500000000001 22.934999999999995
Ni 60.464999999999996 35.44500000000001 25.019999999999996
Ni 58.379999999999995 37.53 0.0
Ni 60.464999999999996 39.615 0.0
Ni 60.464999999999996 37.53 2.085
Ni 58.379999999999995 39.615 2.085
Ni 58.379999999999995 37.53 4.169999999999999
Ni 60.464999999999996 39.615 4.169999999999999
Ni 60.464999999999996 37.53 6.254999999999999
Ni 58.379999999999995 39.615 6.254999999999999
Ni 58.379999999999995 37.53 8.339999999999998
Ni 60.464999999999996 39.615 8.339999999999998
Ni 60.464999999999996 37.53 10.424999999999997
Ni 58.379999999999995 39.615 10.424999999999997
Ni 58.379999999999995 37.53 12.509999999999998
Ni 60.464999999999996 39.615 12.509999999999998
Ni 60.464999999999996 37.53 14.594999999999997
Ni 58.379999999999995 39.615 14.594999999999997
Ni 58.379999999999995 37.53 16.679999999999996
Ni 60.464999999999996 39.615 16.679999999999996
Ni 60.464999999999996 37.53 18.764999999999997
Ni 58.379999999999995 39.615 18.764999999999997
Ni 58.379999999999995 37.53 20.849999999999994
Ni 60.464999999999996 39.615 20.849999999999994
Ni 60.464999999999996 37.53 22.934999999999995
Ni 58.379999999999995 39.615 22.934999999999995
Ni 58.379999999999995 37.53 25.019999999999996
Ni 60.464999999999996 39.615 25.019999999999996
Ni 60.464999999999996 37.53 27.104999999999997
Ni 58.379999999999995 39.615 27.104999999999997
Ni 62.54999999999999 0.0 0.0
Ni 64.63499999999999 2.085 0.0
Ni 64.63499999999999 0.0 2.085
Ni 62.54999999999999 2.085 2.085
Ni 62.54999999999999 0.0 4.169999999999999
Ni 64.63499999999999 2.085 4.169999999999999
Ni 64.63499999999999 0.0 6.254999999999999
Ni 62.54999999999999 2.085 6.254999999999999
Ni 62.54999999999999 0.0 8.339999999999998
Ni 64.63499999999999 2.085 8.339999999999998
Ni 64.63499999999999 0.0 10.424999999999997
Ni 62.54999999999999 2.085 10.424999999999997
Ni 62.54999999999999 0.0 12.509999999999998
Ni 64.63499999999999 2.085 12.509999999999998
Ni 64.63499999999999 0.0 14.594999999999997
Ni 62.54999999999999 2.085 14.594999999999997
Ni 62.54999999999999 0.0 16.679999999999996
Ni 64.63499999999999 2.085 16.679999999999996
Ni 64.63499999999999 0.0 18.764999999999997
Ni 62.54999999999999 2.085 18.764999999999997
Ni 62.54999999999999 0.0 20.849999999999994
Ni 64.63499999999999 2.085 20.849999999999994
Ni 64.63499999999999 0.0 22.934999999999995
Ni 62.54999999999999 2.085 22.934999999999995
Ni 62.54999999999999 0.0 25.019999999999996
Ni 64.63499999999999 2.085 25.019999999999996
Ni 64.63499999999999 0.0 27.104999999999997
Ni 62.54999999999999 2.085 27.104999999999997
Ni 62.54999999999999 4.170000000000001 0.0
Ni 64.63499999999999 6.255000000000002 0.0
Ni 64.63499999999999 4.170000000000001 2.085
Ni 62.54999999999999 6.255000000000002 2.085
Ni 62.54999999999999 4.170000000000001 4.169999999999999
Ni 64.63499999999999 6.255000000000002 4.169999999999999
Ni 64.63499999999999 4.170000000000001 6.254999999999999
Ni 62.54999999999999 6.255000000000002 6.254999999999999
Ni 62.54999999999999 4.170000000000001 8.339999999999998
Ni 64.63499999999999 6.255000000000002 8.339999999999998
Ni 64.63499999999999 4.170000000000001 10.424999999999997
Ni 62.54999999999999 6.255000000000002 10.424999999999997
Ni 62.54999999999999 4.170000000000001 12.509999999999998
Ni 64.63499999999999 6.255000000000002 12.509999999999998
Ni 64.63499999999999 4.170000000000001 14.594999999999997
Ni 62.54999999999999 6.255000000000002 14.594999999999997
Ni 62.54999999999999 4.170000000000001 16.679999999999996
Ni 64.63499999999999 6.255000000000002 16.679999999999996
Ni 64.63499999999999 4.170000000000001 18.764999999999997
Ni 62.54999999999999 6.255000000000002 18.764999999999997
Ni 62.54999999999999 4.170000000000001 20.849999999999994
Ni 64.63499999999999 6.255000000000002 20.849999999999994
Ni 64.63499999999999 4.170000000000001 22.934999999999995
Ni 62.54999999999999 6.255000000000002 22.934999999999995
Ni 62.54999999999999 4.170000000000001 25.019999999999996
Ni 64.63499999999999 6.255000000000002 25.019999999999996
Ni 64.63499999999999 4.170000000000001 27.104999999999997
Ni 62.54999999999999 8.340000000000002 0.0
Ni 64.63499999999999 10.425 0.0
Ni 64.63499999999999 8.340000000000002 2.085
Ni 62.54999999999999 10.425 2.085
Ni 62.54999999999999 8.340000000000002 4.169999999999999
Ni 64.63499999999999 10.425 4.169999999999999
Ni 64.63499999999999 8.340000000000002 6.254999999999999
Ni 62.54999999999999 10.425 6.254999999999999
Ni 62.54999999999999 8.340000000000002 8.339999999999998
Ni 64.63499999999999 10.425 8.339999999999998
Ni 64.63499999999999 8.340000000000002 10.424999999999997
Ni 62.54999999999999 10.425 10.424999999999997
Ni 62.54999999999999 8.340000000000002 12.509999999999998
Ni 64.63499999999999 10.425 12.509999999999998
Ni 64.63499999999999 8.340000000000002 14.594999999999997
Ni 62.54999999999999 10.425 14.594999999999997
Ni 62.54999999999999 8.340000000000002 16.679999999999996
Ni 64.63499999999999 10.425 16.679999999999996
Ni 64.63499999999999 8.340000000000002 18.764999999999997
Ni 62.54999999999999 10.425 18.764999999999997
Ni 62.54999999999999 8.340000000000002 20.849999999999994
Ni 64.63499999999999 10.425 20.849999999999994
Ni 64.63499999999999 8.340000000000002 22.934999999999995
Ni 62.54999999999999 12.510000000000003 0.0
Ni 64.63499999999999 14.595000000000002 0.0
Ni 64.63499999999999 12.510000000000003 2.085
Ni 62.54999999999999 14.595000000000002 2.085
Ni 62.54999999999999 12.510000000000003 4.169999999999999
Ni 64.63499999999999 14.595000000000002 4.169999999999999
Ni 64.63499999999999 12.510000000000003 6.254999999999999
Ni 62.54999999999999 14.595000000000002 6.254999999999999
Ni 62.54999999999999 12.510000000000003 8.339999999999998
Ni 64.63499999999999 14.595000000000002 8.339999999999998
Ni 64.63499999999999 12.510000000000003 10.424999999999997
Ni 62.54999999999999 14.595000000000002 10.424999999999997
Ni 62.54999999999999 12.510000000000003 12.509999999999998
Ni 64.63499999999999 14.595000000000002 12.509999999999998
Ni 64.63499999999999 12.510000000000003 14.594999999999997
Ni 62.54999999999999 14.595000000000002 14.594999999999997
Ni 62.54999999999999 12.510000000000003 16.679999999999996
Ni 64.63499999999999 14.595000000000002 16.679999999999996
Ni 64.63499999999999 12.510000000000003 18.764999999999997
Ni 62.54999999999999 16.680000000000003 0.0
Ni 64.63499999999999 18.765000000000004 0.0
Ni 64.63499999999999 16.680000000000003 2.085
Ni 62.54999999999999 18.765000000000004 2.085
Ni 62.54999999999999 16.680000000000003 4.169999999999999
Ni 64.63499999999999 18.765000000000004 4.169999999999999
Ni 64.63499999999999 16.680000000000003 6.254999999999999
Ni 62.54999999999999 18.765000000000004 6.254999999999999
Ni 62.54999999999999 16.680000000000003 8.339999999999998
Ni 64.63499999999999 18.765000000000004 8.339999999999998
Ni 64.63499999999999 16.680000000000003 10.424999999999997
Ni 62.54999999999999 18.765000000000004 10.424999999999997
Ni 62.54999999999999 16.680000000000003 12.509999999999998
Ni 64.63499999999999 18.765000000000004 12.509999999999998
Ni 64.63499999999999 16.680000000000003 14.594999999999997
Ni 62.54999999999999 20.849999999999998 0.0
Ni 64.63499999999999 22.935000000000002 0.0
Ni 64.63499999999999 20.849999999999998 2.085
Ni 62.54999999999999 22.935000000000002 2.085
Ni 62.54999999999999 20.849999999999998 4.169999999999999
Ni 64.63499999999999 22.935000000000002 4.169999999999999
Ni 64.63499999999999 20.849999999999998 6.254999999999999
Ni 62.54999999999999 22.935000000000002 6.254999999999999
Ni 62.54999999999999 20.849999999999998 8.339999999999998
Ni 64.63499999999999 22.935000000000002 8.339999999999998
Ni 64.63499999999999 20.849999999999998 10.424999999999997
Ni 62.54999999999999 22.935000000000002 10.424999999999997
Ni 64.63499999999999 22.935000000000002 12.509999999999998
Ni 62.54999999999999 25.020000000000007 0.0
Ni 64.63499999999999 27.105000000000008 0.0
Ni 64.63499999999999 25.020000000000007 2.085
Ni 62.54999999999999 27.105000000000008 2.085
Ni 62.54999999999999 25.020000000000007 4.169999999999999
Ni 64.63499999999999 27.105000000000008 4.169999999999999
Ni 64.63499999999999 25.020000000000007 6.254999999999999
Ni 62.54999999999999 27.105000000000008 6.254999999999999
Ni 62.54999999999999 25.020000000000007 8.339999999999998
Ni 64.63499999999999 27.105000000000008 8.339999999999998
Ni 64.63499999999999 25.020000000000007 10.424999999999997
Ni 62.54999999999999 27.105000000000008 10.424999999999997
Ni 62.54999999999999 25.020000000000007 12.509999999999998
Ni 64.63499999999999 27.105000000000008 12.509999999999998
Ni 64.63499999999999 25.020000000000007 14.594999999999997
Ni 62.54999999999999 27.105000000000008 14.594999999999997
Ni 64.63499999999999 27.105000000000008 16.679999999999996
Ni 62.54999999999999 29.190000000000005 0.0
Ni 64.63499999999999 31.275000000000006 0.0
Ni 64.63499999999999 29.190000000000005 2.085
Ni 62.54999999999999 31.275000000000006 2.085
Ni 62.54999999999999 29.190000000000005 4.169999999999999
Ni 64.63499999999999 31.275000000000006 4.169999999999999
Ni 64.63499999999999 29.190000000000005 6.254999999999999
Ni 62.54999999999999 31.275000000000006 6.254999999999999
Ni 62.54999999999999 29.190000000000005 8.339999999999998
Ni 64.63499999999999 31.275000000000006 8.339999999999998
Ni 64.63499999999999 29.190000000000005 10.424999999999997
Ni 62.54999999999999 31.275000000000006 10.424999999999997
Ni 62.54999999999999 29.190000000000005 12.509999999999998
Ni 64.63499999999999 31.275000000000006 12.509999999999998
Ni 64.63499999999999 29.190000000000005 14.594999999999997
Ni 62.54999999999999 31.275000000000006 14.594999999999997
Ni 62.54999999999999 29.190000000000005 16.679999999999996
Ni 64.63499999999999 31.275000000000006 16.679999999999996
Ni 64.63499999999999 29.190000000000005 18.764999999999997
Ni 62.54999999999999 31.275000000000006 18.764999999999997
Ni 64.63499999999999 31.275000000000006 20.849999999999994
Ni 62.54999999999999 33.36000000000001 0.0
Ni 64.63499999999999 35.44500000000001 0.0
Ni 64.63499999999999 33.36000000000001 2.085
Ni 62.54999999999999 35.44500000000001 2.085
Ni 62.54999999999999 33.36000000000001 4.169999999999999
Ni 64.63499999999999 35.44500000000001 4.169999999999999
Ni 64.63499999999999 33.36000000000001 6.254999999999999
Ni 62.54999999999999 35.44500000000001 6.254999999999999
Ni 62.54999999999999 33.36000000000001 8.339999999999998
Ni 64.63499999999999 35.44500000000001 8.339999999999998
Ni 64.63499999999999 33.36000000000001 10.424999999999997
Ni 62.54999999999999 35.44500000000001 10.424999999999997
Ni 62.54999999999999 33.36000000000001 12.509999999999998
Ni 64.63499999999999 35.44500000000001 12.509999999999998
Ni 64.63499999999999 33.36000000000001 14.594999999999997
Ni 62.54999999999999 35.44500000000001 14.594999999999997
Ni 62.54999999999999 33.36000000000001 16.679999999999996
Ni 64.63499999999999 35.44500000000001 16.679999999999996
Ni 64.63499999999999 33.36000000000001 18.764999999999997
Ni 62.54999999999999 35.44500000000001 18.764999999999997
Ni 62.54999999999999 33.36000000000001 20.849999999999994
Ni 64.63499999999999 35.44500000000001 20.849999999999994
Ni 64.63499999999999 33.36000000000001 22.934999999999995
Ni 62.54999999999999 35.44500000000001 22.934999999999995
Ni 64.63499999999999 35.44500000000001 25.019999999999996
Ni 62.54999999999999 37.53 0.0
Ni 64.63499999999999 39.615 0.0
Ni 64.63499999999999 37.53 2.085
Ni 62.54999999999999 39.615 2.085
Ni 62.54999999999999 37.53 4.169999999999999
Ni 64.63499999999999 39.615 4.169999999999999
Ni 64.63499999999999 37.53 6.254999999999999
Ni 62.54999999999999 39.615 6.254999999999999
Ni 62.54999999999999 37.53 8.339999999999998
Ni 64.63499999999999 39.615 8.339999999999998
Ni 64.63499999999999 37.53 10.424999999999997
Ni 62.54999999999999 39.615 10.424999999999997
Ni 62.54999999999999 37.53 12.509999999999998
Ni 64.63499999999999 39.615 12.509999999999998
Ni 64.63499999999999 37.53 14.594999999999997
Ni 62.54999999999999 39.615 14.594999999999997
Ni 62.54999999999999 37.53 16.679999999999996
Ni 64.63499999999999 39.615 16.679999999999996
Ni 64.63499999999999 37.53 18.764999999999997
Ni 62.54999999999999 39.615 18.764999999999997
Ni 62.54999999999999 37.53 20.849999999999994
Ni 64.63499999999999 39.615 20.849999999999994
Ni 64.63499999999999 37.53 22.934999999999995
Ni 62.54999999999999 39.615 22.934999999999995
Ni 62.54999999999999 37.53 25.019999999999996
Ni 64.63499999999999 39.615 25.019999999999996
Ni 64.63499999999999 37.53 27.104999999999997
Ni 62.54999999999999 39.615 27.104999999999997
Ni 66.72 0.0 0.0
Ni 68.80499999999999 2.085 0.0
Ni 68.80499999999999 0.0 2.085
Ni 66.72 2.085 2.085
Ni 66.72 0.0 4.169999999999999
Ni 68.80499999999999 2.085 4.169999999999999
Ni 68.80499999999999 0.0 6.254999999999999
Ni 66.72 2.085 6.254999999999999
Ni 66.72 0.0 8.339999999999998
Ni 68.80499999999999 2.085 8.339999999999998
Ni 68.80499999999999 0.0 10.424999999999997
Ni 66.72 2.085 10.424999999999997
Ni 66.72 0.0 12.509999999999998
Ni 68.80499999999999 2.085 12.509999999999998
Ni 68.80499999999999 0.0 14.594999999999997
Ni 66.72 2.085 14.594999999999997
Ni 66.72 0.0 16.679999999999996
Ni 68.80499999999999 2.085 16.679999999999996
Ni 68.80499999999999 0.0 18.764999999999997
Ni 66.72 2.085 18.764999999999997
Ni 66.72 0.0 20.849999999999994
Ni 68.80499999999999 2.085 20.849999999999994
Ni 68.80499999999999 0.0 22.934999999999995
Ni 66.72 2.085 22.934999999999995
Ni 66.72 0.0 25.019999999999996
Ni 68.80499999999999 2.085 25.019999999999996
Ni 68.80499999999999 0.0 27.104999999999997
Ni 66.72 2.085 27.104999999999997
Ni 66.72 4.170000000000001 0.0
Ni 68.80499999999999 6.255000000000002 0.0
Ni 68.80499999999999 4.170000000000001 2.085
Ni 66.72 6.255000000000002 2.085
Ni 66.72 4.170000000000001 4.169999999999999
Ni 68.80499999999999 6.255000000000002 4.169999999999999
Ni 68.80499999999999 4.170000000000001 6.254999999999999
Ni 66.72 6.255000000000002 6.254999999999999
Ni 66.72 4.170000000000001 8.339999999999998
Ni 68.80499999999999 6.255000000000002 8.339999999999998
Ni 68.80499999999999 4.170000000000001 10.424999999999997
Ni 66.72 6.255000000000002 10.424999999999997
Ni 66.72 4.170000000000001 12.509999999999998
Ni 68.80499999999999 6.255000000000002 12.509999999999998
Ni 68.80499999999999 4.170000000000001 14.594999999999997
Ni 66.72 6.255000000000002 14.594999999999997
Ni 66.72 4.170000000000001 16.679999999999996
Ni 68.80499999999999 6.255000000000002 16.679999999999996
Ni 68.80499999999999 4.170000000000001 18.764999999999997
Ni 66.72 6.255000000000002 18.764999999999997
Ni 66.72 4.170000000000001 20.849999999999994
Ni 68.80499999999999 6.255000000000002 20.849999999999994
Ni 68.80499999999999 4.170000000000001 22.934999999999995
Ni 66.72 6.255000000000002 22.934999999999995
Ni 66.72 4.170000000000001 25.019999999999996
Ni 68.80499999999999 6.255000000000002 25.019999999999996
Ni 68.80499999999999 4.170000000000001 27.104999999999997
Ni 66.72 8.340000000000002 0.0
Ni 68.80499999999999 10.425 0.0
Ni 68.80499999999999 8.340000000000002 2.085
Ni 66.72 10.425 2.085
Ni 66.72 8.340000000000002 4.169999999999999
Ni 68.80499999999999 10.425 4.169999999999999
Ni 68.80499999999999 8.340000000000002 6.254999999999999
Ni 66.72 10.425 6.254999999999999
Ni 66.72 8.340000000000002 8.339999999999998
Ni 68.80499999999999 10.425 8.339999999999998
Ni 68.80499999999999 8.340000000000002 10.424999999999997
Ni 66.72 10.425 10.424999999999997
Ni 66.72 8.340000000000002 12.509999999999998
Ni 68.80499999999999 10.425 12.509999999999998
Ni 68.80499999999999 8.340000000000002 14.594999999999997
Ni 66.72 10.425 14.594999999999997
Ni 66.72 8.340000000000002 16.679999999999996
Ni 68.80499999999999 10.425 16.679999999999996
Ni 68.80499999999999 8.340000000000002 18.764999999999997
Ni 66.72 10.425 18.764999999999997
Ni 66.72 8.340000000000002 20.849999999999994
Ni 68.80499999999999 10.425 20.849999999999994
Ni 68.80499999999999 8.340000000000002 22.934999999999995
Ni 66.72 12.510000000000003 0.0
Ni 68.80499999999999 14.595000000000002 0.0
Ni 68.80499999999999 12.510000000000003 2.085
Ni 66.72 14.595000000000002 2.085
Ni 66.72 12.510000000000003 4.169999999999999
Ni 68.80499999999999 14.595000000000002 4.169999999999999
Ni 68.80499999999999 12.510000000000003 6.254999999999999
Ni 66.72 14.595000000000002 6.254999999999999
Ni 66.72 12.510000000000003 8.339999999999998
Ni 68.80499999999999 14.595000000000002 8.339999999999998
Ni 68.80499999999999 12.510000000000003 10.424999999999997
Ni 66.72 14.595000000000002 10.424999999999997
Ni 66.72 12.510000000000003 12.509999999999998
Ni 68.80499999999999 14.595000000000002 12.509999999999998
Ni 68.80499999999999 12.510000000000003 14.594999999999997
Ni 66.72 14.595000000000002 14.594999999999997
Ni 66.72 12.510000000000003 16.679999999999996
Ni 68.80499999999999 14.595000000000002 16.679999999999996
Ni 68.80499999999999 12.510000000000003 18.764999999999997
Ni 66.72 16.680000000000003 0.0
Ni 68.80499999999999 18.765000000000004 0.0
Ni 68.80499999999999 16.680000000000003 2.085
Ni 66.72 18.765000000000004 2.085
Ni 66.72 16.680000000000003 4.169999999999999
Ni 68.80499999999999 18.765000000000004 4.169999999999999
Ni 68.80499999999999 16.680000000000003 6.254999999999999
Ni 66.72 18.765000000000004 6.254999999999999
Ni 66.72 16.680000000000003 8.339999999999998
Ni 68.80499999999999 18.765000000000004 8.339999999999998
Ni 68.80499999999999 16.680000000000003 10.424999999999997
Ni 66.72 18.765000000000004 10.424999999999997
Ni 66.72 16.680000000000003 12.509999999999998
Ni 68.80499999999999 18.765000000000004 12.509999999999998
Ni 68.80499999999999 16.680000000000003 14.594999999999997
Ni 66.72 20.849999999999998 0.0
Ni 68.80499999999999 22.935000000000002 0.0
Ni 68.80499999999999 20.849999999999998 2.085
Ni 66.72 22.935000000000002 2.085
Ni 66.72 20.849999999999998 4.169999999999999
Ni 68.80499999999999 22.935000000000002 4.169999999999999
Ni 68.80499999999999 20.849999999999998 6.254999999999999
Ni 66.72 22.935000000000002 6.254999999999999
Ni 66.72 20.849999999999998 8.339999999999998
Ni 68.80499999999999 22.935000000000002 8.339999999999998
Ni 68.80499999999999 20.849999999999998 10.424999999999997
Ni 66.72 22.935000000000002 10.424999999999997
Ni 68.80499999999999 22.935000000000002 12.509999999999998
Ni 66.72 25.020000000000007 0.0
Ni 68.80499999999999 27.105000000000008 0.0
Ni 68.80499999999999 25.020000000000007 2.085
Ni 66.72 27.105000000000008 2.085
Ni 66.72 25.020000000000007 4.169999999999999
Ni 68.80499999999999 27.105000000000008 4.169999999999999
Ni 68.80499999999999 25.020000000000007 6.254999999999999
Ni 66.72 27.105000000000008 6.254999999999999
Ni 66.72 25.020000000000007 8.339999999999998
Ni 68.80499999999999 27.105000000000008 8.339999999999998
Ni 68.80499999999999 25.020000000000007 10.424999999999997
Ni 66.72 27.105000000000008 10.424999999999997
Ni 66.72 25.020000000000007 12.509999999999998
Ni 68.80499999999999 27.105000000000008 12.509999999999998
Ni 68.80499999999999 25.020000000000007 14.594999999999997
Ni 66.72 27.105000000000008 14.594999999999997
Ni 68.80499999999999 27.105000000000008 16.679999999999996
Ni 66.72 29.190000000000005 0.0
Ni 68.80499999999999 31.275000000000006 0.0
Ni 68.80499999999999 29.190000000000005 2.085
Ni 66.72 31.275000000000006 2.085
Ni 66.72 29.190000000000005 4.169999999999999
Ni 68.80499999999999 31.275000000000006 4.169999999999999
Ni 68.80499999999999 29.190000000000005 6.254999999999999
Ni 66.72 31.275000000000006 6.254999999999999
Ni 66.72 29.190000000000005 8.339999999999998
Ni 68.80499999999999 31.275000000000006 8.339999999999998
Ni 68.80499999999999 29.190000000000005 10.424999999999997
Ni 66.72 31.275000000000006 10.424999999999997
Ni 66.72 29.190000000000005 12.509999999999998
Ni 68.80499999999999 31.275000000000006 12.509999999999998
Ni 68.80499999999999 29.190000000000005 14.594999999999997
Ni 66.72 31.275000000000006 14.594999999999997
Ni 66.72 29.190000000000005 16.679999999999996
Ni 68.80499999999999 31.275000000000006 16.679999999999996
Ni 68.80499999999999 29.190000000000005 18.764999999999997
Ni 66.72 31.275000000000006 18.764999999999997
Ni 68.80499999999999 31.275000000000006 20.849999999999994
Ni 66.72 33.36000000000001 0.0
Ni 68.80499999999999 35.44500000000001 0.0
Ni 68.80499999999999 33.36000000000001 2.085
Ni 66.72 35.44500000000001 2.085
Ni 66.72 33.36000000000001 4.169999999999999
Ni 68.80499999999999 35.44500000000001 4.169999999999999
Ni 68.80499999999999 33.36000000000001 6.254999999999999
Ni 66.72 35.44500000000001 6.254999999999999
Ni 66.72 33.36000000000001 8.339999999999998
Ni 68.80499999999999 35.44500000000001 8.339999999999998
Ni 68.80499999999999 33.36000000000001 10.424999999999997
Ni 66.72 35.44500000000001 10.424999999999997
Ni 66.72 33.36000000000001 12.509999999999998
Ni 68.80499999999999 35.44500000000001 12.509999999999998
Ni 68.80499999999999 33.36000000000001 14.594999999999997
Ni 66.72 35.44500000000001 14.594999999999997
Ni 66.72 33.36000000000001 16.679999999999996
Ni 68.80499999999999 35.44500000000001 16.679999999999996
Ni 68.80499999999999 33.36000000000001 18.764999999999997
Ni 66.72 35.44500000000001 18.764999999999997
Ni 66.72 33.36000000000001 20.849999999999994
Ni 68.80499999999999 35.44500000000001 20.849999999999994
Ni 68.80499999999999 33.36000000000001 22.934999999999995
Ni 66.72 35.44500000000001 22.934999999999995
Ni 68.80499999999999 35.44500000000001 25.019999999999996
Ni 66.72 37.53 0.0
Ni 68.80499999999999 39.615 0.0
Ni 68.80499999999999 37.53 2.085
Ni 66.72 39.615 2.085
Ni 66.72 37.53 4.169999999999999
Ni 68.80499999999999 39.615 4.169999999999999
Ni 68.80499999999999 37.53 6.254999999999999
Ni 66.72 39.615 6.254999999999999
Ni 66.72 37.53 8.339999999999998
Ni 68.80499999999999 39.615 8.339999999999998
Ni 68.80499999999999 37.53 10.424999999999997
Ni 66.72 39.615 10.424999999999997
Ni 66.72 37.53 12.509999999999998
Ni 68.80499999999999 39.615 12.509999999999998
Ni 68.80499999999999 37.53 14.594999999999997
Ni 66.72 39.615 14.594999999999997
Ni 66.72 37.53 16.679999999999996
Ni 68.80499999999999 39.615 16.679999999999996
Ni 68.80499999999999 37.53 18.764999999999997
Ni 66.72 39.615 18.764999999999997
Ni 66.72 37.53 20.849999999999994
Ni 68.80499999999999 39.615 20.849999999999994
Ni 68.80499999999999 37.53 22.934999999999995
Ni 66.72 39.615 22.934999999999995
Ni 66.72 37.53 25.019999999999996
Ni 68.80499999999999 39.615 25.019999999999996
Ni 68.80499999999999 37.53 27.104999999999997
Ni 66.72 39.615 27.104999999999997
Ni 70.89 0.0 0.0
Ni 72.975 2.085 0.0
Ni 72.975 0.0 2.085
Ni 70.89 2.085 2.085
Ni 70.89 0.0 4.169999999999999
Ni 72.975 2.085 4.169999999999999
Ni 72.975 0.0 6.254999999999999
Ni 70.89 2.085 6.254999999999999
Ni 70.89 0.0 8.339999999999998
Ni 72.975 2.085 8.339999999999998
Ni 72.975 0.0 10.424999999999997
Ni 70.89 2.085 10.424999999999997
Ni 70.89 0.0 12.509999999999998
Ni 72.975 2.085 12.509999999999998
Ni 72.975 0.0 14.594999999999997
Ni 70.89 2.085 14.594999999999997
Ni 70.89 0.0 16.679999999999996
Ni 72.975 2.085 16.679999999999996
Ni 72.975 0.0 18.764999999999997
Ni 70.89 2.085 18.764999999999997
Ni 70.89 0.0 20.849999999999994
Ni 72.975 2.085 20.849999999999994
Ni 72.975 0.0 22.934999999999995
Ni 70.89 2.085 22.934999999999995
Ni 70.89 0.0 25.019999999999996
Ni 72.975 2.085 25.019999999999996
Ni 72.975 0.0 27.104999999999997
Ni 70.89 2.085 27.104999999999997
Ni 70.89 4.170000000000001 0.0
Ni 72.975 6.255000000000002 0.0
Ni 72.975 4.170000000000001 2.085
Ni 70.89 6.255000000000002 2.085
Ni 70.89 4.170000000000001 4.169999999999999
Ni 72.975 6.255000000000002 4.169999999999999
Ni 72.975 4.170000000000001 6.254999999999999
Ni 70.89 6.255000000000002 6.254999999999999
Ni 70.89 4.170000000000001 8.339999999999998
Ni 72.975 6.255000000000002 8.339999999999998
Ni 72.975 4.170000000000001 10.424999999999997
Ni 70.89 6.255000000000002 10.424999999999997
Ni 70.89 4.170000000000001 12.509999999999998
Ni 72.975 6.255000000000002 12.509999999999998
Ni 72.975 4.170000000000001 14.594999999999997
Ni 70.89 6.255000000000002 14.594999999999997
Ni 70.89 4.170000000000001 16.679999999999996
Ni 72.975 6.255000000000002 16.679999999999996
Ni 72.975 4.170000000000001 18.764999999999997
Ni 70.89 6.255000000000002 18.764999999999997
Ni 70.89 4.170000000000001 20.849999999999994
Ni 72.975 6.255000000000002 20.849999999999994
Ni 72.975 4.170000000000001 22.934999999999995
Ni 70.89 6.255000000000002 22.934999999999995
Ni 70.89 4.170000000000001 25.019999999999996
Ni 72.975 6.255000000000002 25.019999999999996
Ni 72.975 4.170000000000001 27.104999999999997
Ni 70.89 8.340000000000002 0.0
Ni 72.975 10.425 0.0
Ni 72.975 8.340000000000002 2.085
Ni 70.89 10.425 2.085
Ni 70.89 8.340000000000002 4.169999999999999
Ni 72.975 10.425 4.169999999999999
Ni 72.975 8.340000000000002 6.254999999999999
Ni 70.89 10.425 6.254999999999999
Ni 70.89 8.340000000000002 8.339999999999998
Ni 72.975 10.425 8.339999999999998
Ni 72.975 8.340000000000002 10.424999999999997
Ni 70.89 10.425 10.424999999999997
Ni 70.89 8.340000000000002 12.509999999999998
Ni 72.975 10.425 12.509999999999998
Ni 72.975 8.340000000000002 14.594999999999997
Ni 70.89 10.425 14.594999999999997
Ni 70.89 8.340000000000002 16.679999999999996
Ni 72.975 10.425 16.679999999999996
Ni 72.975 8.340000000000002 18.764999999999997
Ni 70.89 10.425 18.764999999999997
Ni 70.89 8.340000000000002 20.849999999999994
Ni 72.975 10.425 20.849999999999994
Ni 72.975 8.340000000000002 22.934999999999995
Ni 70.89 12.510000000000003 0.0
Ni 72.975 14.595000000000002 0.0
Ni 72.975 12.510000000000003 2.085
Ni 70.89 14.595000000000002 2.085
Ni 70.89 12.510000000000003 4.169999999999999
Ni 72.975 14.595000000000002 4.169999999999999
Ni 72.975 12.510000000000003 6.254999999999999
Ni 70.89 14.595000000000002 6.254999999999999
Ni 70.89 12.510000000000003 8.339999999999998
Ni 72.975 14.595000000000002 8.339999999999998
Ni 72.975 12.510000000000003 10.424999999999997
Ni 70.89 14.595000000000002 10.424999999999997
Ni 70.89 12.510000000000003 12.509999999999998
Ni 72.975 14.595000000000002 12.509999999999998
Ni 72.975 12.510000000000003 14.594999999999997
Ni 70.89 14.595000000000002 14.594999999999997
Ni 70.89 12.510000000000003 16.679999999999996
Ni 72.975 14.595000000000002 16.679999999999996
Ni 72.975 12.510000000000003 18.764999999999997
Ni 70.89 16.680000000000003 0.0
Ni 72.975 18.765000000000004 0.0
Ni 72.975 16.680000000000003 2.085
Ni 70.89 18.765000000000004 2.085
Ni 70.89 16.680000000000003 4.169999999999999
Ni 72.975 18.765000000000004 4.169999999999999
Ni 72.975 16.680000000000003 6.254999999999999
Ni 70.89 18.765000000000004 6.254999999999999
Ni 70.89 16.680000000000003 8.339999999999998
Ni 72.975 18.765000000000004 8.339999999999998
Ni 72.975 16.680000000000003 10.424999999999997
Ni 70.89 18.765000000000004 10.424999999999997
Ni 70.89 16.680000000000003 12.509999999999998
Ni 72.975 18.765000000000004 12.509999999999998
Ni 72.975 16.680000000000003 14.594999999999997
Ni 70.89 20.849999999999998 0.0
Ni 72.975 22.935000000000002 0.0
Ni 72.975 20.849999999999998 2.085
Ni 70.89 22.935000000000002 2.085
Ni 70.89 20.849999999999998 4.169999999999999
Ni 72.975 22.935000000000002 4.169999999999999
Ni 72.975 20.849999999999998 6.254999999999999
Ni 70.89 22.935000000000002 6.254999999999999
Ni 70.89 20.849999999999998 8.339999999999998
Ni 72.975 22.935000000000002 8.339999999999998
Ni 72.975 20.849999999999998 10.424999999999997
Ni 70.89 22.935000000000002 10.424999999999997
Ni 72.975 22.935000000000002 12.509999999999998
Ni 70.89 25.020000000000007 0.0
Ni 72.975 27.105000000000008 0.0
Ni 72.975 25.020000000000007 2.085
Ni 70.89 27.105000000000008 2.085
Ni 70.89 25.020000000000007 4.169999999999999
Ni 72.975 27.105000000000008 4.169999999999999
Ni 72.975 25.020000000000007 6.254999999999999
Ni 70.89 27.105000000000008 6.254999999999999
Ni 70.89 25.020000000000007 8.339999999999998
Ni 72.975 27.105000000000008 8.339999999999998
Ni 72.975 25.020000000000007 10.424999999999997
Ni 70.89 27.105000000000008 10.424999999999997
Ni 70.89 25.020000000000007 12.509999999999998
Ni 72.975 27.105000000000008 12.509999999999998
Ni 72.975 25.020000000000007 14.594999999999997
Ni 70.89 27.105000000000008 14.594999999999997
Ni 72.975 27.105000000000008 16.679999999999996
Ni 70.89 29.190000000000005 0.0
Ni 72.975 31.275000000000006 0.0
Ni 72.975 29.190000000000005 2.085
Ni 70.89 31.275000000000006 2.085
Ni 70.89 29.190000000000005 4.169999999999999
Ni 72.975 31.275000000000006 4.169999999999999
Ni 72.975 29.190000000000005 6.254999999999999
Ni 70.89 31.275000000000006 6.254999999999999
Ni 70.89 29.190000000000005 8.339999999999998
Ni 72.975 31.275000000000006 8.339999999999998
Ni 72.975 29.190000000000005 10.424999999999997
Ni 70.89 31.275000000000006 10.424999999999997
Ni 70.89 29.190000000000005 12.509999999999998
Ni 72.975 31.275000000000006 12.509999999999998
Ni 72.975 29.190000000000005 14.594999999999997
Ni 70.89 31.275000000000006 14.594999999999997
Ni 70.89 29.190000000000005 16.679999999999996
Ni 72.975 31.275000000000006 16.679999999999996
Ni 72.975 29.190000000000005 18.764999999999997
Ni 70.89 31.275000000000006 18.764999999999997
Ni 72.975 31.275000000000006 20.849999999999994
Ni 70.89 33.36000000000001 0.0
Ni 72.975 35.44500000000001 0.0
Ni 72.975 33.36000000000001 2.085
Ni 70.89 35.44500000000001 2.085
Ni 70.89 33.36000000000001 4.169999999999999
Ni 72.975 35.44500000000001 4.169999999999999
Ni 72.975 33.36000000000001 6.254999999999999
Ni 70.89 35.44500000000001 6.254999999999999
Ni 70.89 33.36000000000001 8.339999999999998
Ni 72.975 35.44500000000001 8.339999999999998
Ni 72.975 33.36000000000001 10.424999999999997
Ni 70.89 35.44500000000001 10.424999999999997
Ni 70.89 33.36000000000001 12.509999999999998
Ni 72.975 35.44500000000001 12.509999999999998
Ni 72.975 33.36000000000001 14.594999999999997
Ni 70.89 35.44500000000001 14.594999999999997
Ni 70.89 33.36000000000001 16.679999999999996
Ni 72.975 35.44500000000001 16.679999999999996
Ni 72.975 33.36000000000001 18.764999999999997
Ni 70.89 35.44500000000001 18.764999999999997
Ni 70.89 33.36000000000001 20.849999999999994
Ni 72.975 35.44500000000001 20.849999999999994
Ni 72.975 33.36000000000001 22.934999999999995
Ni 70.89 35.44500000000001 22.934999999999995
Ni 72.975 35.44500000000001 25.019999999999996
Ni 70.89 37.53 0.0
Ni 72.975 39.615 0.0
Ni 72.975 37.53 2.085
Ni 70.89 39.615 2.085
Ni 70.89 37.53 4.169999999999999
Ni 72.975 39.615 4.169999999999999
Ni 72.975 37.53 6.254999999999999
Ni 70.89 39.615 6.254999999999999
Ni 70.89 37.53 8.339999999999998
Ni 72.975 39.615 8.339999999999998
Ni 72.975 37.53 10.424999999999997
Ni 70.89 39.615 10.424999999999997
Ni 70.89 37.53 12.509999999999998
Ni 72.975 39.615 12.509999999999998
Ni 72.975 37.53 14.594999999999997
Ni 70.89 39.615 14.594999999999997
Ni 70.89 37.53 16.679999999999996
Ni 72.975 39.615 16.679999999999996
Ni 72.975 37.53 18.764999999999997
Ni 70.89 39.615 18.764999999999997
Ni 70.89 37.53 20.849999999999994
Ni 72.975 39.615 20.849999999999994
Ni 72.975 37.53 22.934999999999995
Ni 70.89 39.615 22.934999999999995
Ni 70.89 37.53 25.019999999999996
Ni 72.975 39.615 25.019999999999996
Ni 72.975 37.53 27.104999999999997
Ni 70.89 39.615 27.104999999999997
Ni 75.05999999999999 0.0 0.0
Ni 77.14499999999998 2.085 0.0
Ni 77.14499999999998 0.0 2.085
Ni 75.05999999999999 2.085 2.085
Ni 75.05999999999999 0.0 4.169999999999999
Ni 77.14499999999998 2.085 4.169999999999999
Ni 77.14499999999998 0.0 6.254999999999999
Ni 75.05999999999999 2.085 6.254999999999999
Ni 75.05999999999999 0.0 8.339999999999998
Ni 77.14499999999998 2.085 8.339999999999998
Ni 77.14499999999998 0.0 10.424999999999997
Ni 75.05999999999999 2.085 10.424999999999997
Ni 75.05999999999999 0.0 12.509999999999998
Ni 77.14499999999998 2.085 12.509999999999998
Ni 77.14499999999998 0.0 14.594999999999997
Ni 75.05999999999999 2.085 14.594999999999997
Ni 75.05999999999999 0.0 16.679999999999996
Ni 77.14499999999998 2.085 16.679999999999996
Ni 77.14499999999998 0.0 18.764999999999997
Ni 75.05999999999999 2.085 18.764999999999997
Ni 75.05999999999999 0.0 20.849999999999994
Ni 77.14499999999998 2.085 20.849999999999994
Ni 77.14499999999998 0.0 22.934999999999995
Ni 75.05999999999999 2.085 22.934999999999995
Ni 75.05999999999999 0.0 25.019999999999996
Ni 77.14499999999998 2.085 25.019999999999996
Ni 77.14499999999998 0.0 27.104999999999997
Ni 75.05999999999999 2.085 27.104999999999997
Ni 75.05999999999999 4.170000000000001 0.0
Ni 77.14499999999998 6.255000000000002 0.0
Ni 77.14499999999998 4.170000000000001 2.085
Ni 75.05999999999999 6.255000000000002 2.085
Ni 75.05999999999999 4.170000000000001 4.169999999999999
Ni 77.14499999999998 6.255000000000002 4.169999999999999
Ni 77.14499999999998 4.170000000000001 6.254999999999999
Ni 75.05999999999999 6.255000000000002 6.254999999999999
Ni 75.05999999999999 4.170000000000001 8.339999999999998
Ni 77.14499999999998 6.255000000000002 8.339999999999998
Ni 77.14499999999998 4.170000000000001 10.424999999999997
Ni 75.05999999999999 6.255000000000002 10.424999999999997
Ni 75.05999999999999 4.170000000000001 12.509999999999998
Ni 77.14499999999998 6.255000000000002 12.509999999999998
Ni 77.14499999999998 4.170000000000001 14.594999999999997
Ni 75.05999999999999 6.255000000000002 14.594999999999997
Ni 75.05999999999999 4.170000000000001 16.679999999999996
Ni 77.14499999999998 6.255000000000002 16.679999999999996
Ni 77.14499999999998 4.170000000000001 18.764999999999997
Ni 75.05999999999999 6.255000000000002 18.764999999999997
Ni 75.05999999999999 4.170000000000001 20.849999999999994
Ni 77.14499999999998 6.255000000000002 20.849999999999994
Ni 77.14499999999998 4.170000000000001 22.934999999999995
Ni 75.05999999999999 6.255000000000002 22.934999999999995
Ni 75.05999999999999 4.170000000000001 25.019999999999996
Ni 77.14499999999998 6.255000000000002 25.019999999999996
Ni 77.14499999999998 4.170000000000001 27.104999999999997
Ni 75.05999999999999 8.340000000000002 0.0
Ni 77.14499999999998 10.425 0.0
Ni 77.14499999999998 8.340000000000002 2.085
Ni 75.05999999999999 10.425 2.085
Ni 75.05999999999999 8.340000000000002 4.169999999999999
Ni 77.14499999999998 10.425 4.169999999999999
Ni 77.14499999999998 8.340000000000002 6.254999999999999
Ni 75.05999999999999 10.425 6.254999999999999
Ni 75.05999999999999 8.340000000000002 8.339999999999998
Ni 77.14499999999998 10.425 8.339999999999998
Ni 77.14499999999998 8.340000000000002 10.424999999999997
Ni 75.05999999999999 10.425 10.424999999999997
Ni 75.05999999999999 8.340000000000002 12.509999999999998
Ni 77.14499999999998 10.425 12.509999999999998
Ni 77.14499999999998 8.340000000000002 14.594999999999997
Ni 75.05999999999999 10.425 14.594999999999997
Ni 75.05999999999999 8.340000000000002 16.679999999999996
Ni 77.14499999999998 10.425 16.679999999999996
Ni 77.14499999999998 8.340000000000002 18.764999999999997
Ni 75.05999999999999 10.425 18.764999999999997
Ni 75.05999999999999 8.340000000000002 20.849999999999994
Ni 77.14499999999998 10.425 20.849999999999994
Ni 77.14499999999998 8.340000000000002 22.934999999999995
Ni 75.05999999999999 12.510000000000003 0.0
Ni 77.14499999999998 14.595000000000002 0.0
Ni 77.14499999999998 12.510000000000003 2.085
Ni 75.05999999999999 14.595000000000002 2.085
Ni 75.05999999999999 12.510000000000003 4.169999999999999
Ni 77.14499999999998 14.595000000000002 4.169999999999999
Ni 77.14499999999998 12.510000000000003 6.254999999999999
Ni 75.05999999999999 14.595000000000002 6.254999999999999
Ni 75.05999999999999 12.510000000000003 8.339999999999998
Ni 77.14499999999998 14.595000000000002 8.339999999999998
Ni 77.14499999999998 12.510000000000003 10.424999999999997
Ni 75.05999999999999 14.595000000000002 10.424999999999997
Ni 75.05999999999999 12.510000000000003 12.509999999999998
Ni 77.14499999999998 14.595000000000002 12.509999999999998
Ni 77.14499999999998 12.510000000000003 14.594999999999997
Ni 75.05999999999999 14.595000000000002 14.594999999999997
Ni 75.05999999999999 12.510000000000003 16.679999999999996
Ni 77.14499999999998 14.595000000000002 16.679999999999996
Ni 77.14499999999998 12.510000000000003 18.764999999999997
Ni 75.05999999999999 16.680000000000003 0.0
Ni 77.14499999999998 18.765000000000004 0.0
Ni 77.14499999999998 16.680000000000003 2.085
Ni 75.05999999999999 18.765000000000004 2.085
Ni 75.05999999999999 16.680000000000003 4.169999999999999
Ni 77.14499999999998 18.765000000000004 4.169999999999999
Ni 77.14499999999998 16.680000000000003 6.254999999999999
Ni 75.05999999999999 18.765000000000004 6.254999999999999
Ni 75.05999999999999 16.680000000000003 8.339999999999998
Ni 77.14499999999998 18.765000000000004 8.339999999999998
Ni 77.14499999999998 16.680000000000003 10.424999999999997
Ni 75.05999999999999 18.765000000000004 10.424999999999997
Ni 75.05999999999999 16.680000000000003 12.509999999999998
Ni 77.14499999999998 18.765000000000004 12.509999999999998
Ni 77.14499999999998 16.680000000000003 14.594999999999997
Ni 75.05999999999999 20.849999999999998 0.0
Ni 77.14499999999998 22.935000000000002 0.0
Ni 77.14499999999998 20.849999999999998 2.085
Ni 75.05999999999999 22.935000000000002 2.085
Ni 75.05999999999999 20.849999999999998 4.169999999999999
Ni 77.14499999999998 22.935000000000002 4.169999999999999
Ni 77.14499999999998 20.849999999999998 6.254999999999999
Ni 75.05999999999999 22.935000000000002 6.254999999999999
Ni 75.05999999999999 20.849999999999998 8.339999999999998
Ni 77.14499999999998 22.935000000000002 8.339999999999998
Ni 77.14499999999998 20.849999999999998 10.424999999999997
Ni 75.05999999999999 22.935000000000002 10.424999999999997
Ni 77.14499999999998 22.935000000000002 12.509999999999998
Ni 75.05999999999999 25.020000000000007 0.0
Ni 77.14499999999998 27.105000000000008 0.0
Ni 77.14499999999998 25.020000000000007 2.085
Ni 75.05999999999999 27.105000000000008 2.085
Ni 75.05999999999999 25.020000000000007 4.169999999999999
Ni 77.14499999999998 27.105000000000008 4.169999999999999
Ni 77.14499999999998 25.020000000000007 6.254999999999999
Ni 75.05999999999999 27.105000000000008 6.254999999999999
Ni 75.05999999999999 25.020000000000007 8.339999999999998
Ni 77.14499999999998 27.105000000000008 8.339999999999998
Ni 77.14499999999998 25.020000000000007 10.424999999999997
Ni 75.05999999999999 27.105000000000008 10.424999999999997
Ni 75.05999999999999 25.020000000000007 12.509999999999998
Ni 77.14499999999998 27.105000000000008 12.509999999999998
Ni 77.14499999999998 25.020000000000007 14.594999999999997
Ni 75.05999999999999 27.105000000000008 14.594999999999997
Ni 77.14499999999998 27.105000000000008 16.679999999999996
Ni 75.05999999999999 29.190000000000005 0.0
Ni 77.14499999999998 31.275000000000006 0.0
Ni 77.14499999999998 29.190000000000005 2.085
Ni 75.05999999999999 31.275000000000006 2.085
Ni 75.05999999999999 29.190000000000005 4.169999999999999
Ni 77.14499999999998 31.275000000000006 4.169999999999999
Ni 77.14499999999998 29.190000000000005 6.254999999999999
Ni 75.05999999999999 31.275000000000006 6.254999999999999
Ni 75.05999999999999 29.190000000000005 8.339999999999998
Ni 77.14499999999998 31.275000000000006 8.339999999999998
Ni 77.14499999999998 29.190000000000005 10.424999999999997
Ni 75.05999999999999 31.275000000000006 10.424999999999997
Ni 75.05999999999999 29.190000000000005 12.509999999999998
Ni 77.14499999999998 31.275000000000006 12.509999999999998
Ni 77.14499999999998 29.190000000000005 14.594999999999997
Ni 75.05999999999999 31.275000000000006 14.594999999999997
Ni 75.05999999999999 29.190000000000005 16.679999999999996
Ni 77.14499999999998 31.275000000000006 16.679999999999996
Ni 77.14499999999998 29.190000000000005 18.764999999999997
Ni 75.05999999999999 31.275000000000006 18.764999999999997
Ni 77.14499999999998 31.275000000000006 20.849999999999994
Ni 75.05999999999999 33.36000000000001 0.0
Ni 77.14499999999998 35.44500000000001 0.0
Ni 77.14499999999998 33.36000000000001 2.085
Ni 75.05999999999999 35.44500000000001 2.085
Ni 75.05999999999999 33.36000000000001 4.169999999999999
Ni 77.14499999999998 35.44500000000001 4.169999999999999
Ni 77.14499999999998 33.36000000000001 6.254999999999999
Ni 75.05999999999999 35.44500000000001 6.254999999999999
Ni 75.05999999999999 33.36000000000001 8.339999999999998
Ni 77.14499999999998 35.44500000000001 8.339999999999998
Ni 77.14499999999998 33.36000000000001 10.424999999999997
Ni 75.05999999999999 35.44500000000001 10.424999999999997
Ni 75.05999999999999 33.36000000000001 12.509999999999998
Ni 77.14499999999998 35.44500000000001 12.509999999999998
Ni 77.14499999999998 33.36000000000001 14.594999999999997
Ni 75.05999999999999 35.44500000000001 14.594999999999997
Ni 75.05999999999999 33.36000000000001 16.679999999999996
Ni 77.14499999999998 35.44500000000001 16.679999999999996
Ni 77.14499999999998 33.36000000000001 18.764999999999997
Ni 75.05999999999999 35.44500000000001 18.764999999999997
Ni 75.05999999999999 33.36000000000001 20.849999999999994
Ni 77.14499999999998 35.44500000000001 20.849999999999994
Ni 77.14499999999998 33.36000000000001 22.934999999999995
Ni 75.05999999999999 35.44500000000001 22.934999999999995
Ni 77.14499999999998 35.44500000000001 25.019999999999996
Ni 75.05999999999999 37.53 0.0
Ni 77.14499999999998 39.615 0.0
Ni 77.14499999999998 37.53 2.085
Ni 75.05999999999999 39.615 2.085
Ni 75.05999999999999 37.53 4.169999999999999
Ni 77.14499999999998 39.615 4.169999999999999
Ni 77.14499999999998 37.53 6.254999999999999
Ni 75.05999999999999 39.615 6.254999999999999
Ni 75.05999999999999 37.53 8.339999999999998
Ni 77.14499999999998 39.615 8.339999999999998
Ni 77.14499999999998 37.53 10.424999999999997
Ni 75.05999999999999 39.615 10.424999999999997
Ni 75.05999999999999 37.53 12.509999999999998
Ni 77.14499999999998 39.615 12.509999999999998
Ni 77.14499999999998 37.53 14.594999999999997
Ni 75.05999999999999 39.615 14.594999999999997
Ni 75.05999999999999 37.53 16.679999999999996
Ni 77.14499999999998 39.615 16.679999999999996
Ni 77.14499999999998 37.53 18.764999999999997
Ni 75.05999999999999 39.615 18.764999999999997
Ni 75.05999999999999 37.53 20.849999999999994
Ni 77.14499999999998 39.615 20.849999999999994
Ni 77.14499999999998 37.53 22.934999999999995
Ni 75.05999999999999 39.615 22.934999999999995
Ni 75.05999999999999 37.53 25.019999999999996
Ni 77.14499999999998 39.615 25.019999999999996
Ni 77.14499999999998 37.53 27.104999999999997
Ni 75.05999999999999 39.615 27.104999999999997
Ni 79.22999999999999 0.0 0.0
Ni 81.31499999999998 2.085 0.0
Ni 81.31499999999998 0.0 2.085
Ni 79.22999999999999 2.085 2.085
Ni 79.22999999999999 0.0 4.169999999999999
Ni 81.31499999999998 2.085 4.169999999999999
Ni 81.31499999999998 0.0 6.254999999999999
Ni 79.22999999999999 2.085 6.254999999999999
Ni 79.22999999999999 0.0 8.339999999999998
Ni 81.31499999999998 2.085 8.339999999999998
Ni 81.31499999999998 0.0 10.424999999999997
Ni 79.22999999999999 2.085 10.424999999999997
Ni 79.22999999999999 0.0 12.509999999999998
Ni 81.31499999999998 2.085 12.509999999999998
Ni 81.31499999999998 0.0 14.594999999999997
Ni 79.22999999999999 2.085 14.594999999999997
Ni 79.22999999999999 0.0 16.679999999999996
Ni 81.31499999999998 2.085 16.679999999999996
Ni 81.31499999999998 0.0 18.764999999999997
Ni 79.22999999999999 2.085 18.764999999999997
Ni 79.22999999999999 0.0 20.849999999999994
Ni 81.31499999999998 2.085 20.849999999999994
Ni 81.31499999999998 0.0 22.934999999999995
Ni 79.22999999999999 2.085 22.934999999999995
Ni 79.22999999999999 0.0 25.019999999999996
Ni 81.31499999999998 2.085 25.019999999999996
Ni 81.31499999999998 0.0 27.104999999999997
Ni 79.22999999999999 2.085 27.104999999999997
Ni 79.22999999999999 4.170000000000001 0.0
Ni 81.31499999999998 6.255000000000002 0.0
Ni 81.31499999999998 4.170000000000001 2.085
Ni 79.22999999999999 6.255000000000002 2.085
Ni 79.22999999999999 4.170000000000001 4.169999999999999
Ni 81.31499999999998 6.255000000000002 4.169999999999999
Ni 81.31499999999998 4.170000000000001 6.254999999999999
Ni 79.22999999999999 6.255000000000002 6.254999999999999
Ni 79.22999999999999 4.170000000000001 8.339999999999998
Ni 81.31499999999998 6.255000000000002 8.339999999999998
Ni 81.31499999999998 4.170000000000001 10.424999999999997
Ni 79.22999999999999 6.255000000000002 10.424999999999997
Ni 79.22999999999999 4.170000000000001 12.509999999999998
Ni 81.31499999999998 6.255000000000002 12.509999999999998
Ni 81.31499999999998 4.170000000000001 14.594999999999997
Ni 79.22999999999999 6.255000000000002 14.594999999999997
Ni 79.22999999999999 4.170000000000001 16.679999999999996
Ni 81.31499999999998 6.255000000000002 16.679999999999996
Ni 81.31499999999998 4.170000000000001 18.764999999999997
Ni 79.22999999999999 6.255000000000002 18.764999999999997
Ni 79.22999999999999 4.170000000000001 20.849999999999994
Ni 81.31499999999998 6.255000000000002 20.849999999999994
Ni 81.31499999999998 4.170000000000001 22.934999999999995
Ni 79.22999999999999 6.255000000000002 22.934999999999995
Ni 79.22999999999999 4.170000000000001 25.019999999999996
Ni 81.31499999999998 6.255000000000002 25.019999999999996
Ni 81.31499999999998 4.170000000000001 27.104999999999997
Ni 79.22999999999999 8.340000000000002 0.0
Ni 81.31499999999998 10.425 0.0
Ni 81.31499999999998 8.340000000000002 2.085
Ni 79.22999999999999 10.425 2.085
Ni 79.22999999999999 8.340000000000002 4.169999999999999
Ni 81.31499999999998 10.425 4.169999999999999
Ni 81.31499999999998 8.340000000000002 6.254999999999999
Ni 79.22999999999999 10.425 6.254999999999999
Ni 79.22999999999999 8.340000000000002 8.339999999999998
Ni 81.31499999999998 10.425 8.339999999999998
Ni 81.31499999999998 8.340000000000002 10.424999999999997
Ni 79.22999999999999 10.425 10.424999999999997
Ni 79.22999999999999 8.340000000000002 12.509999999999998
Ni 81.31499999999998 10.425 12.509999999999998
Ni 81.31499999999998 8.340000000000002 14.594999999999997
Ni 79.22999999999999 10.425 14.594999999999997
Ni 79.22999999999999 8.340000000000002 16.679999999999996
Ni 81.31499999999998 10.425 16.679999999999996
Ni 81.31499999999998 8.340000000000002 18.764999999999997
Ni 79.22999999999999 10.425 18.764999999999997
Ni 79.22999999999999 8.340000000000002 20.849999999999994
Ni 81.31499999999998 10.425 20.849999999999994
Ni 81.31499999999998 8.340000000000002 22.934999999999995
Ni 79.22999999999999 12.510000000000003 0.0
Ni 81.31499999999998 14.595000000000002 0.0
Ni 81.31499999999998 12.510000000000003 2.085
Ni 79.22999999999999 14.595000000000002 2.085
Ni 79.22999999999999 12.510000000000003 4.169999999999999
Ni 81.31499999999998 14.595000000000002 4.169999999999999
Ni 81.31499999999998 12.510000000000003 6.254999999999999
Ni 79.22999999999999 14.595000000000002 6.254999999999999
Ni 79.22999999999999 12.510000000000003 8.339999999999998
Ni 81.31499999999998 14.595000000000002 8.339999999999998
Ni 81.31499999999998 12.510000000000003 10.424999999999997
Ni 79.22999999999999 14.595000000000002 10.424999999999997
Ni 79.22999999999999 12.510000000000003 12.509999999999998
Ni 81.31499999999998 14.595000000000002 12.509999999999998
Ni 81.31499999999998 12.510000000000003 14.594999999999997
Ni 79.22999999999999 14.595000000000002 14.594999999999997
Ni 79.22999999999999 12.510000000000003 16.679999999999996
Ni 81.31499999999998 14.595000000000002 16.679999999999996
Ni 81.31499999999998 12.510000000000003 18.764999999999997
Ni 79.22999999999999 16.680000000000003 0.0
Ni 81.31499999999998 18.765000000000004 0.0
Ni 81.31499999999998 16.680000000000003 2.085
Ni 79.22999999999999 18.765000000000004 2.085
Ni 79.22999999999999 16.680000000000003 4.169999999999999
Ni 81.31499999999998 18.765000000000004 4.169999999999999
Ni 81.31499999999998 16.680000000000003 6.254999999999999
Ni 79.22999999999999 18.765000000000004 6.254999999999999
Ni 79.22999999999999 16.680000000000003 8.339999999999998
Ni 81.31499999999998 18.765000000000004 8.339999999999998
Ni 81.31499999999998 16.680000000000003 10.424999999999997
Ni 79.22999999999999 18.765000000000004 10.424999999999997
Ni 79.22999999999999 16.680000000000003 12.509999999999998
Ni 81.31499999999998 18.765000000000004 12.509999999999998
Ni 81.31499999999998 16.680000000000003 14.594999999999997
Ni 79.22999999999999 20.849999999999998 0.0
Ni 81.31499999999998 22.935000000000002 0.0
Ni 81.31499999999998 20.849999999999998 2.085
Ni 79.22999999999999 22.935000000000002 2.085
Ni 79.22999999999999 20.849999999999998 4.169999999999999
Ni 81.31499999999998 22.935000000000002 4.169999999999999
Ni 81.31499999999998 20.849999999999998 6.254999999999999
Ni 79.22999999999999 22.935000000000002 6.254999999999999
Ni 79.22999999999999 20.849999999999998 8.339999999999998
Ni 81.31499999999998 22.935000000000002 8.339999999999998
Ni 81.31499999999998 20.849999999999998 10.424999999999997
Ni 79.22999999999999 22.935000000000002 10.424999999999997
Ni 81.31499999999998 22.935000000000002 12.509999999999998
Ni 79.22999999999999 25.020000000000007 0.0
Ni 81.31499999999998 27.105000000000008 0.0
Ni 81.31499999999998 25.020000000000007 2.085
Ni 79.22999999999999 27.105000000000008 2.085
Ni 79.22999999999999 25.020000000000007 4.169999999999999
Ni 81.31499999999998 27.105000000000008 4.169999999999999
Ni 81.31499999999998 25.020000000000007 6.254999999999999
Ni 79.22999999999999 27.105000000000008 6.254999999999999
Ni 79.22999999999999 25.020000000000007 8.339999999999998
Ni 81.31499999999998 27.105000000000008 8.339999999999998
Ni 81.31499999999998 25.020000000000007 10.424999999999997
Ni 79.22999999999999 27.105000000000008 10.424999999999997
Ni 79.22999999999999 25.020000000000007 12.509999999999998
Ni 81.31499999999998 27.105000000000008 12.509999999999998
Ni 81.31499999999998 25.020000000000007 14.594999999999997
Ni 79.22999999999999 27.105000000000008 14.594999999999997
Ni 81.31499999999998 27.105000000000008 16.679999999999996
Ni 79.22999999999999 29.190000000000005 0.0
Ni 81.31499999999998 31.275000000000006 0.0
Ni 81.31499999999998 29.190000000000005 2.085
Ni 79.22999999999999 31.275000000000006 2.085
Ni 79.22999999999999 29.190000000000005 4.169999999999999
Ni 81.31499999999998 31.275000000000006 4.169999999999999
Ni 81.31499999999998 29.190000000000005 6.254999999999999
Ni 79.22999999999999 31.275000000000006 6.254999999999999
Ni 79.22999999999999 29.190000000000005 8.339999999999998
Ni 81.31499999999998 31.275000000000006 8.339999999999998
Ni 81.31499999999998 29.190000000000005 10.424999999999997
Ni 79.22999999999999 31.275000000000006 10.424999999999997
Ni 79.22999999999999 29.190000000000005 12.509999999999998
Ni 81.31499999999998 31.275000000000006 12.509999999999998
Ni 81.31499999999998 29.190000000000005 14.594999999999997
Ni 79.22999999999999 31.275000000000006 14.594999999999997
Ni 79.22999999999999 29.190000000000005 16.679999999999996
Ni 81.31499999999998 31.275000000000006 16.679999999999996
Ni 81.31499999999998 29.190000000000005 18.764999999999997
Ni 79.22999999999999 31.275000000000006 18.764999999999997
Ni 81.31499999999998 31.275000000000006 20.849999999999994
Ni 79.22999999999999 33.36000000000001 0.0
Ni 81.31499999999998 35.44500000000001 0.0
Ni 81.31499999999998 33.36000000000001 2.085
Ni 79.22999999999999 35.44500000000001 2.085
Ni 79.22999999999999 33.36000000000001 4.169999999999999
Ni 81.31499999999998 35.44500000000001 4.169999999999999
Ni 81.31499999999998 33.36000000000001 6.254999999999999
Ni 79.22999999999999 35.44500000000001 6.254999999999999
Ni 79.22999999999999 33.36000000000001 8.339999999999998
Ni 81.31499999999998 35.44500000000001 8.339999999999998
Ni 81.31499999999998 33.36000000000001 10.424999999999997
Ni 79.22999999999999 35.44500000000001 10.424999999999997
Ni 79.22999999999999 33.36000000000001 12.509999999999998
Ni 81.31499999999998 35.44500000000001 12.509999999999998
Ni 81.31499999999998 33.36000000000001 14.594999999999997
Ni 79.22999999999999 35.44500000000001 14.594999999999997
Ni 79.22999999999999 33.36000000000001 16.679999999999996
Ni 81.31499999999998 35.44500000000001 16.679999999999996
Ni 81.31499999999998 33.36000000000001 18.764999999999997
Ni 79.22999999999999 35.44500000000001 18.764999999999997
Ni 79.22999999999999 33.36000000000001 20.849999999999994
Ni 81.31499999999998 35.44500000000001 20.849999999999994
Ni 81.31499999999998 33.36000000000001 22.934999999999995
Ni 79.22999999999999 35.44500000000001 22.934999999999995
Ni 81.31499999999998 35.44500000000001 25.019999999999996
Ni 79.22999999999999 37.53 0.0
Ni 81.31499999999998 39.615 0.0
Ni 81.31499999999998 37.53 2.085
Ni 79.22999999999999 39.615 2.085
Ni 79.22999999999999 37.53 4.169999999999999
Ni 81.31499999999998 39.615 4.169999999999999
Ni 81.31499999999998 37.53 6.254999999999999
Ni 79.22999999999999 39.615 6.254999999999999
Ni 79.22999999999999 37.53 8.339999999999998
Ni 81.31499999999998 39.615 8.339999999999998
Ni 81.31499999999998 37.53 10.424999999999997
Ni 79.22999999999999 39.615 10.424999999999997
Ni 79.22999999999999 37.53 12.509999999999998
Ni 81.31499999999998 39.615 12.509999999999998
Ni 81.31499999999998 37.53 14.594999999999997
Ni 79.22999999999999 39.615 14.594999999999997
Ni 79.22999999999999 37.53 16.679999999999996
Ni 81.31499999999998 39.615 16.679999999999996
Ni 81.31499999999998 37.53 18.764999999999997
Ni 79.22999999999999 39.615 18.764999999999997
Ni 79.22999999999999 37.53 20.849999999999994
Ni 81.31499999999998 39.615 20.849999999999994
Ni 81.31499999999998 37.53 22.934999999999995
Ni 79.22999999999999 39.615 22.934999999999995
Ni 79.22999999999999 37.53 25.019999999999996
Ni 81.31499999999998 39.615 25.019999999999996
Ni 81.31499999999998 37.53 27.104999999999997
Ni 79.22999999999999 39.615 27.104999999999997
Ni 83.39999999999999 0.0 0.0
Ni 85.48499999999999 2.085 0.0
Ni 85.48499999999999 0.0 2.085
Ni 83.39999999999999 2.085 2.085
Ni 83.39999999999999 0.0 4.169999999999999
Ni 85.48499999999999 2.085 4.169999999999999
Ni 85.48499999999999 0.0 6.254999999999999
Ni 83.39999999999999 2.085 6.254999999999999
Ni 83.39999999999999 0.0 8.339999999999998
Ni 85.48499999999999 2.085 8.339999999999998
Ni 85.48499999999999 0.0 10.424999999999997
Ni 83.39999999999999 2.085 10.424999999999997
Ni 83.39999999999999 0.0 12.509999999999998
Ni 85.48499999999999 2.085 12.509999999999998
Ni 85.48499999999999 0.0 14.594999999999997
Ni 83.39999999999999 2.085 14.594999999999997
Ni 83.39999999999999 0.0 16.679999999999996
Ni 85.48499999999999 2.085 16.679999999999996
Ni 85.48499999999999 0.0 18.764999999999997
Ni 83.39999999999999 2.085 18.764999999999997
Ni 83.39999999999999 0.0 20.849999999999994
Ni 85.48499999999999 2.085 20.849999999999994
Ni 85.48499999999999 0.0 22.934999999999995
Ni 83.39999999999999 2.085 22.934999999999995
Ni 83.39999999999999 0.0 25.019999999999996
Ni 85.48499999999999 2.085 25.019999999999996
Ni 85.48499999999999 0.0 27.104999999999997
Ni 83.39999999999999 2.085 27.104999999999997
Ni 83.39999999999999 4.170000000000001 0.0
Ni 85.48499999999999 6.255000000000002 0.0
Ni 85.48499999999999 4.170000000000001 2.085
Ni 83.39999999999999 6.255000000000002 2.085
Ni 83.39999999999999 4.170000000000001 4.169999999999999
Ni 85.48499999999999 6.255000000000002 4.169999999999999
Ni 85.48499999999999 4.170000000000001 6.254999999999999
Ni 83.39999999999999 6.255000000000002 6.254999999999999
Ni 83.39999999999999 4.170000000000001 8.339999999999998
Ni 85.48499999999999 6.255000000000002 8.339999999999998
Ni 85.48499999999999 4.170000000000001 10.424999999999997
Ni 83.39999999999999 6.255000000000002 10.424999999999997
Ni 83.39999999999999 4.170000000000001 12.509999999999998
Ni 85.48499999999999 6.255000000000002 12.509999999999998
Ni 85.48499999999999 4.170000000000001 14.594999999999997
Ni 83.39999999999999 6.255000000000002 14.594999999999997
Ni 83.39999999999999 4.170000000000001 16.679999999999996
Ni 85.48499999999999 6.255000000000002 16.679999999999996
Ni 85.48499999999999 4.170000000000001 18.764999999999997
Ni 83.39999999999999 6.255000000000002 18.764999999999997
Ni 83.39999999999999 4.170000000000001 20.849999999999994
Ni 85.48499999999999 6.255000000000002 20.849999999999994
Ni 85.48499999999999 4.170000000000001 22.934999999999995
Ni 83.39999999999999 6.255000000000002 22.934999999999995
Ni 83.39999999999999 4.170000000000001 25.019999999999996
Ni 85.48499999999999 6.255000000000002 25.019999999999996
Ni 85.48499999999999 4.170000000000001 27.104999999999997
Ni 83.39999999999999 8.340000000000002 0.0
Ni 85.48499999999999 10.425 0.0
Ni 85.48499999999999 8.340000000000002 2.085
Ni 83.39999999999999 10.425 2.085
Ni 83.39999999999999 8.340000000000002 4.169999999999999
Ni 85.48499999999999 10.425 4.169999999999999
Ni 85.48499999999999 8.340000000000002 6.254999999999999
Ni 83.39999999999999 10.425 6.254999999999999
Ni 83.39999999999999 8.340000000000002 8.339999999999998
Ni 85.48499999999999 10.425 8.339999999999998
Ni 85.48499999999999 8.340000000000002 10.424999999999997
Ni 83.39999999999999 10.425 10.424999999999997
Ni 83.39999999999999 8.340000000000002 12.509999999999998
Ni 85.48499999999999 10.425 12.509999999999998
Ni 85.48499999999999 8.340000000000002 14.594999999999997
Ni 83.39999999999999 10.425 14.594999999999997
Ni 83.39999999999999 8.340000000000002 16.679999999999996
Ni 85.48499999999999 10.425 16.679999999999996
Ni 85.48499999999999 8.340000000000002 18.764999999999997
Ni 83.39999999999999 10.425 18.764999999999997
Ni 83.39999999999999 8.340000000000002 20.849999999999994
Ni 85.48499999999999 10.425 20.849999999999994
Ni 85.48499999999999 8.340000000000002 22.934999999999995
Ni 83.39999999999999 12.510000000000003 0.0
Ni 85.48499999999999 14.595000000000002 0.0
Ni 85.48499999999999 12.510000000000003 2.085
Ni 83.39999999999999 14.595000000000002 2.085
Ni 83.39999999999999 12.510000000000003 4.169999999999999
Ni 85.48499999999999 14.595000000000002 4.169999999999999
Ni 85.48499999999999 12.510000000000003 6.254999999999999
Ni 83.39999999999999 14.595000000000002 6.254999999999999
Ni 83.39999999999999 12.510000000000003 8.339999999999998
Ni 85.48499999999999 14.595000000000002 8.339999999999998
Ni 85.48499999999999 12.510000000000003 10.424999999999997
Ni 83.39999999999999 14.595000000000002 10.424999999999997
Ni 83.39999999999999 12.510000000000003 12.509999999999998
Ni 85.48499999999999 14.595000000000002 12.509999999999998
Ni 85.48499999999999 12.510000000000003 14.594999999999997
Ni 83.39999999999999 14.595000000000002 14.594999999999997
Ni 83.39999999999999 12.510000000000003 16.679999999999996
Ni 85.48499999999999 14.595000000000002 16.679999999999996
Ni 85.48499999999999 12.510000000000003 18.764999999999997
Ni 83.39999999999999 16.680000000000003 0.0
Ni 85.48499999999999 18.765000000000004 0.0
Ni 85.48499999999999 16.680000000000003 2.085
Ni 83.39999999999999 18.765000000000004 2.085
Ni 83.39999999999999 16.680000000000003 4.169999999999999
Ni 85.48499999999999 18.765000000000004 4.169999999999999
Ni 85.48499999999999 16.680000000000003 6.254999999999999
Ni 83.39999999999999 18.765000000000004 6.254999999999999
Ni 83.39999999999999 16.680000000000003 8.339999999999998
Ni 85.48499999999999 18.765000000000004 8.339999999999998
Ni 85.48499999999999 16.680000000000003 10.424999999999997
Ni 83.39999999999999 18.765000000000004 10.424999999999997
Ni 83.39999999999999 16.680000000000003 12.509999999999998
Ni 85.48499999999999 18.765000000000004 12.509999999999998
Ni 85.48499999999999 16.680000000000003 14.594999999999997
Ni 83.39999999999999 20.849999999999998 0.0
Ni 85.48499999999999 22.935000000000002 0.0
Ni 85.48499999999999 20.849999999999998 2.085
Ni 83.39999999999999 22.935000000000002 2.085
Ni 83.39999999999999 20.849999999999998 4.169999999999999
Ni 85.48499999999999 22.935000000000002 4.169999999999999
Ni 85.48499999999999 20.849999999999998 6.254999999999999
Ni 83.39999999999999 22.935000000000002 6.254999999999999
Ni 83.39999999999999 20.849999999999998 8.339999999999998
Ni 85.48499999999999 22.935000000000002 8.339999999999998
Ni 85.48499999999999 20.849999999999998 10.424999999999997
Ni 83.39999999999999 22.935000000000002 10.424999999999997
Ni 85.48499999999999 22.935000000000002 12.509999999999998
Ni 83.39999999999999 25.020000000000007 0.0
Ni 85.48499999999999 27.105000000000008 0.0
Ni 85.48499999999999 25.020000000000007 2.085
Ni 83.39999999999999 27.105000000000008 2.085
Ni 83.39999999999999 25.020000000000007 4.169999999999999
Ni 85.48499999999999 27.105000000000008 4.169999999999999
Ni 85.48499999999999 25.020000000000007 6.254999999999999
Ni 83.39999999999999 27.105000000000008 6.254999999999999
Ni 83.39999999999999 25.020000000000007 8.339999999999998
Ni 85.48499999999999 27.105000000000008 8.339999999999998
Ni 85.48499999999999 25.020000000000007 10.424999999999997
Ni 83.39999999999999 27.105000000000008 10.424999999999997
Ni 83.39999999999999 25.020000000000007 12.509999999999998
Ni 85.48499999999999 27.105000000000008 12.509999999999998
Ni 85.48499999999999 25.020000000000007 14.594999999999997
Ni 83.39999999999999 27.105000000000008 14.594999999999997
Ni 85.48499999999999 27.105000000000008 16.679999999999996
Ni 83.39999999999999 29.190000000000005 0.0
Ni 85.48499999999999 31.275000000000006 0.0
Ni 85.48499999999999 29.190000000000005 2.085
Ni 83.39999999999999 31.275000000000006 2.085
Ni 83.39999999999999 29.190000000000005 4.169999999999999
Ni 85.48499999999999 31.275000000000006 4.169999999999999
Ni 85.48499999999999 29.190000000000005 6.254999999999999
Ni 83.39999999999999 31.275000000000006 6.254999999999999
Ni 83.39999999999999 29.190000000000005 8.339999999999998
Ni 85.48499999999999 31.275000000000006 8.339999999999998
Ni 85.48499999999999 29.190000000000005 10.424999999999997
Ni 83.39999999999999 31.275000000000006 10.424999999999997
Ni 83.39999999999999 29.190000000000005 12.509999999999998
Ni 85.48499999999999 31.275000000000006 12.509999999999998
Ni 85.48499999999999 29.190000000000005 14.594999999999997
Ni 83.39999999999999 31.275000000000006 14.594999999999997
Ni 83.39999999999999 29.190000000000005 16.679999999999996
Ni 85.48499999999999 31.275000000000006 16.679999999999996
Ni 85.48499999999999 29.190000000000005 18.764999999999997
Ni 83.39999999999999 31.275000000000006 18.764999999999997
Ni 85.48499999999999 31.275000000000006 20.849999999999994
Ni 83.39999999999999 33.36000000000001 0.0
Ni 85.48499999999999 35.44500000000001 0.0
Ni 85.48499999999999 33.36000000000001 2.085
Ni 83.39999999999999 35.44500000000001 2.085
Ni 83.39999999999999 33.36000000000001 4.169999999999999
Ni 85.48499999999999 35.44500000000001 4.169999999999999
Ni 85.48499999999999 33.36000000000001 6.254999999999999
Ni 83.39999999999999 35.44500000000001 6.254999999999999
Ni 83.39999999999999 33.36000000000001 8.339999999999998
Ni 85.48499999999999 35.44500000000001 8.339999999999998
Ni 85.48499999999999 33.36000000000001 10.424999999999997
Ni 83.39999999999999 35.44500000000001 10.424999999999997
Ni 83.39999999999999 33.36000000000001 12.509999999999998
Ni 85.48499999999999 35.44500000000001 12.509999999999998
Ni 85.48499999999999 33.36000000000001 14.594999999999997
Ni 83.39999999999999 35.44500000000001 14.594999999999997
Ni 83.39999999999999 33.36000000000001 16.679999999999996
Ni 85.48499999999999 35.44500000000001 16.679999999999996
Ni 85.48499999999999 33.36000000000001 18.764999999999997
Ni 83.39999999999999 35.44500000000001 18.764999999999997
Ni 83.39999999999999 33.36000000000001 20.849999999999994
Ni 85.48499999999999 35.44500000000001 20.849999999999994
Ni 85.48499999999999 33.36000000000001 22.934999999999995
Ni 83.39999999999999 35.44500000000001 22.934999999999995
Ni 85.48499999999999 35.44500000000001 25.019999999999996
Ni 83.39999999999999 37.53 0.0
Ni 85.48499999999999 39.615 0.0
Ni 85.48499999999999 37.53 2.085
Ni 83.39999999999999 39.615 2.085
Ni 83.39999999999999 37.53 4.169999999999999
Ni 85.48499999999999 39.615 4.169999999999999
Ni 85.48499999999999 37.53 6.254999999999999
Ni 83.39999999999999 39.615 6.254999999999999
Ni 83.39999999999999 37.53 8.339999999999998
Ni 85.48499999999999 39.615 8.339999999999998
Ni 85.48499999999999 37.53 10.424999999999997
Ni 83.39999999999999 39.615 10.424999999999997
Ni 83.39999999999999 37.53 12.509999999999998
Ni 85.48499999999999 39.615 12.509999999999998
Ni 85.48499999999999 37.53 14.594999999999997
Ni 83.39999999999999 39.615 14.594999999999997
Ni 83.39999999999999 37.53 16.679999999999996
Ni 85.48499999999999 39.615 16.679999999999996
Ni 85.48499999999999 37.53 18.764999999999997
Ni 83.39999999999999 39.615 18.764999999999997
Ni 83.39999999999999 37.53 20.849999999999994
Ni 85.48499999999999 39.615 20.849999999999994
Ni 85.48499999999999 37.53 22.934999999999995
Ni 83.39999999999999 39.615 22.934999999999995
Ni 83.39999999999999 37.53 25.019999999999996
Ni 85.48499999999999 39.615 25.019999999999996
Ni 85.48499999999999 37.53 27.104999999999997
Ni 83.39999999999999 39.615 27.104999999999997
Ni 87.57 0.0 0.0
Ni 89.65499999999999 2.085 0.0
Ni 89.65499999999999 0.0 2.085
Ni 87.57 2.085 2.085
Ni 87.57 0.0 4.169999999999999
Ni 89.65499999999999 2.085 4.169999999999999
Ni 89.65499999999999 0.0 6.254999999999999
Ni 87.57 2.085 6.254999999999999
Ni 87.57 0.0 8.339999999999998
Ni 89.65499999999999 2.085 8.339999999999998
Ni 89.65499999999999 0.0 10.424999999999997
Ni 87.57 2.085 10.424999999999997
Ni 87.57 0.0 12.509999999999998
Ni 89.65499999999999 2.085 12.509999999999998
Ni 89.65499999999999 0.0 14.594999999999997
Ni 87.57 2.085 14.594999999999997
Ni 87.57 0.0 16.679999999999996
Ni 89.65499999999999 2.085 16.679999999999996
Ni 89.65499999999999 0.0 18.764999999999997
Ni 87.57 2.085 18.764999999999997
Ni 87.57 0.0 20.849999999999994
Ni 89.65499999999999 2.085 20.849999999999994
Ni 89.65499999999999 0.0 22.934999999999995
Ni 87.57 2.085 22.934999999999995
Ni 87.57 0.0 25.019999999999996
Ni 89.65499999999999 2.085 25.019999999999996
Ni 89.65499999999999 0.0 27.104999999999997
Ni 87.57 2.085 27.104999999999997
Ni 87.57 4.170000000000001 0.0
Ni 89.65499999999999 6.255000000000002 0.0
Ni 89.65499999999999 4.170000000000001 2.085
Ni 87.57 6.255000000000002 2.085
Ni 87.57 4.170000000000001 4.169999999999999
Ni 89.65499999999999 6.255000000000002 4.169999999999999
Ni 89.65499999999999 4.170000000000001 6.254999999999999
Ni 87.57 6.255000000000002 6.254999999999999
Ni 87.57 4.170000000000001 8.339999999999998
Ni 89.65499999999999 6.255000000000002 8.339999999999998
Ni 89.65499999999999 4.170000000000001 10.424999999999997
Ni 87.57 6.255000000000002 10.424999999999997
Ni 87.57 4.170000000000001 12.509999999999998
Ni 89.65499999999999 6.255000000000002 12.509999999999998
Ni 89.65499999999999 4.170000000000001 14.594999999999997
Ni 87.57 6.255000000000002 14.594999999999997
Ni 87.57 4.170000000000001 16.679999999999996
Ni 89.65499999999999 6.255000000000002 16.679999999999996
Ni 89.65499999999999 4.170000000000001 18.764999999999997
Ni 87.57 6.255000000000002 18.764999999999997
Ni 87.57 4.170000000000001 20.849999999999994
Ni 89.65499999999999 6.255000000000002 20.849999999999994
Ni 89.65499999999999 4.170000000000001 22.934999999999995
Ni 87.57 6.255000000000002 22.934999999999995
Ni 87.57 4.170000000000001 25.019999999999996
Ni 89.65499999999999 6.255000000000002 25.019999999999996
Ni 89.65499999999999 4.170000000000001 27.104999999999997
Ni 87.57 8.340000000000002 0.0
Ni 89.65499999999999 10.425 0.0
Ni 89.65499999999999 8.340000000000002 2.085
Ni 87.57 10.425 2.085
Ni 87.57 8.340000000000002 4.169999999999999
Ni 89.65499999999999 10.425 4.169999999999999
Ni 89.65499999999999 8.340000000000002 6.254999999999999
Ni 87.57 10.425 6.254999999999999
Ni 87.57 8.340000000000002 8.339999999999998
Ni 89.65499999999999 10.425 8.339999999999998
Ni 89.65499999999999 8.340000000000002 10.424999999999997
Ni 87.57 10.425 10.424999999999997
Ni 87.57 8.340000000000002 12.509999999999998
Ni 89.65499999999999 10.425 12.509999999999998
Ni 89.65499999999999 8.340000000000002 14.594999999999997
Ni 87.57 10.425 14.594999999999997
Ni 87.57 8.340000000000002 16.679999999999996
Ni 89.65499999999999 10.425 16.679999999999996
Ni 89.65499999999999 8.340000000000002 18.764999999999997
Ni 87.57 10.425 18.764999999999997
Ni 87.57 8.340000000000002 20.849999999999994
Ni 89.65499999999999 10.425 20.849999999999994
Ni 89.65499999999999 8.340000000000002 22.934999999999995
Ni 87.57 12.510000000000003 0.0
Ni 89.65499999999999 14.595000000000002 0.0
Ni 89.65499999999999 12.510000000000003 2.085
Ni 87.57 14.595000000000002 2.085
Ni 87.57 12.510000000000003 4.169999999999999
Ni 89.65499999999999 14.595000000000002 4.169999999999999
Ni 89.65499999999999 12.510000000000003 6.254999999999999
Ni 87.57 14.595000000000002 6.254999999999999
Ni 87.57 12.510000000000003 8.339999999999998
Ni 89.65499999999999 14.595000000000002 8.339999999999998
Ni 89.65499999999999 12.510000000000003 10.424999999999997
Ni 87.57 14.595000000000002 10.424999999999997
Ni 87.57 12.510000000000003 12.509999999999998
Ni 89.65499999999999 14.595000000000002 12.509999999999998
Ni 89.65499999999999 12.510000000000003 14.594999999999997
Ni 87.57 14.595000000000002 14.594999999999997
Ni 87.57 12.510000000000003 16.679999999999996
Ni 89.65499999999999 14.595000000000002 16.679999999999996
Ni 89.65499999999999 12.510000000000003 18.764999999999997
Ni 87.57 16.680000000000003 0.0
Ni 89.65499999999999 18.765000000000004 0.0
Ni 89.65499999999999 16.680000000000003 2.085
Ni 87.57 18.765000000000004 2.085
Ni 87.57 16.680000000000003 4.169999999999999
Ni 89.65499999999999 18.765000000000004 4.169999999999999
Ni 89.65499999999999 16.680000000000003 6.254999999999999
Ni 87.57 18.765000000000004 6.254999999999999
Ni 87.57 16.680000000000003 8.339999999999998
Ni 89.65499999999999 18.765000000000004 8.339999999999998
Ni 89.65499999999999 16.680000000000003 10.424999999999997
Ni 87.57 18.765000000000004 10.424999999999997
Ni 87.57 16.680000000000003 12.509999999999998
Ni 89.65499999999999 18.765000000000004 12.509999999999998
Ni 89.65499999999999 16.680000000000003 14.594999999999997
Ni 87.57 20.849999999999998 0.0
Ni 89.65499999999999 22.935000000000002 0.0
Ni 89.65499999999999 20.849999999999998 2.085
Ni 87.57 22.935000000000002 2.085
Ni 87.57 20.849999999999998 4.169999999999999
Ni 89.65499999999999 22.935000000000002 4.169999999999999
Ni 89.65499999999999 20.849999999999998 6.254999999999999
Ni 87.57 22.935000000000002 6.254999999999999
Ni 87.57 20.849999999999998 8.339999999999998
Ni 89.65499999999999 22.935000000000002 8.339999999999998
Ni 89.65499999999999 20.849999999999998 10.424999999999997
Ni 87.57 22.935000000000002 10.424999999999997
Ni 89.65499999999999 22.935000000000002 12.509999999999998
Ni 87.57 25.020000000000007 0.0
Ni 89.65499999999999 27.105000000000008 0.0
Ni 89.65499999999999 25.020000000000007 2.085
Ni 87.57 27.105000000000008 2.085
Ni 87.57 25.020000000000007 4.169999999999999
Ni 89.65499999999999 27.105000000000008 4.169999999999999
Ni 89.65499999999999 25.020000000000007 6.254999999999999
Ni 87.57 27.105000000000008 6.254999999999999
Ni 87.57 25.020000000000007 8.339999999999998
Ni 89.65499999999999 27.105000000000008 8.339999999999998
Ni 89.65499999999999 25.020000000000007 10.424999999999997
Ni 87.57 27.105000000000008 10.424999999999997
Ni 87.57 25.020000000000007 12.509999999999998
Ni 89.65499999999999 27.105000000000008 12.509999999999998
Ni 89.65499999999999 25.020000000000007 14.594999999999997
Ni 87.57 27.105000000000008 14.594999999999997
Ni 89.65499999999999 27.105000000000008 16.679999999999996
Ni 87.57 29.190000000000005 0.0
Ni 89.65499999999999 31.275000000000006 0.0
Ni 89.65499999999999 29.190000000000005 2.085
Ni 87.57 31.275000000000006 2.085
Ni 87.57 29.190000000000005 4.169999999999999
Ni 89.65499999999999 31.275000000000006 4.169999999999999
Ni 89.65499999999999 29.190000000000005 6.254999999999999
Ni 87.57 31.275000000000006 6.254999999999999
Ni 87.57 29.190000000000005 8.339999999999998
Ni 89.65499999999999 31.275000000000006 8.339999999999998
Ni 89.65499999999999 29.190000000000005 10.424999999999997
Ni 87.57 31.275000000000006 10.424999999999997
Ni 87.57 29.190000000000005 12.509999999999998
Ni 89.65499999999999 31.275000000000006 12.509999999999998
Ni 89.65499999999999 29.190000000000005 14.594999999999997
Ni 87.57 31.275000000000006 14.594999999999997
Ni 87.57 29.190000000000005 16.679999999999996
Ni 89.65499999999999 31.275000000000006 16.679999999999996
Ni 89.65499999999999 29.190000000000005 18.764999999999997
Ni 87.57 31.275000000000006 18.764999999999997
Ni 89.65499999999999 31.275000000000006 20.849999999999994
Ni 87.57 33.36000000000001 0.0
Ni 89.65499999999999 35.44500000000001 0.0
Ni 89.65499999999999 33.36000000000001 2.085
Ni 87.57 35.44500000000001 2.085
Ni 87.57 33.36000000000001 4.169999999999999
Ni 89.65499999999999 35.44500000000001 4.169999999999999
Ni 89.65499999999999 33.36000000000001 6.254999999999999
Ni 87.57 35.44500000000001 6.254999999999999
Ni 87.57 33.36000000000001 8.339999999999998
Ni 89.65499999999999 35.44500000000001 8.339999999999998
Ni 89.65499999999999 33.36000000000001 10.424999999999997
Ni 87.57 35.44500000000001 10.424999999999997
Ni 87.57 33.36000000000001 12.509999999999998
Ni 89.65499999999999 35.44500000000001 12.509999999999998
Ni 89.65499999999999 33.36000000000001 14.594999999999997
Ni 87.57 35.44500000000001 14.594999999999997
Ni 87.57 33.36000000000001 16.679999999999996
Ni 89.65499999999999 35.44500000000001 16.679999999999996
Ni 89.65499999999999 33.36000000000001 18.764999999999997
Ni 87.57 35.44500000000001 18.764999999999997
Ni 87.57 33.36000000000001 20.849999999999994
Ni 89.65499999999999 35.44500000000001 20.849999999999994
Ni 89.65499999999999 33.36000000000001 22.934999999999995
Ni 87.57 35.44500000000001 22.934999999999995
Ni 89.65499999999999 35.44500000000001 25.019999999999996
Ni 87.57 37.53 0.0
Ni 89.65499999999999 39.615 0.0
Ni 89.65499999999999 37.53 2.085
Ni 87.57 39.615 2.085
Ni 87.57 37.53 4.169999999999999
Ni 89.65499999999999 39.615 4.169999999999999
Ni 89.65499999999999 37.53 6.254999999999999
Ni 87.57 39.615 6.254999999999999
Ni 87.57 37.53 8.339999999999998
Ni 89.65499999999999 39.615 8.339999999999998
Ni 89.65499999999999 37.53 10.424999999999997
Ni 87.57 39.615 10.424999999999997
Ni 87.57 37.53 12.509999999999998
Ni 89.65499999999999 39.615 12.509999999999998
Ni 89.65499999999999 37.53 14.594999999999997
Ni 87.57 39.615 14.594999999999997
Ni 87.57 37.53 16.679999999999996
Ni 89.65499999999999 39.615 16.679999999999996
Ni 89.65499999999999 37.53 18.764999999999997
Ni 87.57 39.615 18.764999999999997
Ni 87.57 37.53 20.849999999999994
Ni 89.65499999999999 39.615 20.849999999999994
Ni 89.65499999999999 37.53 22.934999999999995
Ni 87.57 39.615 22.934999999999995
Ni 87.57 37.53 25.019999999999996
Ni 89.65499999999999 39.615 25.019999999999996
Ni 89.65499999999999 37.53 27.104999999999997
Ni 87.57 39.615 27.104999999999997
Ni 91.74 0.0 0.0
Ni 93.82499999999999 2.085 0.0
Ni 93.82499999999999 0.0 2.085
Ni 91.74 2.085 2.085
Ni 91.74 0.0 4.169999999999999
Ni 93.82499999999999 2.085 4.169999999999999
Ni 93.82499999999999 0.0 6.254999999999999
Ni 91.74 2.085 6.254999999999999
Ni 91.74 0.0 8.339999999999998
Ni 93.82499999999999 2.085 8.339999999999998
Ni 93.82499999999999 0.0 10.424999999999997
Ni 91.74 2.085 10.424999999999997
Ni 91.74 0.0 12.509999999999998
Ni 93.82499999999999 2.085 12.509999999999998
Ni 93.82499999999999 0.0 14.594999999999997
Ni 91.74 2.085 14.594999999999997
Ni 91.74 0.0 16.679999999999996
Ni 93.82499999999999 2.085 16.679999999999996
Ni 93.82499999999999 0.0 18.764999999999997
Ni 91.74 2.085 18.764999999999997
Ni 91.74 0.0 20.849999999999994
Ni 93.82499999999999 2.085 20.849999999999994
Ni 93.82499999999999 0.0 22.934999999999995
Ni 91.74 2.085 22.934999999999995
Ni 91.74 0.0 25.019999999999996
Ni 93.82499999999999 2.085 25.019999999999996
Ni 93.82499999999999 0.0 27.104999999999997
Ni 91.74 2.085 27.104999999999997
Ni 91.74 4.170000000000001 0.0
Ni 93.82499999999999 6.255000000000002 0.0
Ni 93.82499999999999 4.170000000000001 2.085
Ni 91.74 6.255000000000002 2.085
Ni 91.74 4.170000000000001 4.169999999999999
Ni 93.82499999999999 6.255000000000002 4.169999999999999
Ni 93.82499999999999 4.170000000000001 6.254999999999999
Ni 91.74 6.255000000000002 6.254999999999999
Ni 91.74 4.170000000000001 8.339999999999998
Ni 93.82499999999999 6.255000000000002 8.339999999999998
Ni 93.82499999999999 4.170000000000001 10.424999999999997
Ni 91.74 6.255000000000002 10.424999999999997
Ni 91.74 4.170000000000001 12.509999999999998
Ni 93.82499999999999 6.255000000000002 12.509999999999998
Ni 93.82499999999999 4.170000000000001 14.594999999999997
Ni 91.74 6.255000000000002 14.594999999999997
Ni 91.74 4.170000000000001 16.679999999999996
Ni 93.82499999999999 6.255000000000002 16.679999999999996
Ni 93.82499999999999 4.170000000000001 18.764999999999997
Ni 91.74 6.255000000000002 18.764999999999997
Ni 91.74 4.170000000000001 20.849999999999994
Ni 93.82499999999999 6.255000000000002 20.849999999999994
Ni 93.82499999999999 4.170000000000001 22.934999999999995
Ni 91.74 6.255000000000002 22.934999999999995
Ni 91.74 4.170000000000001 25.019999999999996
Ni 93.82499999999999 6.255000000000002 25.019999999999996
Ni 93.82499999999999 4.170000000000001 27.104999999999997
Ni 91.74 8.340000000000002 0.0
Ni 93.82499999999999 10.425 0.0
Ni 93.82499999999999 8.340000000000002 2.085
Ni 91.74 10.425 2.085
Ni 91.74 8.340000000000002 4.169999999999999
Ni 93.82499999999999 10.425 4.169999999999999
Ni 93.82499999999999 8.340000000000002 6.254999999999999
Ni 91.74 10.425 6.254999999999999
Ni 91.74 8.340000000000002 8.339999999999998
Ni 93.82499999999999 10.425 8.339999999999998
Ni 93.82499999999999 8.340000000000002 10.424999999999997
Ni 91.74 10.425 10.424999999999997
Ni 91.74 8.340000000000002 12.509999999999998
Ni 93.82499999999999 10.425 12.509999999999998
Ni 93.82499999999999 8.340000000000002 14.594999999999997
Ni 91.74 10.425 14.594999999999997
Ni 91.74 8.340000000000002 16.679999999999996
Ni 93.82499999999999 10.425 16.679999999999996
Ni 93.82499999999999 8.340000000000002 18.764999999999997
Ni 91.74 10.425 18.764999999999997
Ni 91.74 8.340000000000002 20.849999999999994
Ni 93.82499999999999 10.425 20.849999999999994
Ni 93.82499999999999 8.340000000000002 22.934999999999995
Ni 91.74 12.510000000000003 0.0
Ni 93.82499999999999 14.595000000000002 0.0
Ni 93.82499999999999 12.510000000000003 2.085
Ni 91.74 14.595000000000002 2.085
Ni 91.74 12.510000000000003 4.169999999999999
Ni 93.82499999999999 14.595000000000002 4.169999999999999
Ni 93.82499999999999 12.510000000000003 6.254999999999999
Ni 91.74 14.595000000000002 6.254999999999999
Ni 91.74 12.510000000000003 8.339999999999998
Ni 93.82499999999999 14.595000000000002 8.339999999999998
Ni 93.82499999999999 12.510000000000003 10.424999999999997
Ni 91.74 14.595000000000002 10.424999999999997
Ni 91.74 12.510000000000003 12.509999999999998
Ni 93.82499999999999 14.595000000000002 12.509999999999998
Ni 93.82499999999999 12.510000000000003 14.594999999999997
Ni 91.74 14.595000000000002 14.594999999999997
Ni 91.74 12.510000000000003 16.679999999999996
Ni 93.82499999999999 14.595000000000002 16.679999999999996
Ni 93.82499999999999 12.510000000000003 18.764999999999997
Ni 91.74 16.680000000000003 0.0
Ni 93.82499999999999 18.765000000000004 0.0
Ni 93.82499999999999 16.680000000000003 2.085
Ni 91.74 18.765000000000004 2.085
Ni 91.74 16.680000000000003 4.169999999999999
Ni 93.82499999999999 18.765000000000004 4.169999999999999
Ni 93.82499999999999 16.680000000000003 6.254999999999999
Ni 91.74 18.765000000000004 6.254999999999999
Ni 91.74 16.680000000000003 8.339999999999998
Ni 93.82499999999999 18.765000000000004 8.339999999999998
Ni 93.82499999999999 16.680000000000003 10.424999999999997
Ni 91.74 18.765000000000004 10.424999999999997
Ni 91.74 16.680000000000003 12.509999999999998
Ni 93.82499999999999 18.765000000000004 12.509999999999998
Ni 93.82499999999999 16.680000000000003 14.594999999999997
Ni 91.74 20.849999999999998 0.0
Ni 93.82499999999999 22.935000000000002 0.0
Ni 93.82499999999999 20.849999999999998 2.085
Ni 91.74 22.935000000000002 2.085
Ni 91.74 20.849999999999998 4.169999999999999
Ni 93.82499999999999 22.935000000000002 4.169999999999999
Ni 93.82499999999999 20.849999999999998 6.254999999999999
Ni 91.74 22.935000000000002 6.254999999999999
Ni 91.74 20.849999999999998 8.339999999999998
Ni 93.82499999999999 22.935000000000002 8.339999999999998
Ni 93.82499999999999 20.849999999999998 10.424999999999997
Ni 91.74 22.935000000000002 10.424999999999997
Ni 93.82499999999999 22.935000000000002 12.509999999999998
Ni 91.74 25.020000000000007 0.0
Ni 93.82499999999999 27.105000000000008 0.0
Ni 93.82499999999999 25.020000000000007 2.085
Ni 91.74 27.105000000000008 2.085
Ni 91.74 25.020000000000007 4.169999999999999
Ni 93.82499999999999 27.105000000000008 4.169999999999999
Ni 93.82499999999999 25.020000000000007 6.254999999999999
Ni 91.74 27.105000000000008 6.254999999999999
Ni 91.74 25.020000000000007 8.339999999999998
Ni 93.82499999999999 27.105000000000008 8.339999999999998
Ni 93.82499999999999 25.020000000000007 10.424999999999997
Ni 91.74 27.105000000000008 10.424999999999997
Ni 91.74 25.020000000000007 12.509999999999998
Ni 93.82499999999999 27.105000000000008 12.509999999999998
Ni 93.82499999999999 25.020000000000007 14.594999999999997
Ni 91.74 27.105000000000008 14.594999999999997
Ni 93.82499999999999 27.105000000000008 16.679999999999996
Ni 91.74 29.190000000000005 0.0
Ni 93.82499999999999 31.275000000000006 0.0
Ni 93.82499999999999 29.190000000000005 2.085
Ni 91.74 31.275000000000006 2.085
Ni 91.74 29.190000000000005 4.169999999999999
Ni 93.82499999999999 31.275000000000006 4.169999999999999
Ni 93.82499999999999 29.190000000000005 6.254999999999999
Ni 91.74 31.275000000000006 6.254999999999999
Ni 91.74 29.190000000000005 8.339999999999998
Ni 93.82499999999999 31.275000000000006 8.339999999999998
Ni 93.82499999999999 29.190000000000005 10.424999999999997
Ni 91.74 31.275000000000006 10.424999999999997
Ni 91.74 29.190000000000005 12.509999999999998
Ni 93.82499999999999 31.275000000000006 12.509999999999998
Ni 93.82499999999999 29.190000000000005 14.594999999999997
Ni 91.74 31.275000000000006 14.594999999999997
Ni 91.74 29.190000000000005 16.679999999999996
Ni 93.82499999999999 31.275000000000006 16.679999999999996
Ni 93.82499999999999 29.190000000000005 18.764999999999997
Ni 91.74 31.275000000000006 18.764999999999997
Ni 93.82499999999999 31.275000000000006 20.849999999999994
Ni 91.74 33.36000000000001 0.0
Ni 93.82499999999999 35.44500000000001 0.0
Ni 93.82499999999999 33.36000000000001 2.085
Ni 91.74 35.44500000000001 2.085
Ni 91.74 33.36000000000001 4.169999999999999
Ni 93.82499999999999 35.44500000000001 4.169999999999999
Ni 93.82499999999999 33.36000000000001 6.254999999999999
Ni 91.74 35.44500000000001 6.254999999999999
Ni 91.74 33.36000000000001 8.339999999999998
Ni 93.82499999999999 35.44500000000001 8.339999999999998
Ni 93.82499999999999 33.36000000000001 10.424999999999997
Ni 91.74 35.44500000000001 10.424999999999997
Ni 91.74 33.36000000000001 12.509999999999998
Ni 93.82499999999999 35.44500000000001 12.509999999999998
Ni 93.82499999999999 33.36000000000001 14.594999999999997
Ni 91.74 35.44500000000001 14.594999999999997
Ni 91.74 33.36000000000001 16.679999999999996
Ni 93.82499999999999 35.44500000000001 16.679999999999996
Ni 93.82499999999999 33.36000000000001 18.764999999999997
Ni 91.74 35.44500000000001 18.764999999999997
Ni 91.74 33.36000000000001 20.849999999999994
Ni 93.82499999999999 35.44500000000001 20.849999999999994
Ni 93.82499999999999 33.36000000000001 22.934999999999995
Ni 91.74 35.44500000000001 22.934999999999995
Ni 93.82499999999999 35.44500000000001 25.019999999999996
Ni 91.74 37.53 0.0
Ni 93.82499999999999 39.615 0.0
Ni 93.82499999999999 37.53 2.085
Ni 91.74 39.615 2.085
Ni 91.74 37.53 4.169999999999999
Ni 93.82499999999999 39.615 4.169999999999999
Ni 93.82499999999999 37.53 6.254999999999999
Ni 91.74 39.615 6.254999999999999
Ni 91.74 37.53 8.339999999999998
Ni 93.82499999999999 39.615 8.339999999999998
Ni 93.82499999999999 37.53 10.424999999999997
Ni 91.74 39.615 10.424999999999997
Ni 91.74 37.53 12.509999999999998
Ni 93.82499999999999 39.615 12.509999999999998
Ni 93.82499999999999 37.53 14.594999999999997
Ni 91.74 39.615 14.594999999999997
Ni 91.74 37.53 16.679999999999996
Ni 93.82499999999999 39.615 16.679999999999996
Ni 93.82499999999999 37.53 18.764999999999997
Ni 91.74 39.615 18.764999999999997
Ni 91.74 37.53 20.849999999999994
Ni 93.82499999999999 39.615 20.849999999999994
Ni 93.82499999999999 37.53 22.934999999999995
Ni 91.74 39.615 22.934999999999995
Ni 91.74 37.53 25.019999999999996
Ni 93.82499999999999 39.615 25.019999999999996
Ni 93.82499999999999 37.53 27.104999999999997
Ni 91.74 39.615 27.104999999999997
Ni 95.90999999999998 0.0 0.0
Ni 97.99499999999998 2.085 0.0
Ni 97.99499999999998 0.0 2.085
Ni 95.90999999999998 2.085 2.085
Ni 95.90999999999998 0.0 4.169999999999999
Ni 97.99499999999998 2.085 4.169999999999999
Ni 97.99499999999998 0.0 6.254999999999999
Ni 95.90999999999998 2.085 6.254999999999999
Ni 95.90999999999998 0.0 8.339999999999998
Ni 97.99499999999998 2.085 8.339999999999998
Ni 97.99499999999998 0.0 10.424999999999997
Ni 95.90999999999998 2.085 10.424999999999997
Ni 95.90999999999998 0.0 12.509999999999998
Ni 97.99499999999998 2.085 12.509999999999998
Ni 97.99499999999998 0.0 14.594999999999997
Ni 95.90999999999998 2.085 14.594999999999997
Ni 95.90999999999998 0.0 16.679999999999996
Ni 97.99499999999998 2.085 16.679999999999996
Ni 97.99499999999998 0.0 18.764999999999997
Ni 95.90999999999998 2.085 18.764999999999997
Ni 95.90999999999998 0.0 20.849999999999994
Ni 97.99499999999998 2.085 20.849999999999994
Ni 97.99499999999998 0.0 22.934999999999995
Ni 95.90999999999998 2.085 22.934999999999995
Ni 95.90999999999998 0.0 25.019999999999996
Ni 97.99499999999998 2.085 25.019999999999996
Ni 97.99499999999998 0.0 27.104999999999997
Ni 95.90999999999998 2.085 27.104999999999997
Ni 95.90999999999998 4.170000000000001 0.0
Ni 97.99499999999998 6.255000000000002 0.0
Ni 97.99499999999998 4.170000000000001 2.085
Ni 95.90999999999998 6.255000000000002 2.085
Ni 95.90999999999998 4.170000000000001 4.169999999999999
Ni 97.99499999999998 6.255000000000002 4.169999999999999
Ni 97.99499999999998 4.170000000000001 6.254999999999999
Ni 95.90999999999998 6.255000000000002 6.254999999999999
Ni 95.90999999999998 4.170000000000001 8.339999999999998
Ni 97.99499999999998 6.255000000000002 8.339999999999998
Ni 97.99499999999998 4.170000000000001 10.424999999999997
Ni 95.90999999999998 6.255000000000002 10.424999999999997
Ni 95.90999999999998 4.170000000000001 12.509999999999998
Ni 97.99499999999998 6.255000000000002 12.509999999999998
Ni 97.99499999999998 4.170000000000001 14.594999999999997
Ni 95.90999999999998 6.255000000000002 14.594999999999997
Ni 95.90999999999998 4.170000000000001 16.679999999999996
Ni 97.99499999999998 6.255000000000002 16.679999999999996
Ni 97.99499999999998 4.170000000000001 18.764999999999997
Ni 95.90999999999998 6.255000000000002 18.764999999999997
Ni 95.90999999999998 4.170000000000001 20.849999999999994
Ni 97.99499999999998 6.255000000000002 20.849999999999994
Ni 97.99499999999998 4.170000000000001 22.934999999999995
Ni 95.90999999999998 6.255000000000002 22.934999999999995
Ni 95.90999999999998 4.170000000000001 25.019999999999996
Ni 97.99499999999998 6.255000000000002 25.019999999999996
Ni 97.99499999999998 4.170000000000001 27.104999999999997
Ni 95.90999999999998 8.340000000000002 0.0
Ni 97.99499999999998 10.425 0.0
Ni 97.99499999999998 8.340000000000002 2.085
Ni 95.90999999999998 10.425 2.085
Ni 95.90999999999998 8.340000000000002 4.169999999999999
Ni 97.99499999999998 10.425 4.169999999999999
Ni 97.99499999999998 8.340000000000002 6.254999999999999
Ni 95.90999999999998 10.425 6.254999999999999
Ni 95.90999999999998 8.340000000000002 8.339999999999998
Ni 97.99499999999998 10.425 8.339999999999998
Ni 97.99499999999998 8.340000000000002 10.424999999999997
Ni 95.90999999999998 10.425 10.424999999999997
Ni 95.90999999999998 8.340000000000002 12.509999999999998
Ni 97.99499999999998 10.425 12.509999999999998
Ni 97.99499999999998 8.340000000000002 14.594999999999997
Ni 95.90999999999998 10.425 14.594999999999997
Ni 95.90999999999998 8.340000000000002 16.679999999999996
Ni 97.99499999999998 10.425 16.679999999999996
Ni 97.99499999999998 8.340000000000002 18.764999999999997
Ni 95.90999999999998 10.425 18.764999999999997
Ni 95.90999999999998 8.340000000000002 20.849999999999994
Ni 97.99499999999998 10.425 20.849999999999994
Ni 97.99499999999998 8.340000000000002 22.934999999999995
Ni 95.90999999999998 12.510000000000003 0.0
Ni 97.99499999999998 14.595000000000002 0.0
Ni 97.99499999999998 12.510000000000003 2.085
Ni 95.90999999999998 14.595000000000002 2.085
Ni 95.90999999999998 12.510000000000003 4.169999999999999
Ni 97.99499999999998 14.595000000000002 4.169999999999999
Ni 97.99499999999998 12.510000000000003 6.254999999999999
Ni 95.90999999999998 14.595000000000002 6.254999999999999
Ni 95.90999999999998 12.510000000000003 8.339999999999998
Ni 97.99499999999998 14.595000000000002 8.339999999999998
Ni 97.99499999999998 12.510000000000003 10.424999999999997
Ni 95.90999999999998 14.595000000000002 10.424999999999997
Ni 95.90999999999998 12.510000000000003 12.509999999999998
Ni 97.99499999999998 14.595000000000002 12.509999999999998
Ni 97.99499999999998 12.510000000000003 14.594999999999997
Ni 95.90999999999998 14.595000000000002 14.594999999999997
Ni 95.90999999999998 12.510000000000003 16.679999999999996
Ni 97.99499999999998 14.595000000000002 16.679999999999996
Ni 97.99499999999998 12.510000000000003 18.764999999999997
Ni 95.90999999999998 16.680000000000003 0.0
Ni 97.99499999999998 18.765000000000004 0.0
Ni 97.99499999999998 16.680000000000003 2.085
Ni 95.90999999999998 18.765000000000004 2.085
Ni 95.90999999999998 16.680000000000003 4.169999999999999
Ni 97.99499999999998 18.765000000000004 4.169999999999999
Ni 97.99499999999998 16.680000000000003 6.254999999999999
Ni 95.90999999999998 18.765000000000004 6.254999999999999
Ni 95.90999999999998 16.680000000000003 8.339999999999998
Ni 97.99499999999998 18.765000000000004 8.339999999999998
Ni 97.99499999999998 16.680000000000003 10.424999999999997
Ni 95.90999999999998 18.765000000000004 10.424999999999997
Ni 95.90999999999998 16.680000000000003 12.509999999999998
Ni 97.99499999999998 18.765000000000004 12.509999999999998
Ni 97.99499999999998 16.680000000000003 14.594999999999997
Ni 95.90999999999998 20.849999999999998 0.0
Ni 97.99499999999998 22.935000000000002 0.0
Ni 97.99499999999998 20.849999999999998 2.085
Ni 95.90999999999998 22.935000000000002 2.085
Ni 95.90999999999998 20.849999999999998 4.169999999999999
Ni 97.99499999999998 22.935000000000002 4.169999999999999
Ni 97.99499999999998 20.849999999999998 6.254999999999999
Ni 95.90999999999998 22.935000000000002 6.254999999999999
Ni 95.90999999999998 20.849999999999998 8.339999999999998
Ni 97.99499999999998 22.935000000000002 8.339999999999998
Ni 97.99499999999998 20.849999999999998 10.424999999999997
Ni 95.90999999999998 22.935000000000002 10.424999999999997
Ni 97.99499999999998 22.935000000000002 12.509999999999998
Ni 95.90999999999998 25.020000000000007 0.0
Ni 97.99499999999998 27.105000000000008 0.0
Ni 97.99499999999998 25.020000000000007 2.085
Ni 95.90999999999998 27.105000000000008 2.085
Ni 95.90999999999998 25.020000000000007 4.169999999999999
Ni 97.99499999999998 27.105000000000008 4.169999999999999
Ni 97.99499999999998 25.020000000000007 6.254999999999999
Ni 95.90999999999998 27.105000000000008 6.254999999999999
Ni 95.90999999999998 25.020000000000007 8.339999999999998
Ni 97.99499999999998 27.105000000000008 8.339999999999998
Ni 97.99499999999998 25.020000000000007 10.424999999999997
Ni 95.90999999999998 27.105000000000008 10.424999999999997
Ni 95.90999999999998 25.020000000000007 12.509999999999998
Ni 97.99499999999998 27.105000000000008 12.509999999999998
Ni 97.99499999999998 25.020000000000007 14.594999999999997
Ni 95.90999999999998 27.105000000000008 14.594999999999997
Ni 97.99499999999998 27.105000000000008 16.679999999999996
Ni 95.90999999999998 29.190000000000005 0.0
Ni 97.99499999999998 31.275000000000006 0.0
Ni 97.99499999999998 29.190000000000005 2.085
Ni 95.90999999999998 31.275000000000006 2.085
Ni 95.90999999999998 29.190000000000005 4.169999999999999
Ni 97.99499999999998 31.275000000000006 4.169999999999999
Ni 97.99499999999998 29.190000000000005 6.254999999999999
Ni 95.90999999999998 31.275000000000006 6.254999999999999
Ni 95.90999999999998 29.190000000000005 8.339999999999998
Ni 97.99499999999998 31.275000000000006 8.339999999999998
Ni 97.99499999999998 29.190000000000005 10.424999999999997
Ni 95.90999999999998 31.275000000000006 10.424999999999997
Ni 95.90999999999998 29.190000000000005 12.509999999999998
Ni 97.99499999999998 31.275000000000006 12.509999999999998
Ni 97.99499999999998 29.190000000000005 14.594999999999997
Ni 95.90999999999998 31.275000000000006 14.594999999999997
Ni 95.90999999999998 29.190000000000005 16.679999999999996
Ni 97.99499999999998 31.275000000000006 16.679999999999996
Ni 97.99499999999998 29.190000000000005 18.764999999999997
Ni 95.90999999999998 31.275000000000006 18.764999999999997
Ni 97.99499999999998 31.275000000000006 20.849999999999994
Ni 95.90999999999998 33.36000000000001 0.0
Ni 97.99499999999998 35.44500000000001 0.0
Ni 97.99499999999998 33.36000000000001 2.085
Ni 95.90999999999998 35.44500000000001 2.085
Ni 95.90999999999998 33.36000000000001 4.169999999999999
Ni 97.99499999999998 35.44500000000001 4.169999999999999
Ni 97.99499999999998 33.36000000000001 6.254999999999999
Ni 95.90999999999998 35.44500000000001 6.254999999999999
Ni 95.90999999999998 33.36000000000001 8.339999999999998
Ni 97.99499999999998 35.44500000000001 8.339999999999998
Ni 97.99499999999998 33.36000000000001 10.424999999999997
Ni 95.90999999999998 35.44500000000001 10.424999999999997
Ni 95.90999999999998 33.36000000000001 12.509999999999998
Ni 97.99499999999998 35.44500000000001 12.509999999999998
Ni 97.99499999999998 33.36000000000001 14.594999999999997
Ni 95.90999999999998 35.44500000000001 14.594999999999997
Ni 95.90999999999998 33.36000000000001 16.679999999999996
Ni 97.99499999999998 35.44500000000001 16.679999999999996
Ni 97.99499999999998 33.36000000000001 18.764999999999997
Ni 95.90999999999998 35.44500000000001 18.764999999999997
Ni 95.90999999999998 33.36000000000001 20.849999999999994
Ni 97.99499999999998 35.44500000000001 20.849999999999994
Ni 97.99499999999998 33.36000000000001 22.934999999999995
Ni 95.90999999999998 35.44500000000001 22.934999999999995
Ni 97.99499999999998 35.44500000000001 25.019999999999996
Ni 95.90999999999998 37.53 0.0
Ni 97.99499999999998 39.615 0.0
Ni 97.99499999999998 37.53 2.085
Ni 95.90999999999998 39.615 2.085
Ni 95.90999999999998 37.53 4.169999999999999
Ni 97.99499999999998 39.615 4.169999999999999
Ni 97.99499999999998 37.53 6.254999999999999
Ni 95.90999999999998 39.615 6.254999999999999
Ni 95.90999999999998 37.53 8.339999999999998
Ni 97.99499999999998 39.615 8.339999999999998
Ni 97.99499999999998 37.53 10.424999999999997
Ni 95.90999999999998 39.615 10.424999999999997
Ni 95.90999999999998 37.53 12.509999999999998
Ni 97.99499999999998 39.615 12.509999999999998
Ni 97.99499999999998 37.53 14.594999999999997
Ni 95.90999999999998 39.615 14.594999999999997
Ni 95.90999999999998 37.53 16.679999999999996
Ni 97.99499999999998 39.615 16.679999999999996
Ni 97.99499999999998 37.53 18.764999999999997
Ni 95.90999999999998 39.615 18.764999999999997
Ni 95.90999999999998 37.53 20.849999999999994
Ni 97.99499999999998 39.615 20.849999999999994
Ni 97.99499999999998 37.53 22.934999999999995
Ni 95.90999999999998 39.615 22.934999999999995
Ni 95.90999999999998 37.53 25.019999999999996
Ni 97.99499999999998 39.615 25.019999999999996
Ni 97.99499999999998 37.53 27.104999999999997
Ni 95.90999999999998 39.615 27.104999999999997
Ni 100.08 0.0 0.0
Ni 102.16499999999999 2.085 0.0
Ni 102.16499999999999 0.0 2.085
Ni 100.08 2.085 2.085
Ni 100.08 0.0 4.169999999999999
Ni 102.16499999999999 2.085 4.169999999999999
Ni 102.16499999999999 0.0 6.254999999999999
Ni 100.08 2.085 6.254999999999999
Ni 100.08 0.0 8.339999999999998
Ni 102.16499999999999 2.085 8.339999999999998
Ni 102.16499999999999 0.0 10.424999999999997
Ni 100.08 2.085 10.424999999999997
Ni 100.08 0.0 12.509999999999998
Ni 102.16499999999999 2.085 12.509999999999998
Ni 102.16499999999999 0.0 14.594999999999997
Ni 100.08 2.085 14.594999999999997
Ni 100.08 0.0 16.679999999999996
Ni 102.16499999999999 2.085 16.679999999999996
Ni 102.16499999999999 0.0 18.764999999999997
Ni 100.08 2.085 18.764999999999997
Ni 100.08 0.0 20.849999999999994
Ni 102.16499999999999 2.085 20.849999999999994
Ni 102.16499999999999 0.0 22.934999999999995
Ni 100.08 2.085 22.934999999999995
Ni 100.08 0.0 25.019999999999996
Ni 102.16499999999999 2.085 25.019999999999996
Ni 102.16499999999999 0.0 27.104999999999997
Ni 100.08 2.085 27.104999999999997
Ni 100.08 4.170000000000001 0.0
Ni 102.16499999999999 6.255000000000002 0.0
Ni 102.16499999999999 4.170000000000001 2.085
Ni 100.08 6.255000000000002 2.085
Ni 100.08 4.170000000000001 4.169999999999999
Ni 102.16499999999999 6.255000000000002 4.169999999999999
Ni 102.16499999999999 4.170000000000001 6.254999999999999
Ni 100.08 6.255000000000002 6.254999999999999
Ni 100.08 4.170000000000001 8.339999999999998
Ni 102.16499999999999 6.255000000000002 8.339999999999998
Ni 102.16499999999999 4.170000000000001 10.424999999999997
Ni 100.08 6.255000000000002 10.424999999999997
Ni 100.08 4.170000000000001 12.509999999999998
Ni 102.16499999999999 6.255000000000002 12.509999999999998
Ni 102.16499999999999 4.170000000000001 14.594999999999997
Ni 100.08 6.255000000000002 14.594999999999997
Ni 100.08 4.170000000000001 16.679999999999996
Ni 102.16499999999999 6.255000000000002 16.679999999999996
Ni 102.16499999999999 4.170000000000001 18.764999999999997
Ni 100.08 6.255000000000002 18.764999999999997
Ni 100.08 4.170000000000001 20.849999999999994
Ni 102.16499999999999 6.255000000000002 20.849999999999994
Ni 102.16499999999999 4.170000000000001 22.934999999999995
Ni 100.08 6.255000000000002 22.934999999999995
Ni 100.08 4.170000000000001 25.019999999999996
Ni 102.16499999999999 6.255000000000002 25.019999999999996
Ni 102.16499999999999 4.170000000000001 27.104999999999997
Ni 100.08 8.340000000000002 0.0
Ni 102.16499999999999 10.425 0.0
Ni 102.16499999999999 8.340000000000002 2.085
Ni 100.08 10.425 2.085
Ni 100.08 8.340000000000002 4.169999999999999
Ni 102.16499999999999 10.425 4.169999999999999
Ni 102.16499999999999 8.340000000000002 6.254999999999999
Ni 100.08 10.425 6.254999999999999
Ni 100.08 8.340000000000002 8.339999999999998
Ni 102.16499999999999 10.425 8.339999999999998
Ni 102.16499999999999 8.340000000000002 10.424999999999997
Ni 100.08 10.425 10.424999999999997
Ni 100.08 8.340000000000002 12.509999999999998
Ni 102.16499999999999 10.425 12.509999999999998
Ni 102.16499999999999 8.340000000000002 14.594999999999997
Ni 100.08 10.425 14.594999999999997
Ni 100.08 8.340000000000002 16.679999999999996
Ni 102.16499999999999 10.425 16.679999999999996
Ni 102.16499999999999 8.340000000000002 18.764999999999997
Ni 100.08 10.425 18.764999999999997
Ni 100.08 8.340000000000002 20.849999999999994
Ni 102.16499999999999 10.425 20.849999999999994
Ni 102.16499999999999 8.340000000000002 22.934999999999995
Ni 100.08 12.510000000000003 0.0
Ni 102.16499999999999 14.595000000000002 0.0
Ni 102.16499999999999 12.510000000000003 2.085
Ni 100.08 14.595000000000002 2.085
Ni 100.08 12.510000000000003 4.169999999999999
Ni 102.16499999999999 14.595000000000002 4.169999999999999
Ni 102.16499999999999 12.510000000000003 6.254999999999999
Ni 100.08 14.595000000000002 6.254999999999999
Ni 100.08 12.510000000000003 8.339999999999998
Ni 102.16499999999999 14.595000000000002 8.339999999999998
Ni 102.16499999999999 12.510000000000003 10.424999999999997
Ni 100.08 14.595000000000002 10.424999999999997
Ni 100.08 12.510000000000003 12.509999999999998
Ni 102.16499999999999 14.595000000000002 12.509999999999998
Ni 102.16499999999999 12.510000000000003 14.594999999999997
Ni 100.08 14.595000000000002 14.594999999999997
Ni 100.08 12.510000000000003 16.679999999999996
Ni 102.16499999999999 14.595000000000002 16.679999999999996
Ni 102.16499999999999 12.510000000000003 18.764999999999997
Ni 100.08 16.680000000000003 0.0
Ni 102.16499999999999 18.765000000000004 0.0
Ni 102.16499999999999 16.680000000000003 2.085
Ni 100.08 18.765000000000004 2.085
Ni 100.08 16.680000000000003 4.169999999999999
Ni 102.16499999999999 18.765000000000004 4.169999999999999
Ni 102.16499999999999 16.680000000000003 6.254999999999999
Ni 100.08 18.765000000000004 6.254999999999999
Ni 100.08 16.680000000000003 8.339999999999998
Ni 102.16499999999999 18.765000000000004 8.339999999999998
Ni 102.16499999999999 16.680000000000003 10.424999999999997
Ni 100.08 18.765000000000004 10.424999999999997
Ni 100.08 16.680000000000003 12.509999999999998
Ni 102.16499999999999 18.765000000000004 12.509999999999998
Ni 102.16499999999999 16.680000000000003 14.594999999999997
Ni 100.08 20.849999999999998 0.0
Ni 102.16499999999999 22.935000000000002 0.0
Ni 102.16499999999999 20.849999999999998 2.085
Ni 100.08 22.935000000000002 2.085
Ni 100.08 20.849999999999998 4.169999999999999
Ni 102.16499999999999 22.935000000000002 4.169999999999999
Ni 102.16499999999999 20.849999999999998 6.254999999999999
Ni 100.08 22.935000000000002 6.254999999999999
Ni 100.08 20.849999999999998 8.339999999999998
Ni 102.16499999999999 22.935000000000002 8.339999999999998
Ni 102.16499999999999 20.849999999999998 10.424999999999997
Ni 100.08 22.935000000000002 10.424999999999997
Ni 102.16499999999999 22.935000000000002 12.509999999999998
Ni 100.08 25.020000000000007 0.0
Ni 102.16499999999999 27.105000000000008 0.0
Ni 102.16499999999999 25.020000000000007 2.085
Ni 100.08 27.105000000000008 2.085
Ni 100.08 25.020000000000007 4.169999999999999
Ni 102.16499999999999 27.105000000000008 4.169999999999999
Ni 102.16499999999999 25.020000000000007 6.254999999999999
Ni 100.08 27.105000000000008 6.254999999999999
Ni 100.08 25.020000000000007 8.339999999999998
Ni 102.16499999999999 27.105000000000008 8.339999999999998
Ni 102.16499999999999 25.020000000000007 10.424999999999997
Ni 100.08 27.105000000000008 10.424999999999997
Ni 100.08 25.020000000000007 12.509999999999998
Ni 102.16499999999999 27.105000000000008 12.509999999999998
Ni 102.16499999999999 25.020000000000007 14.594999999999997
Ni 100.08 27.105000000000008 14.594999999999997
Ni 102.16499999999999 27.105000000000008 16.679999999999996
Ni 100.08 29.190000000000005 0.0
Ni 102.16499999999999 31.275000000000006 0.0
Ni 102.16499999999999 29.190000000000005 2.085
Ni 100.08 31.275000000000006 2.085
Ni 100.08 29.190000000000005 4.169999999999999
Ni 102.16499999999999 31.275000000000006 4.169999999999999
Ni 102.16499999999999 29.190000000000005 6.254999999999999
Ni 100.08 31.275000000000006 6.254999999999999
Ni 100.08 29.190000000000005 8.339999999999998
Ni 102.16499999999999 31.275000000000006 8.339999999999998
Ni 102.16499999999999 29.190000000000005 10.424999999999997
Ni 100.08 31.275000000000006 10.424999999999997
Ni 100.08 29.190000000000005 12.509999999999998
Ni 102.16499999999999 31.275000000000006 12.509999999999998
Ni 102.16499999999999 29.190000000000005 14.594999999999997
Ni 100.08 31.275000000000006 14.594999999999997
Ni 100.08 29.190000000000005 16.679999999999996
Ni 102.16499999999999 31.275000000000006 16.679999999999996
Ni 102.16499999999999 29.190000000000005 18.764999999999997
Ni 100.08 31.275000000000006 18.764999999999997
Ni 102.16499999999999 31.275000000000006 20.849999999999994
Ni 100.08 33.36000000000001 0.0
Ni 102.16499999999999 35.44500000000001 0.0
Ni 102.16499999999999 33.36000000000001 2.085
Ni 100.08 35.44500000000001 2.085
Ni 100.08 33.36000000000001 4.169999999999999
Ni 102.16499999999999 35.44500000000001 4.169999999999999
Ni 102.16499999999999 33.36000000000001 6.254999999999999
Ni 100.08 35.44500000000001 6.254999999999999
Ni 100.08 33.36000000000001 8.339999999999998
Ni 102.16499999999999 35.44500000000001 8.339999999999998
Ni 102.16499999999999 33.36000000000001 10.424999999999997
Ni 100.08 35.44500000000001 10.424999999999997
Ni 100.08 33.36000000000001 12.509999999999998
Ni 102.16499999999999 35.44500000000001 12.509999999999998
Ni 102.16499999999999 33.36000000000001 14.594999999999997
Ni 100.08 35.44500000000001 14.594999999999997
Ni 100.08 33.36000000000001 16.679999999999996
Ni 102.16499999999999 35.44500000000001 16.679999999999996
Ni 102.16499999999999 33.36000000000001 18.764999999999997
Ni 100.08 35.44500000000001 18.764999999999997
Ni 100.08 33.36000000000001 20.849999999999994
Ni 102.16499999999999 35.44500000000001 20.849999999999994
Ni 102.16499999999999 33.36000000000001 22.934999999999995
Ni 100.08 35.44500000000001 22.934999999999995
Ni 102.16499999999999 35.44500000000001 25.019999999999996
Ni 100.08 37.53 0.0
Ni 102.16499999999999 39.615 0.0
Ni 102.16499999999999 37.53 2.085
Ni 100.08 39.615 2.085
Ni 100.08 37.53 4.169999999999999
Ni 102.16499999999999 39.615 4.169999999999999
Ni 102.16499999999999 37.53 6.254999999999999
Ni 100.08 39.615 6.254999999999999
Ni 100.08 37.53 8.339999999999998
Ni 102.16499999999999 39.615 8.339999999999998
Ni 102.16499999999999 37.53 10.424999999999997
Ni 100.08 39.615 10.424999999999997
Ni 100.08 37.53 12.509999999999998
Ni 102.16499999999999 39.615 12.509999999999998
Ni 102.16499999999999 37.53 14.594999999999997
Ni 100.08 39.615 14.594999999999997
Ni 100.08 37.53 16.679999999999996
Ni 102.16499999999999 39.615 16.679999999999996
Ni 102.16499999999999 37.53 18.764999999999997
Ni 100.08 39.615 18.764999999999997
Ni 100.08 37.53 20.849999999999994
Ni 102.16499999999999 39.615 20.849999999999994
Ni 102.16499999999999 37.53 22.934999999999995
Ni 100.08 39.615 22.934999999999995
Ni 100.08 37.53 25.019999999999996
Ni 102.16499999999999 39.615 25.019999999999996
Ni 102.16499999999999 37.53 27.104999999999997
Ni 100.08 39.615 27.104999999999997
Ni 104.25 0.0 0.0
Ni 106.335 2.085 0.0
Ni 106.335 0.0 2.085
Ni 104.25 2.085 2.085
Ni 104.25 0.0 4.169999999999999
Ni 106.335 2.085 4.169999999999999
Ni 106.335 0.0 6.254999999999999
Ni 104.25 2.085 6.254999999999999
Ni 104.25 0.0 8.339999999999998
Ni 106.335 2.085 8.339999999999998
Ni 106.335 0.0 10.424999999999997
Ni 104.25 2.085 10.424999999999997
Ni 104.25 0.0 12.509999999999998
Ni 106.335 2.085 12.509999999999998
Ni 106.335 0.0 14.594999999999997
Ni 104.25 2.085 14.594999999999997
Ni 104.25 0.0 16.679999999999996
Ni 106.335 2.085 16.679999999999996
Ni 106.335 0.0 18.764999999999997
Ni 104.25 2.085 18.764999999999997
Ni 104.25 0.0 20.849999999999994
Ni 106.335 2.085 20.849999999999994
Ni 106.335 0.0 22.934999999999995
Ni 104.25 2.085 22.934999999999995
Ni 104.25 0.0 25.019999999999996
Ni 106.335 2.085 25.019999999999996
Ni 106.335 0.0 27.104999999999997
Ni 104.25 2.085 27.104999999999997
Ni 104.25 4.170000000000001 0.0
Ni 106.335 6.255000000000002 0.0
Ni 106.335 4.170000000000001 2.085
Ni 104.25 6.255000000000002 2.085
Ni 104.25 4.170000000000001 4.169999999999999
Ni 106.335 6.255000000000002 4.169999999999999
Ni 106.335 4.170000000000001 6.254999999999999
Ni 104.25 6.255000000000002 6.254999999999999
Ni 104.25 4.170000000000001 8.339999999999998
Ni 106.335 6.255000000000002 8.339999999999998
Ni 106.335 4.170000000000001 10.424999999999997
Ni 104.25 6.255000000000002 10.424999999999997
Ni 104.25 4.170000000000001 12.509999999999998
Ni 106.335 6.255000000000002 12.509999999999998
Ni 106.335 4.170000000000001 14.594999999999997
Ni 104.25 6.255000000000002 14.594999999999997
Ni 104.25 4.170000000000001 16.679999999999996
Ni 106.335 6.255000000000002 16.679999999999996
Ni 106.335 4.170000000000001 18.764999999999997
Ni 104.25 6.255000000000002 18.764999999999997
Ni 104.25 4.170000000000001 20.849999999999994
Ni 106.335 6.255000000000002 20.849999999999994
Ni 106.335 4.170000000000001 22.934999999999995
Ni 104.25 6.255000000000002 22.934999999999995
Ni 104.25 4.170000000000001 25.019999999999996
Ni 106.335 6.255000000000002 25.019999999999996
Ni 106.335 4.170000000000001 27.104999999999997
Ni 104.25 8.340000000000002 0.0
Ni 106.335 10.425 0.0
Ni 106.335 8.340000000000002 2.085
Ni 104.25 10.425 2.085
Ni 104.25 8.340000000000002 4.169999999999999
Ni 106.335 10.425 4.169999999999999
Ni 106.335 8.340000000000002 6.254999999999999
Ni 104.25 10.425 6.254999999999999
Ni 104.25 8.340000000000002 8.339999999999998
Ni 106.335 10.425 8.339999999999998
Ni 106.335 8.340000000000002 10.424999999999997
Ni 104.25 10.425 10.424999999999997
Ni 104.25 8.340000000000002 12.509999999999998
Ni 106.335 10.425 12.509999999999998
Ni 106.335 8.340000000000002 14.594999999999997
Ni 104.25 10.425 14.594999999999997
Ni 104.25 8.340000000000002 16.679999999999996
Ni 106.335 10.425 16.679999999999996
Ni 106.335 8.340000000000002 18.764999999999997
Ni 104.25 10.425 18.764999999999997
Ni 104.25 8.340000000000002 20.849999999999994
Ni 106.335 10.425 20.849999999999994
Ni 106.335 8.340000000000002 22.934999999999995
Ni 104.25 12.510000000000003 0.0
Ni 106.335 14.595000000000002 0.0
Ni 106.335 12.510000000000003 2.085
Ni 104.25 14.595000000000002 2.085
Ni 104.25 12.510000000000003 4.169999999999999
Ni 106.335 14.595000000000002 4.169999999999999
Ni 106.335 12.510000000000003 6.254999999999999
Ni 104.25 14.595000000000002 6.254999999999999
Ni 104.25 12.510000000000003 8.339999999999998
Ni 106.335 14.595000000000002 8.339999999999998
Ni 106.335 12.510000000000003 10.424999999999997
Ni 104.25 14.595000000000002 10.424999999999997
Ni 104.25 12.510000000000003 12.509999999999998
Ni 106.335 14.595000000000002 12.509999999999998
Ni 106.335 12.510000000000003 14.594999999999997
Ni 104.25 14.595000000000002 14.594999999999997
Ni 104.25 12.510000000000003 16.679999999999996
Ni 106.335 14.595000000000002 16.679999999999996
Ni 106.335 12.510000000000003 18.764999999999997
Ni 104.25 16.680000000000003 0.0
Ni 106.335 18.765000000000004 0.0
Ni 106.335 16.680000000000003 2.085
Ni 104.25 18.765000000000004 2.085
Ni 104.25 16.680000000000003 4.169999999999999
Ni 106.335 18.765000000000004 4.169999999999999
Ni 106.335 16.680000000000003 6.254999999999999
Ni 104.25 18.765000000000004 6.254999999999999
Ni 104.25 16.680000000000003 8.339999999999998
Ni 106.335 18.765000000000004 8.339999999999998
Ni 106.335 16.680000000000003 10.424999999999997
Ni 104.25 18.765000000000004 10.424999999999997
Ni 104.25 16.680000000000003 12.509999999999998
Ni 106.335 18.765000000000004 12.509999999999998
Ni 106.335 16.680000000000003 14.594999999999997
Ni 104.25 20.849999999999998 0.0
Ni 106.335 22.935000000000002 0.0
Ni 106.335 20.849999999999998 2.085
Ni 104.25 22.935000000000002 2.085
Ni 104.25 20.849999999999998 4.169999999999999
Ni 106.335 22.935000000000002 4.169999999999999
Ni 106.335 20.849999999999998 6.254999999999999
Ni 104.25 22.935000000000002 6.254999999999999
Ni 104.25 20.849999999999998 8.339999999999998
Ni 106.335 22.935000000000002 8.339999999999998
Ni 106.335 20.849999999999998 10.424999999999997
Ni 104.25 22.935000000000002 10.424999999999997
Ni 106.335 22.935000000000002 12.509999999999998
Ni 104.25 25.020000000000007 0.0
Ni 106.335 27.105000000000008 0.0
Ni 106.335 25.020000000000007 2.085
Ni 104.25 27.105000000000008 2.085
Ni 104.25 25.020000000000007 4.169999999999999
Ni 106.335 27.105000000000008 4.169999999999999
Ni 106.335 25.020000000000007 6.254999999999999
Ni 104.25 27.105000000000008 6.254999999999999
Ni 104.25 25.020000000000007 8.339999999999998
Ni 106.335 27.105000000000008 8.339999999999998
Ni 106.335 25.020000000000007 10.424999999999997
Ni 104.25 27.105000000000008 10.424999999999997
Ni 104.25 25.020000000000007 12.509999999999998
Ni 106.335 27.105000000000008 12.509999999999998
Ni 106.335 25.020000000000007 14.594999999999997
Ni 104.25 27.105000000000008 14.594999999999997
Ni 106.335 27.105000000000008 16.679999999999996
Ni 104.25 29.190000000000005 0.0
Ni 106.335 31.275000000000006 0.0
Ni 106.335 29.190000000000005 2.085
Ni 104.25 31.275000000000006 2.085
Ni 104.25 29.190000000000005 4.169999999999999
Ni 106.335 31.275000000000006 4.169999999999999
Ni 106.335 29.190000000000005 6.254999999999999
Ni 104.25 31.275000000000006 6.254999999999999
Ni 104.25 29.190000000000005 8.339999999999998
Ni 106.335 31.275000000000006 8.339999999999998
Ni 106.335 29.190000000000005 10.424999999999997
Ni 104.25 31.275000000000006 10.424999999999997
Ni 104.25 29.190000000000005 12.509999999999998
Ni 106.335 31.275000000000006 12.509999999999998
Ni 106.335 29.190000000000005 14.594999999999997
Ni 104.25 31.275000000000006 14.594999999999997
Ni 104.25 29.190000000000005 16.679999999999996
Ni 106.335 31.275000000000006 16.679999999999996
Ni 106.335 29.190000000000005 18.764999999999997
Ni 104.25 31.275000000000006 18.764999999999997
Ni 106.335 31.275000000000006 20.849999999999994
Ni 104.25 33.36000000000001 0.0
Ni 106.335 35.44500000000001 0.0
Ni 106.335 33.36000000000001 2.085
Ni 104.25 35.44500000000001 2.085
Ni 104.25 33.36000000000001 4.169999999999999
Ni 106.335 35.44500000000001 4.169999999999999
Ni 106.335 33.36000000000001 6.254999999999999
Ni 104.25 35.44500000000001 6.254999999999999
Ni 104.25 33.36000000000001 8.339999999999998
Ni 106.335 35.44500000000001 8.339999999999998
Ni 106.335 33.36000000000001 10.424999999999997
Ni 104.25 35.44500000000001 10.424999999999997
Ni 104.25 33.36000000000001 12.509999999999998
Ni 106.335 35.44500000000001 12.509999999999998
Ni 106.335 33.36000000000001 14.594999999999997
Ni 104.25 35.44500000000001 14.594999999999997
Ni 104.25 33.36000000000001 16.679999999999996
Ni 106.335 35.44500000000001 16.679999999999996
Ni 106.335 33.36000000000001 18.764999999999997
Ni 104.25 35.44500000000001 18.764999999999997
Ni 104.25 33.36000000000001 20.849999999999994
Ni 106.335 35.44500000000001 20.849999999999994
Ni 106.335 33.36000000000001 22.934999999999995
Ni 104.25 35.44500000000001 22.934999999999995
Ni 106.335 35.44500000000001 25.019999999999996
Ni 104.25 37.53 0.0
Ni 106.335 39.615 0.0
Ni 106.335 37.53 2.085
Ni 104.25 39.615 2.085
Ni 104.25 37.53 4.169999999999999
Ni 106.335 39.615 4.169999999999999
Ni 106.335 37.53 6.254999999999999
Ni 104.25 39.615 6.254999999999999
Ni 104.25 37.53 8.339999999999998
Ni 106.335 39.615 8.339999999999998
Ni 106.335 37.53 10.424999999999997
Ni 104.25 39.615 10.424999999999997
Ni 104.25 37.53 12.509999999999998
Ni 106.335 39.615 12.509999999999998
Ni 106.335 37.53 14.594999999999997
Ni 104.25 39.615 14.594999999999997
Ni 104.25 37.53 16.679999999999996
Ni 106.335 39.615 16.679999999999996
Ni 106.335 37.53 18.764999999999997
Ni 104.25 39.615 18.764999999999997
Ni 104.25 37.53 20.849999999999994
Ni 106.335 39.615 20.849999999999994
Ni 106.335 37.53 22.934999999999995
Ni 104.25 39.615 22.934999999999995
Ni 104.25 37.53 25.019999999999996
Ni 106.335 39.615 25.019999999999996
Ni 106.335 37.53 27.104999999999997
Ni 104.25 39.615 27.104999999999997
Ni 108.42 0.0 0.0
Ni 110.505 2.085 0.0
Ni 110.505 0.0 2.085
Ni 108.42 2.085 2.085
Ni 108.42 0.0 4.169999999999999
Ni 110.505 2.085 4.169999999999999
Ni 110.505 0.0 6.254999999999999
Ni 108.42 2.085 6.254999999999999
Ni 108.42 0.0 8.339999999999998
Ni 110.505 2.085 8.339999999999998
Ni 110.505 0.0 10.424999999999997
Ni 108.42 2.085 10.424999999999997
Ni 108.42 0.0 12.509999999999998
Ni 110.505 2.085 12.509999999999998
Ni 110.505 0.0 14.594999999999997
Ni 108.42 2.085 14.594999999999997
Ni 108.42 0.0 16.679999999999996
Ni 110.505 2.085 16.679999999999996
Ni 110.505 0.0 18.764999999999997
Ni 108.42 2.085 18.764999999999997
Ni 108.42 0.0 20.849999999999994
Ni 110.505 2.085 20.849999999999994
Ni 110.505 0.0 22.934999999999995
Ni 108.42 2.085 22.934999999999995
Ni 108.42 0.0 25.019999999999996
Ni 110.505 2.085 25.019999999999996
Ni 110.505 0.0 27.104999999999997
Ni 108.42 2.085 27.104999999999997
Ni 108.42 4.170000000000001 0.0
Ni 110.505 6.255000000000002 0.0
Ni 110.505 4.170000000000001 2.085
Ni 108.42 6.255000000000002 2.085
Ni 108.42 4.170000000000001 4.169999999999999
Ni 110.505 6.255000000000002 4.169999999999999
Ni 110.505 4.170000000000001 6.254999999999999
Ni 108.42 6.255000000000002 6.254999999999999
Ni 108.42 4.170000000000001 8.339999999999998
Ni 110.505 6.255000000000002 8.339999999999998
Ni 110.505 4.170000000000001 10.424999999999997
Ni 108.42 6.255000000000002 10.424999999999997
Ni 108.42 4.170000000000001 12.509999999999998
Ni 110.505 6.255000000000002 12.509999999999998
Ni 110.505 4.170000000000001 14.594999999999997
Ni 108.42 6.255000000000002 14.594999999999997
Ni 108.42 4.170000000000001 16.679999999999996
Ni 110.505 6.255000000000002 16.679999999999996
Ni 110.505 4.170000000000001 18.764999999999997
Ni 108.42 6.255000000000002 18.764999999999997
Ni 108.42 4.170000000000001 20.849999999999994
Ni 110.505 6.255000000000002 20.849999999999994
Ni 110.505 4.170000000000001 22.934999999999995
Ni 108.42 6.255000000000002 22.934999999999995
Ni 108.42 4.170000000000001 25.019999999999996
Ni 110.505 6.255000000000002 25.019999999999996
Ni 110.505 4.170000000000001 27.104999999999997
Ni 108.42 8.340000000000002 0.0
Ni 110.505 10.425 0.0
Ni 110.505 8.340000000000002 2.085
Ni 108.42 10.425 2.085
Ni 108.42 8.340000000000002 4.169999999999999
Ni 110.505 10.425 4.169999999999999
Ni 110.505 8.340000000000002 6.254999999999999
Ni 108.42 10.425 6.254999999999999
Ni 108.42 8.340000000000002 8.339999999999998
Ni 110.505 10.425 8.339999999999998
Ni 110.505 8.340000000000002 10.424999999999997
Ni 108.42 10.425 10.424999999999997
Ni 108.42 8.340000000000002 12.509999999999998
Ni 110.505 10.425 12.509999999999998
Ni 110.505 8.340000000000002 14.594999999999997
Ni 108.42 10.425 14.594999999999997
Ni 108.42 8.340000000000002 16.679999999999996
Ni 110.505 10.425 16.679999999999996
Ni 110.505 8.340000000000002 18.764999999999997
Ni 108.42 10.425 18.764999999999997
Ni 108.42 8.340000000000002 20.849999999999994
Ni 110.505 10.425 20.849999999999994
Ni 110.505 8.340000000000002 22.934999999999995
Ni 108.42 12.510000000000003 0.0
Ni 110.505 14.595000000000002 0.0
Ni 110.505 12.510000000000003 2.085
Ni 108.42 14.595000000000002 2.085
Ni 108.42 12.510000000000003 4.169999999999999
Ni 110.505 14.595000000000002 4.169999999999999
Ni 110.505 12.510000000000003 6.254999999999999
Ni 108.42 14.595000000000002 6.254999999999999
Ni 108.42 12.510000000000003 8.339999999999998
Ni 110.505 14.595000000000002 8.339999999999998
Ni 110.505 12.510000000000003 10.424999999999997
Ni 108.42 14.595000000000002 10.424999999999997
Ni 108.42 12.510000000000003 12.509999999999998
Ni 110.505 14.595000000000002 12.509999999999998
Ni 110.505 12.510000000000003 14.594999999999997
Ni 108.42 14.595000000000002 14.594999999999997
Ni 108.42 12.510000000000003 16.679999999999996
Ni 110.505 14.595000000000002 16.679999999999996
Ni 110.505 12.510000000000003 18.764999999999997
Ni 108.42 16.680000000000003 0.0
Ni 110.505 18.765000000000004 0.0
Ni 110.505 16.680000000000003 2.085
Ni 108.42 18.765000000000004 2.085
Ni 108.42 16.680000000000003 4.169999999999999
Ni 110.505 18.765000000000004 4.169999999999999
Ni 110.505 16.680000000000003 6.254999999999999
Ni 108.42 18.765000000000004 6.254999999999999
Ni 108.42 16.680000000000003 8.339999999999998
Ni 110.505 18.765000000000004 8.339999999999998
Ni 110.505 16.680000000000003 10.424999999999997
Ni 108.42 18.765000000000004 10.424999999999997
Ni 108.42 16.680000000000003 12.509999999999998
Ni 110.505 18.765000000000004 12.509999999999998
Ni 110.505 16.680000000000003 14.594999999999997
Ni 108.42 20.849999999999998 0.0
Ni 110.505 22.935000000000002 0.0
Ni 110.505 20.849999999999998 2.085
Ni 108.42 22.935000000000002 2.085
Ni 108.42 20.849999999999998 4.169999999999999
Ni 110.505 22.935000000000002 4.169999999999999
Ni 110.505 20.849999999999998 6.254999999999999
Ni 108.42 22.935000000000002 6.254999999999999
Ni 108.42 20.849999999999998 8.339999999999998
Ni 110.505 22.935000000000002 8.339999999999998
Ni 110.505 20.849999999999998 10.424999999999997
Ni 108.42 22.935000000000002 10.424999999999997
Ni 110.505 22.935000000000002 12.509999999999998
Ni 108.42 25.020000000000007 0.0
Ni 110.505 27.105000000000008 0.0
Ni 110.505 25.020000000000007 2.085
Ni 108.42 27.105000000000008 2.085
Ni 108.42 25.020000000000007 4.169999999999999
Ni 110.505 27.105000000000008 4.169999999999999
Ni 110.505 25.020000000000007 6.254999999999999
Ni 108.42 27.105000000000008 6.254999999999999
Ni 108.42 25.020000000000007 8.339999999999998
Ni 110.505 27.105000000000008 8.339999999999998
Ni 110.505 25.020000000000007 10.424999999999997
Ni 108.42 27.105000000000008 10.424999999999997
Ni 108.42 25.020000000000007 12.509999999999998
Ni 110.505 27.105000000000008 12.509999999999998
Ni 110.505 25.020000000000007 14.594999999999997
Ni 108.42 27.105000000000008 14.594999999999997
Ni 110.505 27.105000000000008 16.679999999999996
Ni 108.42 29.190000000000005 0.0
Ni 110.505 31.275000000000006 0.0
Ni 110.505 29.190000000000005 2.085
Ni 108.42 31.275000000000006 2.085
Ni 108.42 29.190000000000005 4.169999999999999
Ni 110.505 31.275000000000006 4.169999999999999
Ni 110.505 29.190000000000005 6.254999999999999
Ni 108.42 31.275000000000006 6.254999999999999
Ni 108.42 29.190000000000005 8.339999999999998
Ni 110.505 31.275000000000006 8.339999999999998
Ni 110.505 29.190000000000005 10.424999999999997
Ni 108.42 31.275000000000006 10.424999999999997
Ni 108.42 29.190000000000005 12.509999999999998
Ni 110.505 31.275000000000006 12.509999999999998
Ni 110.505 29.190000000000005 14.594999999999997
Ni 108.42 31.275000000000006 14.594999999999997
Ni 108.42 29.190000000000005 16.679999999999996
Ni 110.505 31.275000000000006 16.679999999999996
Ni 110.505 29.190000000000005 18.764999999999997
Ni 108.42 31.275000000000006 18.764999999999997
Ni 110.505 31.275000000000006 20.849999999999994
Ni 108.42 33.36000000000001 0.0
Ni 110.505 35.44500000000001 0.0
Ni 110.505 33.36000000000001 2.085
Ni 108.42 35.44500000000001 2.085
Ni 108.42 33.36000000000001 4.169999999999999
Ni 110.505 35.44500000000001 4.169999999999999
Ni 110.505 33.36000000000001 6.254999999999999
Ni 108.42 35.44500000000001 6.254999999999999
Ni 108.42 33.36000000000001 8.339999999999998
Ni 110.505 35.44500000000001 8.339999999999998
Ni 110.505 33.36000000000001 10.424999999999997
Ni 108.42 35.44500000000001 10.424999999999997
Ni 108.42 33.36000000000001 12.509999999999998
Ni 110.505 35.44500000000001 12.509999999999998
Ni 110.505 33.36000000000001 14.594999999999997
Ni 108.42 35.44500000000001 14.594999999999997
Ni 108.42 33.36000000000001 16.679999999999996
Ni 110.505 35.44500000000001 16.679999999999996
Ni 110.505 33.36000000000001 18.764999999999997
Ni 108.42 35.44500000000001 18.764999999999997
Ni 108.42 33.36000000000001 20.849999999999994
Ni 110.505 35.44500000000001 20.849999999999994
Ni 110.505 33.36000000000001 22.934999999999995
Ni 108.42 35.44500000000001 22.934999999999995
Ni 110.505 35.44500000000001 25.019999999999996
Ni 108.42 37.53 0.0
Ni 110.505 39.615 0.0
Ni 110.505 37.53 2.085
Ni 108.42 39.615 2.085
Ni 108.42 37.53 4.169999999999999
Ni 110.505 39.615 4.169999999999999
Ni 110.505 37.53 6.254999999999999
Ni 108.42 39.615 6.254999999999999
Ni 108.42 37.53 8.339999999999998
Ni 110.505 39.615 8.339999999999998
Ni 110.505 37.53 10.424999999999997
Ni 108.42 39.615 10.424999999999997
Ni 108.42 37.53 12.509999999999998
Ni 110.505 39.615 12.509999999999998
Ni 110.505 37.53 14.594999999999997
Ni 108.42 39.615 14.594999999999997
Ni 108.42 37.53 16.679999999999996
Ni 110.505 39.615 16.679999999999996
Ni 110.505 37.53 18.764999999999997
Ni 108.42 39.615 18.764999999999997
Ni 108.42 37.53 20.849999999999994
Ni 110.505 39.615 20.849999999999994
Ni 110.505 37.53 22.934999999999995
Ni 108.42 39.615 22.934999999999995
Ni 108.42 37.53 25.019999999999996
Ni 110.505 39.615 25.019999999999996
Ni 110.505 37.53 27.104999999999997
Ni 108.42 39.615 27.104999999999997
Ni 112.59 0.0 0.0
Ni 114.675 2.085 0.0
Ni 114.675 0.0 2.085
Ni 112.59 2.085 2.085
Ni 112.59 0.0 4.169999999999999
Ni 114.675 2.085 4.169999999999999
Ni 114.675 0.0 6.254999999999999
Ni 112.59 2.085 6.254999999999999
Ni 112.59 0.0 8.339999999999998
Ni 114.675 2.085 8.339999999999998
Ni 114.675 0.0 10.424999999999997
Ni 112.59 2.085 10.424999999999997
Ni 112.59 0.0 12.509999999999998
Ni 114.675 2.085 12.509999999999998
Ni 114.675 0.0 14.594999999999997
Ni 112.59 2.085 14.594999999999997
Ni 112.59 0.0 16.679999999999996
Ni 114.675 2.085 16.679999999999996
Ni 114.675 0.0 18.764999999999997
Ni 112.59 2.085 18.764999999999997
Ni 112.59 0.0 20.849999999999994
Ni 114.675 2.085 20.849999999999994
Ni 114.675 0.0 22.934999999999995
Ni 112.59 2.085 22.934999999999995
Ni 112.59 0.0 25.019999999999996
Ni 114.675 2.085 25.019999999999996
Ni 114.675 0.0 27.104999999999997
Ni 112.59 2.085 27.104999999999997
Ni 112.59 4.170000000000001 0.0
Ni 114.675 6.255000000000002 0.0
Ni 114.675 4.170000000000001 2.085
Ni 112.59 6.255000000000002 2.085
Ni 112.59 4.170000000000001 4.169999999999999
Ni 114.675 6.255000000000002 4.169999999999999
Ni 114.675 4.170000000000001 6.254999999999999
Ni 112.59 6.255000000000002 6.254999999999999
Ni 112.59 4.170000000000001 8.339999999999998
Ni 114.675 6.255000000000002 8.339999999999998
Ni 114.675 4.170000000000001 10.424999999999997
Ni 112.59 6.255000000000002 10.424999999999997
Ni 112.59 4.170000000000001 12.509999999999998
Ni 114.675 6.255000000000002 12.509999999999998
Ni 114.675 4.170000000000001 14.594999999999997
Ni 112.59 6.255000000000002 14.594999999999997
Ni 112.59 4.170000000000001 16.679999999999996
Ni 114.675 6.255000000000002 16.679999999999996
Ni 114.675 4.170000000000001 18.764999999999997
Ni 112.59 6.255000000000002 18.764999999999997
Ni 112.59 4.170000000000001 20.849999999999994
Ni 114.675 6.255000000000002 20.849999999999994
Ni 114.675 4.170000000000001 22.934999999999995
Ni 112.59 6.255000000000002 22.934999999999995
Ni 112.59 4.170000000000001 25.019999999999996
Ni 114.675 6.255000000000002 25.019999999999996
Ni 114.675 4.170000000000001 27.104999999999997
Ni 112.59 8.340000000000002 0.0
Ni 114.675 10.425 0.0
Ni 114.675 8.340000000000002 2.085
Ni 112.59 10.425 2.085
Ni 112.59 8.340000000000002 4.169999999999999
Ni 114.675 10.425 4.169999999999999
Ni 114.675 8.340000000000002 6.254999999999999
Ni 112.59 10.425 6.254999999999999
Ni 112.59 8.340000000000002 8.339999999999998
Ni 114.675 10.425 8.339999999999998
Ni 114.675 8.340000000000002 10.424999999999997
Ni 112.59 10.425 10.424999999999997
Ni 112.59 8.340000000000002 12.509999999999998
Ni 114.675 10.425 12.509999999999998
Ni 114.675 8.340000000000002 14.594999999999997
Ni 112.59 10.425 14.594999999999997
Ni 112.59 8.340000000000002 16.679999999999996
Ni 114.675 10.425 16.679999999999996
Ni 114.675 8.340000000000002 18.764999999999997
Ni 112.59 10.425 18.764999999999997
Ni 112.59 8.340000000000002 20.849999999999994
Ni 114.675 10.425 20.849999999999994
Ni 114.675 8.340000000000002 22.934999999999995
Ni 112.59 12.510000000000003 0.0
Ni 114.675 14.595000000000002 0.0
Ni 114.675 12.510000000000003 2.085
Ni 112.59 14.595000000000002 2.085
Ni 112.59 12.510000000000003 4.169999999999999
Ni 114.675 14.595000000000002 4.169999999999999
Ni 114.675 12.510000000000003 6.254999999999999
Ni 112.59 14.595000000000002 6.254999999999999
Ni 112.59 12.510000000000003 8.339999999999998
Ni 114.675 14.595000000000002 8.339999999999998
Ni 114.675 12.510000000000003 10.424999999999997
Ni 112.59 14.595000000000002 10.424999999999997
Ni 112.59 12.510000000000003 12.509999999999998
Ni 114.675 14.595000000000002 12.509999999999998
Ni 114.675 12.510000000000003 14.594999999999997
Ni 112.59 14.595000000000002 14.594999999999997
Ni 112.59 12.510000000000003 16.679999999999996
Ni 114.675 14.595000000000002 16.679999999999996
Ni 114.675 12.510000000000003 18.764999999999997
Ni 112.59 16.680000000000003 0.0
Ni 114.675 18.765000000000004 0.0
Ni 114.675 16.680000000000003 2.085
Ni 112.59 18.765000000000004 2.085
Ni 112.59 16.680000000000003 4.169999999999999
Ni 114.675 18.765000000000004 4.169999999999999
Ni 114.675 16.680000000000003 6.254999999999999
Ni 112.59 18.765000000000004 6.254999999999999
Ni 112.59 16.680000000000003 8.339999999999998
Ni 114.675 18.765000000000004 8.339999999999998
Ni 114.675 16.680000000000003 10.424999999999997
Ni 112.59 18.765000000000004 10.424999999999997
Ni 112.59 16.680000000000003 12.509999999999998
Ni 114.675 18.765000000000004 12.509999999999998
Ni 114.675 16.680000000000003 14.594999999999997
Ni 112.59 20.849999999999998 0.0
Ni 114.675 22.935000000000002 0.0
Ni 114.675 20.849999999999998 2.085
Ni 112.59 22.935000000000002 2.085
Ni 112.59 20.849999999999998 4.169999999999999
Ni 114.675 22.935000000000002 4.169999999999999
Ni 114.675 20.849999999999998 6.254999999999999
Ni 112.59 22.935000000000002 6.254999999999999
Ni 112.59 20.849999999999998 8.339999999999998
Ni 114.675 22.935000000000002 8.339999999999998
Ni 114.675 20.849999999999998 10.424999999999997
Ni 112.59 22.935000000000002 10.424999999999997
Ni 114.675 22.935000000000002 12.509999999999998
Ni 112.59 25.020000000000007 0.0
Ni 114.675 27.105000000000008 0.0
Ni 114.675 25.020000000000007 2.085
Ni 112.59 27.105000000000008 2.085
Ni 112.59 25.020000000000007 4.169999999999999
Ni 114.675 27.105000000000008 4.169999999999999
Ni 114.675 25.020000000000007 6.254999999999999
Ni 112.59 27.105000000000008 6.254999999999999
Ni 112.59 25.020000000000007 8.339999999999998
Ni 114.675 27.105000000000008 8.339999999999998
Ni 114.675 25.020000000000007 10.424999999999997
Ni 112.59 27.105000000000008 10.424999999999997
Ni 112.59 25.020000000000007 12.509999999999998
Ni 114.675 27.105000000000008 12.509999999999998
Ni 114.675 25.020000000000007 14.594999999999997
Ni 112.59 27.105000000000008 14.594999999999997
Ni 114.675 27.105000000000008 16.679999999999996
Ni 112.59 29.190000000000005 0.0
Ni 114.675 31.275000000000006 0.0
Ni 114.675 29.190000000000005 2.085
Ni 112.59 31.275000000000006 2.085
Ni 112.59 29.190000000000005 4.169999999999999
Ni 114.675 31.275000000000006 4.169999999999999
Ni 114.675 29.190000000000005 6.254999999999999
Ni 112.59 31.275000000000006 6.254999999999999
Ni 112.59 29.190000000000005 8.339999999999998
Ni 114.675 31.275000000000006 8.339999999999998
Ni 114.675 29.190000000000005 10.424999999999997
Ni 112.59 31.275000000000006 10.424999999999997
Ni 112.59 29.190000000000005 12.509999999999998
Ni 114.675 31.275000000000006 12.509999999999998
Ni 114.675 29.190000000000005 14.594999999999997
Ni 112.59 31.275000000000006 14.594999999999997
Ni 112.59 29.190000000000005 16.679999999999996
Ni 114.675 31.275000000000006 16.679999999999996
Ni 114.675 29.190000000000005 18.764999999999997
Ni 112.59 31.275000000000006 18.764999999999997
Ni 114.675 31.275000000000006 20.849999999999994
Ni 112.59 33.36000000000001 0.0
Ni 114.675 35.44500000000001 0.0
Ni 114.675 33.36000000000001 2.085
Ni 112.59 35.44500000000001 2.085
Ni 112.59 33.36000000000001 4.169999999999999
Ni 114.675 35.44500000000001 4.169999999999999
Ni 114.675 33.36000000000001 6.254999999999999
Ni 112.59 35.44500000000001 6.254999999999999
Ni 112.59 33.36000000000001 8.339999999999998
Ni 114.675 35.44500000000001 8.339999999999998
Ni 114.675 33.36000000000001 10.424999999999997
Ni 112.59 35.44500000000001 10.424999999999997
Ni 112.59 33.36000000000001 12.509999999999998
Ni 114.675 35.44500000000001 12.509999999999998
Ni 114.675 33.36000000000001 14.594999999999997
Ni 112.59 35.44500000000001 14.594999999999997
Ni 112.59 33.36000000000001 16.679999999999996
Ni 114.675 35.44500000000001 16.679999999999996
Ni 114.675 33.36000000000001 18.764999999999997
Ni 112.59 35.44500000000001 18.764999999999997
Ni 112.59 33.36000000000001 20.849999999999994
Ni 114.675 35.44500000000001 20.849999999999994
Ni 114.675 33.36000000000001 22.934999999999995
Ni 112.59 35.44500000000001 22.934999999999995
Ni 114.675 35.44500000000001 25.019999999999996
Ni 112.59 37.53 0.0
Ni 114.675 39.615 0.0
Ni 114.675 37.53 2.085
Ni 112.59 39.615 2.085
Ni 112.59 37.53 4.169999999999999
Ni 114.675 39.615 4.169999999999999
Ni 114.675 37.53 6.254999999999999
Ni 112.59 39.615 6.254999999999999
Ni 112.59 37.53 8.339999999999998
Ni 114.675 39.615 8.339999999999998
Ni 114.675 37.53 10.424999999999997
Ni 112.59 39.615 10.424999999999997
Ni 112.59 37.53 12.509999999999998
Ni 114.675 39.615 12.509999999999998
Ni 114.675 37.53 14.594999999999997
Ni 112.59 39.615 14.594999999999997
Ni 112.59 37.53 16.679999999999996
Ni 114.675 39.615 16.679999999999996
Ni 114.675 37.53 18.764999999999997
Ni 112.59 39.615 18.764999999999997
Ni 112.59 37.53 20.849999999999994
Ni 114.675 39.615 20.849999999999994
Ni 114.675 37.53 22.934999999999995
Ni 112.59 39.615 22.934999999999995
Ni 112.59 37.53 25.019999999999996
Ni 114.675 39.615 25.019999999999996
Ni 114.675 37.53 27.104999999999997
Ni 112.59 39.615 27.104999999999997
Ni 116.75999999999999 0.0 0.0
Ni 118.84499999999998 2.085 0.0
Ni 118.84499999999998 0.0 2.085
Ni 116.75999999999999 2.085 2.085
Ni 116.75999999999999 0.0 4.169999999999999
Ni 118.84499999999998 2.085 4.169999999999999
Ni 118.84499999999998 0.0 6.254999999999999
Ni 116.75999999999999 2.085 6.254999999999999
Ni 116.75999999999999 0.0 8.339999999999998
Ni 118.84499999999998 2.085 8.339999999999998
Ni 118.84499999999998 0.0 10.424999999999997
Ni 116.75999999999999 2.085 10.424999999999997
Ni 116.75999999999999 0.0 12.509999999999998
Ni 118.84499999999998 2.085 12.509999999999998
Ni 118.84499999999998 0.0 14.594999999999997
Ni 116.75999999999999 2.085 14.594999999999997
Ni 116.75999999999999 0.0 16.679999999999996
Ni 118.84499999999998 2.085 16.679999999999996
Ni 118.84499999999998 0.0 18.764999999999997
Ni 116.75999999999999 2.085 18.764999999999997
Ni 116.75999999999999 0.0 20.849999999999994
Ni 118.84499999999998 2.085 20.849999999999994
Ni 118.84499999999998 0.0 22.934999999999995
Ni 116.75999999999999 2.085 22.934999999999995
Ni 116.75999999999999 0.0 25.019999999999996
Ni 118.84499999999998 2.085 25.019999999999996
Ni 118.84499999999998 0.0 27.104999999999997
Ni 116.75999999999999 2.085 27.104999999999997
Ni 116.75999999999999 4.170000000000001 0.0
Ni 118.84499999999998 6.255000000000002 0.0
Ni 118.84499999999998 4.170000000000001 2.085
Ni 116.75999999999999 6.255000000000002 2.085
Ni 116.75999999999999 4.170000000000001 4.169999999999999
Ni 118.84499999999998 6.255000000000002 4.169999999999999
Ni 118.84499999999998 4.170000000000001 6.254999999999999
Ni 116.75999999999999 6.255000000000002 6.254999999999999
Ni 116.75999999999999 4.170000000000001 8.339999999999998
Ni 118.84499999999998 6.255000000000002 8.339999999999998
Ni 118.84499999999998 4.170000000000001 10.424999999999997
Ni 116.75999999999999 6.255000000000002 10.424999999999997
Ni 116.75999999999999 4.170000000000001 12.509999999999998
Ni 118.84499999999998 6.255000000000002 12.509999999999998
Ni 118.84499999999998 4.170000000000001 14.594999999999997
Ni 116.75999999999999 6.255000000000002 14.594999999999997
Ni 116.75999999999999 4.170000000000001 16.679999999999996
Ni 118.84499999999998 6.255000000000002 16.679999999999996
Ni 118.84499999999998 4.170000000000001 18.764999999999997
Ni 116.75999999999999 6.255000000000002 18.764999999999997
Ni 116.75999999999999 4.170000000000001 20.849999999999994
Ni 118.84499999999998 6.255000000000002 20.849999999999994
Ni 118.84499999999998 4.170000000000001 22.934999999999995
Ni 116.75999999999999 6.255000000000002 22.934999999999995
Ni 116.75999999999999 4.170000000000001 25.019999999999996
Ni 118.84499999999998 6.255000000000002 25.019999999999996
Ni 118.84499999999998 4.170000000000001 27.104999999999997
Ni 116.75999999999999 8.340000000000002 0.0
Ni 118.84499999999998 10.425 0.0
Ni 118.84499999999998 8.340000000000002 2.085
Ni 116.75999999999999 10.425 2.085
Ni 116.75999999999999 8.340000000000002 4.169999999999999
Ni 118.84499999999998 10.425 4.169999999999999
Ni 118.84499999999998 8.340000000000002 6.254999999999999
Ni 116.75999999999999 10.425 6.254999999999999
Ni 116.75999999999999 8.340000000000002 8.339999999999998
Ni 118.84499999999998 10.425 8.339999999999998
Ni 118.84499999999998 8.340000000000002 10.424999999999997
Ni 116.75999999999999 10.425 10.424999999999997
Ni 116.75999999999999 8.340000000000002 12.509999999999998
Ni 118.84499999999998 10.425 12.509999999999998
Ni 118.84499999999998 8.340000000000002 14.594999999999997
Ni 116.75999999999999 10.425 14.594999999999997
Ni 116.75999999999999 8.340000000000002 16.679999999999996
Ni 118.84499999999998 10.425 16.679999999999996
Ni 118.84499999999998 8.340000000000002 18.764999999999997
Ni 116.75999999999999 10.425 18.764999999999997
Ni 116.75999999999999 8.340000000000002 20.849999999999994
Ni 118.84499999999998 10.425 20.849999999999994
Ni 118.84499999999998 8.340000000000002 22.934999999999995
Ni 116.75999999999999 12.510000000000003 0.0
Ni 118.84499999999998 14.595000000000002 0.0
Ni 118.84499999999998 12.510000000000003 2.085
Ni 116.75999999999999 14.595000000000002 2.085
Ni 116.75999999999999 12.510000000000003 4.169999999999999
Ni 118.84499999999998 14.595000000000002 4.169999999999999
Ni 118.84499999999998 12.510000000000003 6.254999999999999
Ni 116.75999999999999 14.595000000000002 6.254999999999999
Ni 116.75999999999999 12.510000000000003 8.339999999999998
Ni 118.84499999999998 14.595000000000002 8.339999999999998
Ni 118.84499999999998 12.510000000000003 10.424999999999997
Ni 116.75999999999999 14.595000000000002 10.424999999999997
Ni 116.75999999999999 12.510000000000003 12.509999999999998
Ni 118.84499999999998 14.595000000000002 12.509999999999998
Ni 118.84499999999998 12.510000000000003 14.594999999999997
Ni 116.75999999999999 14.595000000000002 14.594999999999997
Ni 116.75999999999999 12.510000000000003 16.679999999999996
Ni 118.84499999999998 14.595000000000002 16.679999999999996
Ni 118.84499999999998 12.510000000000003 18.764999999999997
Ni 116.75999999999999 16.680000000000003 0.0
Ni 118.84499999999998 18.765000000000004 0.0
Ni 118.84499999999998 16.680000000000003 2.085
Ni 116.75999999999999 18.765000000000004 2.085
Ni 116.75999999999999 16.680000000000003 4.169999999999999
Ni 118.84499999999998 18.765000000000004 4.169999999999999
Ni 118.84499999999998 16.680000000000003 6.254999999999999
Ni 116.75999999999999 18.765000000000004 6.254999999999999
Ni 116.75999999999999 16.680000000000003 8.339999999999998
Ni 118.84499999999998 18.765000000000004 8.339999999999998
Ni 118.84499999999998 16.680000000000003 10.424999999999997
Ni 116.75999999999999 18.765000000000004 10.424999999999997
Ni 116.75999999999999 16.680000000000003 12.509999999999998
Ni 118.84499999999998 18.765000000000004 12.509999999999998
Ni 118.84499999999998 16.680000000000003 14.594999999999997
Ni 116.75999999999999 20.849999999999998 0.0
Ni 118.84499999999998 22.935000000000002 0.0
Ni 118.84499999999998 20.849999999999998 2.085
Ni 116.75999999999999 22.935000000000002 2.085
Ni 116.75999999999999 20.849999999999998 4.169999999999999
Ni 118.84499999999998 22.935000000000002 4.169999999999999
Ni 118.84499999999998 20.849999999999998 6.254999999999999
Ni 116.75999999999999 22.935000000000002 6.254999999999999
Ni 116.75999999999999 20.849999999999998 8.339999999999998
Ni 118.84499999999998 22.935000000000002 8.339999999999998
Ni 118.84499999999998 20.849999999999998 10.424999999999997
Ni 116.75999999999999 22.935000000000002 10.424999999999997
Ni 118.84499999999998 22.935000000000002 12.509999999999998
Ni 116.75999999999999 25.020000000000007 0.0
Ni 118.84499999999998 27.105000000000008 0.0
Ni 118.84499999999998 25.020000000000007 2.085
Ni 116.75999999999999 27.105000000000008 2.085
Ni 116.75999999999999 25.020000000000007 4.169999999999999
Ni 118.84499999999998 27.105000000000008 4.169999999999999
Ni 118.84499999999998 25.020000000000007 6.254999999999999
Ni 116.75999999999999 27.105000000000008 6.254999999999999
Ni 116.75999999999999 25.020000000000007 8.339999999999998
Ni 118.84499999999998 27.105000000000008 8.339999999999998
Ni 118.84499999999998 25.020000000000007 10.424999999999997
Ni 116.75999999999999 27.105000000000008 10.424999999999997
Ni 116.75999999999999 25.020000000000007 12.509999999999998
Ni 118.84499999999998 27.105000000000008 12.509999999999998
Ni 118.84499999999998 25.020000000000007 14.594999999999997
Ni 116.75999999999999 27.105000000000008 14.594999999999997
Ni 118.84499999999998 27.105000000000008 16.679999999999996
Ni 116.75999999999999 29.190000000000005 0.0
Ni 118.84499999999998 31.275000000000006 0.0
Ni 118.84499999999998 29.190000000000005 2.085
Ni 116.75999999999999 31.275000000000006 2.085
Ni 116.75999999999999 29.190000000000005 4.169999999999999
Ni 118.84499999999998 31.275000000000006 4.169999999999999
Ni 118.84499999999998 29.190000000000005 6.254999999999999
Ni 116.75999999999999 31.275000000000006 6.254999999999999
Ni 116.75999999999999 29.190000000000005 8.339999999999998
Ni 118.84499999999998 31.275000000000006 8.339999999999998
Ni 118.84499999999998 29.190000000000005 10.424999999999997
Ni 116.75999999999999 31.275000000000006 10.424999999999997
Ni 116.75999999999999 29.190000000000005 12.509999999999998
Ni 118.84499999999998 31.275000000000006 12.509999999999998
Ni 118.84499999999998 29.190000000000005 14.594999999999997
Ni 116.75999999999999 31.275000000000006 14.594999999999997
Ni 116.75999999999999 29.190000000000005 16.679999999999996
Ni 118.84499999999998 31.275000000000006 16.679999999999996
Ni 118.84499999999998 29.190000000000005 18.764999999999997
Ni 116.75999999999999 31.275000000000006 18.764999999999997
Ni 118.84499999999998 31.275000000000006 20.849999999999994
Ni 116.75999999999999 33.36000000000001 0.0
Ni 118.84499999999998 35.44500000000001 0.0
Ni 118.84499999999998 33.36000000000001 2.085
Ni 116.75999999999999 35.44500000000001 2.085
Ni 116.75999999999999 33.36000000000001 4.169999999999999
Ni 118.84499999999998 35.44500000000001 4.169999999999999
Ni 118.84499999999998 33.36000000000001 6.254999999999999
Ni 116.75999999999999 35.44500000000001 6.254999999999999
Ni 116.75999999999999 33.36000000000001 8.339999999999998
Ni 118.84499999999998 35.44500000000001 8.339999999999998
Ni 118.84499999999998 33.36000000000001 10.424999999999997
Ni 116.75999999999999 35.44500000000001 10.424999999999997
Ni 116.75999999999999 33.36000000000001 12.509999999999998
Ni 118.84499999999998 35.44500000000001 12.509999999999998
Ni 118.84499999999998 33.36000000000001 14.594999999999997
Ni 116.75999999999999 35.44500000000001 14.594999999999997
Ni 116.75999999999999 33.36000000000001 16.679999999999996
Ni 118.84499999999998 35.44500000000001 16.679999999999996
Ni 118.84499999999998 33.36000000000001 18.764999999999997
Ni 116.75999999999999 35.44500000000001 18.764999999999997
Ni 116.75999999999999 33.36000000000001 20.849999999999994
Ni 118.84499999999998 35.44500000000001 20.849999999999994
Ni 118.84499999999998 33.36000000000001 22.934999999999995
Ni 116.75999999999999 35.44500000000001 22.934999999999995
Ni 118.84499999999998 35.44500000000001 25.019999999999996
Ni 116.75999999999999 37.53 0.0
Ni 118.84499999999998 39.615 0.0
Ni 118.84499999999998 37.53 2.085
Ni 116.75999999999999 39.615 2.085
Ni 116.75999999999999 37.53 4.169999999999999
Ni 118.84499999999998 39.615 4.169999999999999
Ni 118.84499999999998 37.53 6.254999999999999
Ni 116.75999999999999 39.615 6.254999999999999
Ni 116.75999999999999 37.53 8.339999999999998
Ni 118.84499999999998 39.615 8.339999999999998
Ni 118.84499999999998 37.53 10.424999999999997
Ni 116.75999999999999 39.615 10.424999999999997
Ni 116.75999999999999 37.53 12.509999999999998
Ni 118.84499999999998 39.615 12.509999999999998
Ni 118.84499999999998 37.53 14.594999999999997
Ni 116.75999999999999 39.615 14.594999999999997
Ni 116.75999999999999 37.53 16.679999999999996
Ni 118.84499999999998 39.615 16.679999999999996
Ni 118.84499999999998 37.53 18.764999999999997
Ni 116.75999999999999 39.615 18.764999999999997
Ni 116.75999999999999 37.53 20.849999999999994
Ni 118.84499999999998 39.615 20.849999999999994
Ni 118.84499999999998 37.53 22.934999999999995
Ni 116.75999999999999 39.615 22.934999999999995
Ni 116.75999999999999 37.53 25.019999999999996
Ni 118.84499999999998 39.615 25.019999999999996
Ni 118.84499999999998 37.53 27.104999999999997
Ni 116.75999999999999 39.615 27.104999999999997
Ni 120.92999999999999 0.0 0.0
Ni 123.01499999999999 2.085 0.0
Ni 123.01499999999999 0.0 2.085
Ni 120.92999999999999 2.085 2.085
Ni 120.92999999999999 0.0 4.169999999999999
Ni 123.01499999999999 2.085 4.169999999999999
Ni 123.01499999999999 0.0 6.254999999999999
Ni 120.92999999999999 2.085 6.254999999999999
Ni 120.92999999999999 0.0 8.339999999999998
Ni 123.01499999999999 2.085 8.339999999999998
Ni 123.01499999999999 0.0 10.424999999999997
Ni 120.92999999999999 2.085 10.424999999999997
Ni 120.92999999999999 0.0 12.509999999999998
Ni 123.01499999999999 2.085 12.509999999999998
Ni 123.01499999999999 0.0 14.594999999999997
Ni 120.92999999999999 2.085 14.594999999999997
Ni 120.92999999999999 0.0 16.679999999999996
Ni 123.01499999999999 2.085 16.679999999999996
Ni 123.01499999999999 0.0 18.764999999999997
Ni 120.92999999999999 2.085 18.764999999999997
Ni 120.92999999999999 0.0 20.849999999999994
Ni 123.01499999999999 2.085 20.849999999999994
Ni 123.01499999999999 0.0 22.934999999999995
Ni 120.92999999999999 2.085 22.934999999999995
Ni 120.92999999999999 0.0 25.019999999999996
Ni 123.01499999999999 2.085 25.019999999999996
Ni 123.01499999999999 0.0 27.104999999999997
Ni 120.92999999999999 2.085 27.104999999999997
Ni 120.92999999999999 4.170000000000001 0.0
Ni 123.01499999999999 6.255000000000002 0.0
Ni 123.01499999999999 4.170000000000001 2.085
Ni 120.92999999999999 6.255000000000002 2.085
Ni 120.92999999999999 4.170000000000001 4.169999999999999
Ni 123.01499999999999 6.255000000000002 4.169999999999999
Ni 123.01499999999999 4.170000000000001 6.254999999999999
Ni 120.92999999999999 6.255000000000002 6.254999999999999
Ni 120.92999999999999 4.170000000000001 8.339999999999998
Ni 123.01499999999999 6.255000000000002 8.339999999999998
Ni 123.01499999999999 4.170000000000001 10.424999999999997
Ni 120.92999999999999 6.255000000000002 10.424999999999997
Ni 120.92999999999999 4.170000000000001 12.509999999999998
Ni 123.01499999999999 6.255000000000002 12.509999999999998
Ni 123.01499999999999 4.170000000000001 14.594999999999997
Ni 120.92999999999999 6.255000000000002 14.594999999999997
Ni 120.92999999999999 4.170000000000001 16.679999999999996
Ni 123.01499999999999 6.255000000000002 16.679999999999996
Ni 123.01499999999999 4.170000000000001 18.764999999999997
Ni 120.92999999999999 6.255000000000002 18.764999999999997
Ni 120.92999999999999 4.170000000000001 20.849999999999994
Ni 123.01499999999999 6.255000000000002 20.849999999999994
Ni 123.01499999999999 4.170000000000001 22.934999999999995
Ni 120.92999999999999 6.255000000000002 22.934999999999995
Ni 120.92999999999999 4.170000000000001 25.019999999999996
Ni 123.01499999999999 6.255000000000002 25.019999999999996
Ni 123.01499999999999 4.170000000000001 27.104999999999997
Ni 120.92999999999999 8.340000000000002 0.0
Ni 123.01499999999999 10.425 0.0
Ni 123.01499999999999 8.340000000000002 2.085
Ni 120.92999999999999 10.425 2.085
Ni 120.92999999999999 8.340000000000002 4.169999999999999
Ni 123.01499999999999 10.425 4.169999999999999
Ni 123.01499999999999 8.340000000000002 6.254999999999999
Ni 120.92999999999999 10.425 6.254999999999999
Ni 120.92999999999999 8.340000000000002 8.339999999999998
Ni 123.01499999999999 10.425 8.339999999999998
Ni 123.01499999999999 8.340000000000002 10.424999999999997
Ni 120.92999999999999 10.425 10.424999999999997
Ni 120.92999999999999 8.340000000000002 12.509999999999998
Ni 123.01499999999999 10.425 12.509999999999998
Ni 123.01499999999999 8.340000000000002 14.594999999999997
Ni 120.92999999999999 10.425 14.594999999999997
Ni 120.92999999999999 8.340000000000002 16.679999999999996
Ni 123.01499999999999 10.425 16.679999999999996
Ni 123.01499999999999 8.340000000000002 18.764999999999997
Ni 120.92999999999999 10.425 18.764999999999997
Ni 120.92999999999999 8.340000000000002 20.849999999999994
Ni 123.01499999999999 10.425 20.849999999999994
Ni 123.01499999999999 8.340000000000002 22.934999999999995
Ni 120.92999999999999 12.510000000000003 0.0
Ni 123.01499999999999 14.595000000000002 0.0
Ni 123.01499999999999 12.510000000000003 2.085
Ni 120.92999999999999 14.595000000000002 2.085
Ni 120.92999999999999 12.510000000000003 4.169999999999999
Ni 123.01499999999999 14.595000000000002 4.169999999999999
Ni 123.01499999999999 12.510000000000003 6.254999999999999
Ni 120.92999999999999 14.595000000000002 6.254999999999999
Ni 120.92999999999999 12.510000000000003 8.339999999999998
Ni 123.01499999999999 14.595000000000002 8.339999999999998
Ni 123.01499999999999 12.510000000000003 10.424999999999997
Ni 120.92999999999999 14.595000000000002 10.424999999999997
Ni 120.92999999999999 12.510000000000003 12.509999999999998
Ni 123.01499999999999 14.595000000000002 12.509999999999998
Ni 123.01499999999999 12.510000000000003 14.594999999999997
Ni 120.92999999999999 14.595000000000002 14.594999999999997
Ni 120.92999999999999 12.510000000000003 16.679999999999996
Ni 123.01499999999999 14.595000000000002 16.679999999999996
Ni 123.01499999999999 12.510000000000003 18.764999999999997
Ni 120.92999999999999 16.680000000000003 0.0
Ni 123.01499999999999 18.765000000000004 0.0
Ni 123.01499999999999 16.680000000000003 2.085
Ni 120.92999999999999 18.765000000000004 2.085
Ni 120.92999999999999 16.680000000000003 4.169999999999999
Ni 123.01499999999999 18.765000000000004 4.169999999999999
Ni 123.01499999999999 16.680000000000003 6.254999999999999
Ni 120.92999999999999 18.765000000000004 6.254999999999999
Ni 120.92999999999999 16.680000000000003 8.339999999999998
Ni 123.01499999999999 18.765000000000004 8.339999999999998
Ni 123.01499999999999 16.680000000000003 10.424999999999997
Ni 120.92999999999999 18.765000000000004 10.424999999999997
Ni 120.92999999999999 16.680000000000003 12.509999999999998
Ni 123.01499999999999 18.765000000000004 12.509999999999998
Ni 123.01499999999999 16.680000000000003 14.594999999999997
Ni 120.92999999999999 20.849999999999998 0.0
Ni 123.01499999999999 22.935000000000002 0.0
Ni 123.01499999999999 20.849999999999998 2.085
Ni 120.92999999999999 22.935000000000002 2.085
Ni 120.92999999999999 20.849999999999998 4.169999999999999
Ni 123.01499999999999 22.935000000000002 4.169999999999999
Ni 123.01499999999999 20.849999999999998 6.254999999999999
Ni 120.92999999999999 22.935000000000002 6.254999999999999
Ni 120.92999999999999 20.849999999999998 8.339999999999998
Ni 123.01499999999999 22.935000000000002 8.339999999999998
Ni 123.01499999999999 20.849999999999998 10.424999999999997
Ni 120.92999999999999 22.935000000000002 10.424999999999997
Ni 123.01499999999999 22.935000000000002 12.509999999999998
Ni 120.92999999999999 25.020000000000007 0.0
Ni 123.01499999999999 27.105000000000008 0.0
Ni 123.01499999999999 25.020000000000007 2.085
Ni 120.92999999999999 27.105000000000008 2.085
Ni 120.92999999999999 25.020000000000007 4.169999999999999
Ni 123.01499999999999 27.105000000000008 4.169999999999999
Ni 123.01499999999999 25.020000000000007 6.254999999999999
Ni 120.92999999999999 27.105000000000008 6.254999999999999
Ni 120.92999999999999 25.020000000000007 8.339999999999998
Ni 123.01499999999999 27.105000000000008 8.339999999999998
Ni 123.01499999999999 25.020000000000007 10.424999999999997
Ni 120.92999999999999 27.105000000000008 10.424999999999997
Ni 120.92999999999999 25.020000000000007 12.509999999999998
Ni 123.01499999999999 27.105000000000008 12.509999999999998
Ni 123.01499999999999 25.020000000000007 14.594999999999997
Ni 120.92999999999999 27.105000000000008 14.594999999999997
Ni 123.01499999999999 27.105000000000008 16.679999999999996
Ni 120.92999999999999 29.190000000000005 0.0
Ni 123.01499999999999 31.275000000000006 0.0
Ni 123.01499999999999 29.190000000000005 2.085
Ni 120.92999999999999 31.275000000000006 2.085
Ni 120.92999999999999 29.190000000000005 4.169999999999999
Ni 123.01499999999999 31.275000000000006 4.169999999999999
Ni 123.01499999999999 29.190000000000005 6.254999999999999
Ni 120.92999999999999 31.275000000000006 6.254999999999999
Ni 120.92999999999999 29.190000000000005 8.339999999999998
Ni 123.01499999999999 31.275000000000006 8.339999999999998
Ni 123.01499999999999 29.190000000000005 10.424999999999997
Ni 120.92999999999999 31.275000000000006 10.424999999999997
Ni 120.92999999999999 29.190000000000005 12.509999999999998
Ni 123.01499999999999 31.275000000000006 12.509999999999998
Ni 123.01499999999999 29.190000000000005 14.594999999999997
Ni 120.92999999999999 31.275000000000006 14.594999999999997
Ni 120.92999999999999 29.190000000000005 16.679999999999996
Ni 123.01499999999999 31.275000000000006 16.679999999999996
Ni 123.01499999999999 29.190000000000005 18.764999999999997
Ni 120.92999999999999 31.275000000000006 18.764999999999997
Ni 123.01499999999999 31.275000000000006 20.849999999999994
Ni 120.92999999999999 33.36000000000001 0.0
Ni 123.01499999999999 35.44500000000001 0.0
Ni 123.01499999999999 33.36000000000001 2.085
Ni 120.92999999999999 35.44500000000001 2.085
Ni 120.92999999999999 33.36000000000001 4.169999999999999
Ni 123.01499999999999 35.44500000000001 4.169999999999999
Ni 123.01499999999999 33.36000000000001 6.254999999999999
Ni 120.92999999999999 35.44500000000001 6.254999999999999
Ni 120.92999999999999 33.36000000000001 8.339999999999998
Ni 123.01499999999999 35.44500000000001 8.339999999999998
Ni 123.01499999999999 33.36000000000001 10.424999999999997
Ni 120.92999999999999 35.44500000000001 10.424999999999997
Ni 120.92999999999999 33.36000000000001 12.509999999999998
Ni 123.01499999999999 35.44500000000001 12.509999999999998
Ni 123.01499999999999 33.36000000000001 14.594999999999997
Ni 120.92999999999999 35.44500000000001 14.594999999999997
Ni 120.92999999999999 33.36000000000001 16.679999999999996
Ni 123.01499999999999 35.44500000000001 16.679999999999996
Ni 123.01499999999999 33.36000000000001 18.764999999999997
Ni 120.92999999999999 35.44500000000001 18.764999999999997
Ni 120.92999999999999 33.36000000000001 20.849999999999994
Ni 123.01499999999999 35.44500000000001 20.849999999999994
Ni 123.01499999999999 33.36000000000001 22.934999999999995
Ni 120.92999999999999 35.44500000000001 22.934999999999995
Ni 123.01499999999999 35.44500000000001 25.019999999999996
Ni 120.92999999999999 37.53 0.0
Ni 123.01499999999999 39.615 0.0
Ni 123.01499999999999 37.53 2.085
Ni 120.92999999999999 39.615 2.085
Ni 120.92999999999999 37.53 4.169999999999999
Ni 123.01499999999999 39.615 4.169999999999999
Ni 123.01499999999999 37.53 6.254999999999999
Ni 120.92999999999999 39.615 6.254999999999999
Ni 120.92999999999999 37.53 8.339999999999998
Ni 123.01499999999999 39.615 8.339999999999998
Ni 123.01499999999999 37.53 10.424999999999997
Ni 120.92999999999999 39.615 10.424999999999997
Ni 120.92999999999999 37.53 12.509999999999998
Ni 123.01499999999999 39.615 12.509999999999998
Ni 123.01499999999999 37.53 14.594999999999997
Ni 120.92999999999999 39.615 14.594999999999997
Ni 120.92999999999999 37.53 16.679999999999996
Ni 123.01499999999999 39.615 16.679999999999996
Ni 123.01499999999999 37.53 18.764999999999997
Ni 120.92999999999999 39.615 18.764999999999997
Ni 120.92999999999999 37.53 20.849999999999994
Ni 123.01499999999999 39.615 20.849999999999994
Ni 123.01499999999999 37.53 22.934999999999995
Ni 120.92999999999999 39.615 22.934999999999995
Ni 120.92999999999999 37.53 25.019999999999996
Ni 123.01499999999999 39.615 25.019999999999996
Ni 123.01499999999999 37.53 27.104999999999997
Ni 120.92999999999999 39.615 27.104999999999997
O 2.085 2.085 2.085
O 4.17 2.085 0.0
O 2.085 4.17 0.0
O 0.0 0.0 2.085
O 2.085 2.085 6.254999999999999
O 4.17 2.085 4.169999999999999
O 2.085 4.17 4.169999999999999
O 0.0 0.0 6.254999999999999
O 2.085 2.085 10.424999999999997
O 4.17 2.085 8.339999999999998
O 2.085 4.17 8.339999999999998
O 0.0 0.0 10.424999999999997
O 2.085 2.085 14.594999999999997
O 4.17 2.085 12.509999999999998
O 2.085 4.17 12.509999999999998
O 0.0 0.0 14.594999999999997
O 2.085 2.085 18.764999999999997
O 4.17 2.085 16.679999999999996
O 2.085 4.17 16.679999999999996
O 0.0 0.0 18.764999999999997
O 2.085 2.085 22.934999999999995
O 4.17 2.085 20.849999999999994
O 2.085 4.17 20.849999999999994
O 0.0 0.0 22.934999999999995
O 2.085 2.085 27.104999999999997
O 4.17 2.085 25.019999999999996
O 2.085 4.17 25.019999999999996
O 0.0 0.0 27.104999999999997
O 2.085 6.255000000000002 2.085
O 4.17 6.255000000000002 0.0
O 2.085 8.34 0.0
O 0.0 4.170000000000001 2.085
O 2.085 6.255000000000002 6.254999999999999
O 4.17 6.255000000000002 4.169999999999999
O 2.085 8.34 4.169999999999999
O 0.0 4.170000000000001 6.254999999999999
O 2.085 6.255000000000002 10.424999999999997
O 4.17 6.255000000000002 8.339999999999998
O 2.085 8.34 8.339999999999998
O 0.0 4.170000000000001 10.424999999999997
O 2.085 6.255000000000002 14.594999999999997
O 4.17 6.255000000000002 12.509999999999998
O 2.085 8.34 12.509999999999998
O 0.0 4.170000000000001 14.594999999999997
O 2.085 6.255000000000002 18.764999999999997
O 4.17 6.255000000000002 16.679999999999996
O 2.085 8.34 16.679999999999996
O 0.0 4.170000000000001 18.764999999999997
O 2.085 6.255000000000002 22.934999999999995
O 4.17 6.255000000000002 20.849999999999994
O 2.085 8.34 20.849999999999994
O 0.0 4.170000000000001 22.934999999999995
O 4.17 6.255000000000002 25.019999999999996
O 0.0 4.170000000000001 27.104999999999997
O 2.085 10.425 2.085
O 4.17 10.425 0.0
O 2.085 12.510000000000003 0.0
O 0.0 8.340000000000002 2.085
O 2.085 10.425 6.254999999999999
O 4.17 10.425 4.169999999999999
O 2.085 12.510000000000003 4.169999999999999
O 0.0 8.340000000000002 6.254999999999999
O 2.085 10.425 10.424999999999997
O 4.17 10.425 8.339999999999998
O 2.085 12.510000000000003 8.339999999999998
O 0.0 8.340000000000002 10.424999999999997
O 2.085 10.425 14.594999999999997
O 4.17 10.425 12.509999999999998
O 2.085 12.510000000000003 12.509999999999998
O 0.0 8.340000000000002 14.594999999999997
O 2.085 10.425 18.764999999999997
O 4.17 10.425 16.679999999999996
O 2.085 12.510000000000003 16.679999999999996
O 0.0 8.340000000000002 18.764999999999997
O 4.17 10.425 20.849999999999994
O 0.0 8.340000000000002 22.934999999999995
O 2.085 14.595000000000002 2.085
O 4.17 14.595000000000002 0.0
O 2.085 16.680000000000003 0.0
O 0.0 12.510000000000003 2.085
O 2.085 14.595000000000002 6.254999999999999
O 4.17 14.595000000000002 4.169999999999999
O 2.085 16.680000000000003 4.169999999999999
O 0.0 12.510000000000003 6.254999999999999
O 2.085 14.595000000000002 10.424999999999997
O 4.17 14.595000000000002 8.339999999999998
O 2.085 16.680000000000003 8.339999999999998
O 0.0 12.510000000000003 10.424999999999997
O 2.085 14.595000000000002 14.594999999999997
O 4.17 14.595000000000002 12.509999999999998
O 2.085 16.680000000000003 12.509999999999998
O 0.0 12.510000000000003 14.594999999999997
O 4.17 14.595000000000002 16.679999999999996
O 0.0 12.510000000000003 18.764999999999997
O 2.085 18.765000000000004 2.085
O 4.17 18.765000000000004 0.0
O 2.085 20.849999999999998 0.0
O 0.0 16.680000000000003 2.085
O 2.085 18.765000000000004 6.254999999999999
O 4.17 18.765000000000004 4.169999999999999
O 2.085 20.849999999999998 4.169999999999999
O 0.0 16.680000000000003 6.254999999999999
O 2.085 18.765000000000004 10.424999999999997
O 4.17 18.765000000000004 8.339999999999998
O 2.085 20.849999999999998 8.339999999999998
O 0.0 16.680000000000003 10.424999999999997
O 4.17 18.765000000000004 12.509999999999998
O 0.0 16.680000000000003 14.594999999999997
O 2.085 22.935000000000002 2.085
O 4.17 22.935000000000002 0.0
O 2.085 25.020000000000007 0.0
O 0.0 20.849999999999998 2.085
O 2.085 22.935000000000002 6.254999999999999
O 4.17 22.935000000000002 4.169999999999999
O 2.085 25.020000000000007 4.169999999999999
O 0.0 20.849999999999998 6.254999999999999
O 2.085 22.935000000000002 10.424999999999997
O 4.17 22.935000000000002 8.339999999999998
O 2.085 25.020000000000007 8.339999999999998
O 0.0 20.849999999999998 10.424999999999997
O 4.17 22.935000000000002 12.509999999999998
O 2.085 25.020000000000007 12.509999999999998
O 2.085 27.105000000000008 2.085
O 4.17 27.105000000000008 0.0
O 2.085 29.190000000000005 0.0
O 0.0 25.020000000000007 2.085
O 2.085 27.105000000000008 6.254999999999999
O 4.17 27.105000000000008 4.169999999999999
O 2.085 29.190000000000005 4.169999999999999
O 0.0 25.020000000000007 6.254999999999999
O 2.085 27.105000000000008 10.424999999999997
O 4.17 27.105000000000008 8.339999999999998
O 2.085 29.190000000000005 8.339999999999998
O 0.0 25.020000000000007 10.424999999999997
O 2.085 27.105000000000008 14.594999999999997
O 4.17 27.105000000000008 12.509999999999998
O 2.085 29.190000000000005 12.509999999999998
O 0.0 25.020000000000007 14.594999999999997
O 4.17 27.105000000000008 16.679999999999996
O 2.085 29.190000000000005 16.679999999999996
O 2.085 31.275000000000006 2.085
O 4.17 31.275000000000006 0.0
O 2.085 33.36000000000001 0.0
O 0.0 29.190000000000005 2.085
O 2.085 31.275000000000006 6.254999999999999
O 4.17 31.275000000000006 4.169999999999999
O 2.085 33.36000000000001 4.169999999999999
O 0.0 29.190000000000005 6.254999999999999
O 2.085 31.275000000000006 10.424999999999997
O 4.17 31.275000000000006 8.339999999999998
O 2.085 33.36000000000001 8.339999999999998
O 0.0 29.190000000000005 10.424999999999997
O 2.085 31.275000000000006 14.594999999999997
O 4.17 31.275000000000006 12.509999999999998
O 2.085 33.36000000000001 12.509999999999998
O 0.0 29.190000000000005 14.594999999999997
O 2.085 31.275000000000006 18.764999999999997
O 4.17 31.275000000000006 16.679999999999996
O 2.085 33.36000000000001 16.679999999999996
O 0.0 29.190000000000005 18.764999999999997
O 4.17 31.275000000000006 20.849999999999994
O 2.085 33.36000000000001 20.849999999999994
O 2.085 35.44500000000001 2.085
O 4.17 35.44500000000001 0.0
O 2.085 37.53000000000001 0.0
O 0.0 33.36000000000001 2.085
O 2.085 35.44500000000001 6.254999999999999
O 4.17 35.44500000000001 4.169999999999999
O 2.085 37.53000000000001 4.169999999999999
O 0.0 33.36000000000001 6.254999999999999
O 2.085 35.44500000000001 10.424999999999997
O 4.17 35.44500000000001 8.339999999999998
O 2.085 37.53000000000001 8.339999999999998
O 0.0 33.36000000000001 10.424999999999997
O 2.085 35.44500000000001 14.594999999999997
O 4.17 35.44500000000001 12.509999999999998
O 2.085 37.53000000000001 12.509999999999998
O 0.0 33.36000000000001 14.594999999999997
O 2.085 35.44500000000001 18.764999999999997
O 4.17 35.44500000000001 16.679999999999996
O 2.085 37.53000000000001 16.679999999999996
O 0.0 33.36000000000001 18.764999999999997
O 2.085 35.44500000000001 22.934999999999995
O 4.17 35.44500000000001 20.849999999999994
O 2.085 37.53000000000001 20.849999999999994
O 0.0 33.36000000000001 22.934999999999995
O 4.17 35.44500000000001 25.019999999999996
O 2.085 37.53000000000001 25.019999999999996
O 2.085 39.615 2.085
O 4.17 39.615 0.0
O 2.085 2.7318179660128058e-15 0.0
O 0.0 37.53 2.085
O 2.085 39.615 6.254999999999999
O 4.17 39.615 4.169999999999999
O 2.085 2.7318179660128058e-15 4.169999999999999
O 0.0 37.53 6.254999999999999
O 2.085 39.615 10.424999999999997
O 4.17 39.615 8.339999999999998
O 2.085 2.7318179660128058e-15 8.339999999999998
O 0.0 37.53 10.424999999999997
O 2.085 39.615 14.594999999999997
O 4.17 39.615 12.509999999999998
O 2.085 2.7318179660128058e-15 12.509999999999998
O 0.0 37.53 14.594999999999997
O 2.085 39.615 18.764999999999997
O 4.17 39.615 16.679999999999996
O 2.085 2.7318179660128058e-15 16.679999999999996
O 0.0 37.53 18.764999999999997
O 2.085 39.615 22.934999999999995
O 4.17 39.615 20.849999999999994
O 2.085 2.7318179660128058e-15 20.849999999999994
O 0.0 37.53 22.934999999999995
O 2.085 39.615 27.104999999999997
O 4.17 39.615 25.019999999999996
O 2.085 2.7318179660128058e-15 25.019999999999996
O 0.0 37.53 27.104999999999997
O 6.255 2.085 2.085
O 8.34 2.085 0.0
O 6.255 4.17 0.0
O 4.17 0.0 2.085
O 6.255 2.085 6.254999999999999
O 8.34 2.085 4.169999999999999
O 6.255 4.17 4.169999999999999
O 4.17 0.0 6.254999999999999
O 6.255 2.085 10.424999999999997
O 8.34 2.085 8.339999999999998
O 6.255 4.17 8.339999999999998
O 4.17 0.0 10.424999999999997
O 6.255 2.085 14.594999999999997
O 8.34 2.085 12.509999999999998
O 6.255 4.17 12.509999999999998
O 4.17 0.0 14.594999999999997
O 6.255 2.085 18.764999999999997
O 8.34 2.085 16.679999999999996
O 6.255 4.17 16.679999999999996
O 4.17 0.0 18.764999999999997
O 6.255 2.085 22.934999999999995
O 8.34 2.085 20.849999999999994
O 6.255 4.17 20.849999999999994
O 4.17 0.0 22.934999999999995
O 6.255 2.085 27.104999999999997
O 8.34 2.085 25.019999999999996
O 6.255 4.17 25.019999999999996
O 4.17 0.0 27.104999999999997
O 6.255 6.255000000000002 2.085
O 8.34 6.255000000000002 0.0
O 6.255 8.34 0.0
O 4.17 4.170000000000001 2.085
O 6.255 6.255000000000002 6.254999999999999
O 8.34 6.255000000000002 4.169999999999999
O 6.255 8.34 4.169999999999999
O 4.17 4.170000000000001 6.254999999999999
O 6.255 6.255000000000002 10.424999999999997
O 8.34 6.255000000000002 8.339999999999998
O 6.255 8.34 8.339999999999998
O 4.17 4.170000000000001 10.424999999999997
O 6.255 6.255000000000002 14.594999999999997
O 8.34 6.255000000000002 12.509999999999998
O 6.255 8.34 12.509999999999998
O 4.17 4.170000000000001 14.594999999999997
O 6.255 6.255000000000002 18.764999999999997
O 8.34 6.255000000000002 16.679999999999996
O 6.255 8.34 16.679999999999996
O 4.17 4.170000000000001 18.764999999999997
O 6.255 6.255000000000002 22.934999999999995
O 8.34 6.255000000000002 20.849999999999994
O 6.255 8.34 20.849999999999994
O 4.17 4.170000000000001 22.934999999999995
O 8.34 6.255000000000002 25.019999999999996
O 4.17 4.170000000000001 27.104999999999997
O 6.255 10.425 2.085
O 8.34 10.425 0.0
O 6.255 12.510000000000003 0.0
O 4.17 8.340000000000002 2.085
O 6.255 10.425 6.254999999999999
O 8.34 10.425 4.169999999999999
O 6.255 12.510000000000003 4.169999999999999
O 4.17 8.340000000000002 6.254999999999999
O 6.255 10.425 10.424999999999997
O 8.34 10.425 8.339999999999998
O 6.255 12.510000000000003 8.339999999999998
O 4.17 8.340000000000002 10.424999999999997
O 6.255 10.425 14.594999999999997
O 8.34 10.425 12.509999999999998
O 6.255 12.510000000000003 12.509999999999998
O 4.17 8.340000000000002 14.594999999999997
O 6.255 10.425 18.764999999999997
O 8.34 10.425 16.679999999999996
O 6.255 12.510000000000003 16.679999999999996
O 4.17 8.340000000000002 18.764999999999997
O 8.34 10.425 20.849999999999994
O 4.17 8.340000000000002 22.934999999999995
O 6.255 14.595000000000002 2.085
O 8.34 14.595000000000002 0.0
O 6.255 16.680000000000003 0.0
O 4.17 12.510000000000003 2.085
O 6.255 14.595000000000002 6.254999999999999
O 8.34 14.595000000000002 4.169999999999999
O 6.255 16.680000000000003 4.169999999999999
O 4.17 12.510000000000003 6.254999999999999
O 6.255 14.595000000000002 10.424999999999997
O 8.34 14.595000000000002 8.339999999999998
O 6.255 16.680000000000003 8.339999999999998
O 4.17 12.510000000000003 10.424999999999997
O 6.255 14.595000000000002 14.594999999999997
O 8.34 14.595000000000002 12.509999999999998
O 6.255 16.680000000000003 12.509999999999998
O 4.17 12.510000000000003 14.594999999999997
O 8.34 14.595000000000002 16.679999999999996
O 4.17 12.510000000000003 18.764999999999997
O 6.255 18.765000000000004 2.085
O 8.34 18.765000000000004 0.0
O 6.255 20.849999999999998 0.0
O 4.17 16.680000000000003 2.085
O 6.255 18.765000000000004 6.254999999999999
O 8.34 18.765000000000004 4.169999999999999
O 6.255 20.849999999999998 4.169999999999999
O 4.17 16.680000000000003 6.254999999999999
O 6.255 18.765000000000004 10.424999999999997
O 8.34 18.765000000000004 8.339999999999998
O 6.255 20.849999999999998 8.339999999999998
O 4.17 16.680000000000003 10.424999999999997
O 8.34 18.765000000000004 12.509999999999998
O 4.17 16.680000000000003 14.594999999999997
O 6.255 22.935000000000002 2.085
O 8.34 22.935000000000002 0.0
O 6.255 25.020000000000007 0.0
O 4.17 20.849999999999998 2.085
O 6.255 22.935000000000002 6.254999999999999
O 8.34 22.935000000000002 4.169999999999999
O 6.255 25.020000000000007 4.169999999999999
O 4.17 20.849999999999998 6.254999999999999
O 6.255 22.935000000000002 10.424999999999997
O 8.34 22.935000000000002 8.339999999999998
O 6.255 25.020000000000007 8.339999999999998
O 4.17 20.849999999999998 10.424999999999997
O 8.34 22.935000000000002 12.509999999999998
O 6.255 25.020000000000007 12.509999999999998
O 6.255 27.105000000000008 2.085
O 8.34 27.105000000000008 0.0
O 6.255 29.190000000000005 0.0
O 4.17 25.020000000000007 2.085
O 6.255 27.105000000000008 6.254999999999999
O 8.34 27.105000000000008 4.169999999999999
O 6.255 29.190000000000005 4.169999999999999
O 4.17 25.020000000000007 6.254999999999999
O 6.255 27.105000000000008 10.424999999999997
O 8.34 27.105000000000008 8.339999999999998
O 6.255 29.190000000000005 8.339999999999998
O 4.17 25.020000000000007 10.424999999999997
O 6.255 27.105000000000008 14.594999999999997
O 8.34 27.105000000000008 12.509999999999998
O 6.255 29.190000000000005 12.509999999999998
O 4.17 25.020000000000007 14.594999999999997
O 8.34 27.105000000000008 16.679999999999996
O 6.255 29.190000000000005 16.679999999999996
O 6.255 31.275000000000006 2.085
O 8.34 31.275000000000006 0.0
O 6.255 33.36000000000001 0.0
O 4.17 29.190000000000005 2.085
O 6.255 31.275000000000006 6.254999999999999
O 8.34 31.275000000000006 4.169999999999999
O 6.255 33.36000000000001 4.169999999999999
O 4.17 29.190000000000005 6.254999999999999
O 6.255 31.275000000000006 10.424999999999997
O 8.34 31.275000000000006 8.339999999999998
O 6.255 33.36000000000001 8.339999999999998
O 4.17 29.190000000000005 10.424999999999997
O 6.255 31.275000000000006 14.594999999999997
O 8.34 31.275000000000006 12.509999999999998
O 6.255 33.36000000000001 12.509999999999998
O 4.17 29.190000000000005 14.594999999999997
O 6.255 31.275000000000006 18.764999999999997
O 8.34 31.275000000000006 16.679999999999996
O 6.255 33.36000000000001 16.679999999999996
O 4.17 29.190000000000005 18.764999999999997
O 8.34 31.275000000000006 20.849999999999994
O 6.255 33.36000000000001 20.849999999999994
O 6.255 35.44500000000001 2.085
O 8.34 35.44500000000001 0.0
O 6.255 37.53000000000001 0.0
O 4.17 33.36000000000001 2.085
O 6.255 35.44500000000001 6.254999999999999
O 8.34 35.44500000000001 4.169999999999999
O 6.255 37.53000000000001 4.169999999999999
O 4.17 33.36000000000001 6.254999999999999
O 6.255 35.44500000000001 10.424999999999997
O 8.34 35.44500000000001 8.339999999999998
O 6.255 37.53000000000001 8.339999999999998
O 4.17 33.36000000000001 10.424999999999997
O 6.255 35.44500000000001 14.594999999999997
O 8.34 35.44500000000001 12.509999999999998
O 6.255 37.53000000000001 12.509999999999998
O 4.17 33.36000000000001 14.594999999999997
O 6.255 35.44500000000001 18.764999999999997
O 8.34 35.44500000000001 16.679999999999996
O 6.255 37.53000000000001 16.679999999999996
O 4.17 33.36000000000001 18.764999999999997
O 6.255 35.44500000000001 22.934999999999995
O 8.34 35.44500000000001 20.849999999999994
O 6.255 37.53000000000001 20.849999999999994
O 4.17 33.36000000000001 22.934999999999995
O 8.34 35.44500000000001 25.019999999999996
O 6.255 37.53000000000001 25.019999999999996
O 6.255 39.615 2.085
O 8.34 39.615 0.0
O 6.255 2.7318179660128058e-15 0.0
O 4.17 37.53 2.085
O 6.255 39.615 6.254999999999999
O 8.34 39.615 4.169999999999999
O 6.255 2.7318179660128058e-15 4.169999999999999
O 4.17 37.53 6.254999999999999
O 6.255 39.615 10.424999999999997
O 8.34 39.615 8.339999999999998
O 6.255 2.7318179660128058e-15 8.339999999999998
O 4.17 37.53 10.424999999999997
O 6.255 39.615 14.594999999999997
O 8.34 39.615 12.509999999999998
O 6.255 2.7318179660128058e-15 12.509999999999998
O 4.17 37.53 14.594999999999997
O 6.255 39.615 18.764999999999997
O 8.34 39.615 16.679999999999996
O 6.255 2.7318179660128058e-15 16.679999999999996
O 4.17 37.53 18.764999999999997
O 6.255 39.615 22.934999999999995
O 8.34 39.615 20.849999999999994
O 6.255 2.7318179660128058e-15 20.849999999999994
O 4.17 37.53 22.934999999999995
O 6.255 39.615 27.104999999999997
O 8.34 39.615 25.019999999999996
O 6.255 2.7318179660128058e-15 25.019999999999996
O 4.17 37.53 27.104999999999997
O 10.425 2.085 2.085
O 12.51 2.085 0.0
O 10.425 4.17 0.0
O 8.34 0.0 2.085
O 10.425 2.085 6.254999999999999
O 12.51 2.085 4.169999999999999
O 10.425 4.17 4.169999999999999
O 8.34 0.0 6.254999999999999
O 10.425 2.085 10.424999999999997
O 12.51 2.085 8.339999999999998
O 10.425 4.17 8.339999999999998
O 8.34 0.0 10.424999999999997
O 10.425 2.085 14.594999999999997
O 12.51 2.085 12.509999999999998
O 10.425 4.17 12.509999999999998
O 8.34 0.0 14.594999999999997
O 10.425 2.085 18.764999999999997
O 12.51 2.085 16.679999999999996
O 10.425 4.17 16.679999999999996
O 8.34 0.0 18.764999999999997
O 10.425 2.085 22.934999999999995
O 12.51 2.085 20.849999999999994
O 10.425 4.17 20.849999999999994
O 8.34 0.0 22.934999999999995
O 10.425 2.085 27.104999999999997
O 12.51 2.085 25.019999999999996
O 10.425 4.17 25.019999999999996
O 8.34 0.0 27.104999999999997
O 10.425 6.255000000000002 2.085
O 12.51 6.255000000000002 0.0
O 10.425 8.34 0.0
O 8.34 4.170000000000001 2.085
O 10.425 6.255000000000002 6.254999999999999
O 12.51 6.255000000000002 4.169999999999999
O 10.425 8.34 4.169999999999999
O 8.34 4.170000000000001 6.254999999999999
O 10.425 6.255000000000002 10.424999999999997
O 12.51 6.255000000000002 8.339999999999998
O 10.425 8.34 8.339999999999998
O 8.34 4.170000000000001 10.424999999999997
O 10.425 6.255000000000002 14.594999999999997
O 12.51 6.255000000000002 12.509999999999998
O 10.425 8.34 12.509999999999998
O 8.34 4.170000000000001 14.594999999999997
O 10.425 6.255000000000002 18.764999999999997
O 12.51 6.255000000000002 16.679999999999996
O 10.425 8.34 16.679999999999996
O 8.34 4.170000000000001 18.764999999999997
O 10.425 6.255000000000002 22.934999999999995
O 12.51 6.255000000000002 20.849999999999994
O 10.425 8.34 20.849999999999994
O 8.34 4.170000000000001 22.934999999999995
O 12.51 6.255000000000002 25.019999999999996
O 8.34 4.170000000000001 27.104999999999997
O 10.425 10.425 2.085
O 12.51 10.425 0.0
O 10.425 12.510000000000003 0.0
O 8.34 8.340000000000002 2.085
O 10.425 10.425 6.254999999999999
O 12.51 10.425 4.169999999999999
O 10.425 12.510000000000003 4.169999999999999
O 8.34 8.340000000000002 6.254999999999999
O 10.425 10.425 10.424999999999997
O 12.51 10.425 8.339999999999998
O 10.425 12.510000000000003 8.339999999999998
O 8.34 8.340000000000002 10.424999999999997
O 10.425 10.425 14.594999999999997
O 12.51 10.425 12.509999999999998
O 10.425 12.510000000000003 12.509999999999998
O 8.34 8.340000000000002 14.594999999999997
O 10.425 10.425 18.764999999999997
O 12.51 10.425 16.679999999999996
O 10.425 12.510000000000003 16.679999999999996
O 8.34 8.340000000000002 18.764999999999997
O 12.51 10.425 20.849999999999994
O 8.34 8.340000000000002 22.934999999999995
O 10.425 14.595000000000002 2.085
O 12.51 14.595000000000002 0.0
O 10.425 16.680000000000003 0.0
O 8.34 12.510000000000003 2.085
O 10.425 14.595000000000002 6.254999999999999
O 12.51 14.595000000000002 4.169999999999999
O 10.425 16.680000000000003 4.169999999999999
O 8.34 12.510000000000003 6.254999999999999
O 10.425 14.595000000000002 10.424999999999997
O 12.51 14.595000000000002 8.339999999999998
O 10.425 16.680000000000003 8.339999999999998
O 8.34 12.510000000000003 10.424999999999997
O 10.425 14.595000000000002 14.594999999999997
O 12.51 14.595000000000002 12.509999999999998
O 10.425 16.680000000000003 12.509999999999998
O 8.34 12.510000000000003 14.594999999999997
O 12.51 14.595000000000002 16.679999999999996
O 8.34 12.510000000000003 18.764999999999997
O 10.425 18.765000000000004 2.085
O 12.51 18.765000000000004 0.0
O 10.425 20.849999999999998 0.0
O 8.34 16.680000000000003 2.085
O 10.425 18.765000000000004 6.254999999999999
O 12.51 18.765000000000004 4.169999999999999
O 10.425 20.849999999999998 4.169999999999999
O 8.34 16.680000000000003 6.254999999999999
O 10.425 18.765000000000004 10.424999999999997
O 12.51 18.765000000000004 8.339999999999998
O 10.425 20.849999999999998 8.339999999999998
O 8.34 16.680000000000003 10.424999999999997
O 12.51 18.765000000000004 12.509999999999998
O 8.34 16.680000000000003 14.594999999999997
O 10.425 22.935000000000002 2.085
O 12.51 22.935000000000002 0.0
O 10.425 25.020000000000007 0.0
O 8.34 20.849999999999998 2.085
O 10.425 22.935000000000002 6.254999999999999
O 12.51 22.935000000000002 4.169999999999999
O 10.425 25.020000000000007 4.169999999999999
O 8.34 20.849999999999998 6.254999999999999
O 10.425 22.935000000000002 10.424999999999997
O 12.51 22.935000000000002 8.339999999999998
O 10.425 25.020000000000007 8.339999999999998
O 8.34 20.849999999999998 10.424999999999997
O 12.51 22.935000000000002 12.509999999999998
O 10.425 25.020000000000007 12.509999999999998
O 10.425 27.105000000000008 2.085
O 12.51 27.105000000000008 0.0
O 10.425 29.190000000000005 0.0
O 8.34 25.020000000000007 2.085
O 10.425 27.105000000000008 6.254999999999999
O 12.51 27.105000000000008 4.169999999999999
O 10.425 29.190000000000005 4.169999999999999
O 8.34 25.020000000000007 6.254999999999999
O 10.425 27.105000000000008 10.424999999999997
O 12.51 27.105000000000008 8.339999999999998
O 10.425 29.190000000000005 8.339999999999998
O 8.34 25.020000000000007 10.424999999999997
O 10.425 27.105000000000008 14.594999999999997
O 12.51 27.105000000000008 12.509999999999998
O 10.425 29.190000000000005 12.509999999999998
O 8.34 25.020000000000007 14.594999999999997
O 12.51 27.105000000000008 16.679999999999996
O 10.425 29.190000000000005 16.679999999999996
O 10.425 31.275000000000006 2.085
O 12.51 31.275000000000006 0.0
O 10.425 33.36000000000001 0.0
O 8.34 29.190000000000005 2.085
O 10.425 31.275000000000006 6.254999999999999
O 12.51 31.275000000000006 4.169999999999999
O 10.425 33.36000000000001 4.169999999999999
O 8.34 29.190000000000005 6.254999999999999
O 10.425 31.275000000000006 10.424999999999997
O 12.51 31.275000000000006 8.339999999999998
O 10.425 33.36000000000001 8.339999999999998
O 8.34 29.190000000000005 10.424999999999997
O 10.425 31.275000000000006 14.594999999999997
O 12.51 31.275000000000006 12.509999999999998
O 10.425 33.36000000000001 12.509999999999998
O 8.34 29.190000000000005 14.594999999999997
O 10.425 31.275000000000006 18.764999999999997
O 12.51 31.275000000000006 16.679999999999996
O 10.425 33.36000000000001 16.679999999999996
O 8.34 29.190000000000005 18.764999999999997
O 12.51 31.275000000000006 20.849999999999994
O 10.425 33.36000000000001 20.849999999999994
O 10.425 35.44500000000001 2.085
O 12.51 35.44500000000001 0.0
O 10.425 37.53000000000001 0.0
O 8.34 33.36000000000001 2.085
O 10.425 35.44500000000001 6.254999999999999
O 12.51 35.44500000000001 4.169999999999999
O 10.425 37.53000000000001 4.169999999999999
O 8.34 33.36000000000001 6.254999999999999
O 10.425 35.44500000000001 10.424999999999997
O 12.51 35.44500000000001 8.339999999999998
O 10.425 37.53000000000001 8.339999999999998
O 8.34 33.36000000000001 10.424999999999997
O 10.425 35.44500000000001 14.594999999999997
O 12.51 35.44500000000001 12.509999999999998
O 10.425 37.53000000000001 12.509999999999998
O 8.34 33.36000000000001 14.594999999999997
O 10.425 35.44500000000001 18.764999999999997
O 12.51 35.44500000000001 16.679999999999996
O 10.425 37.53000000000001 16.679999999999996
O 8.34 33.36000000000001 18.764999999999997
O 10.425 35.44500000000001 22.934999999999995
O 12.51 35.44500000000001 20.849999999999994
O 10.425 37.53000000000001 20.849999999999994
O 8.34 33.36000000000001 22.934999999999995
O 12.51 35.44500000000001 25.019999999999996
O 10.425 37.53000000000001 25.019999999999996
O 10.425 39.615 2.085
O 12.51 39.615 0.0
O 10.425 2.7318179660128058e-15 0.0
O 8.34 37.53 2.085
O 10.425 39.615 6.254999999999999
O 12.51 39.615 4.169999999999999
O 10.425 2.7318179660128058e-15 4.169999999999999
O 8.34 37.53 6.254999999999999
O 10.425 39.615 10.424999999999997
O 12.51 39.615 8.339999999999998
O 10.425 2.7318179660128058e-15 8.339999999999998
O 8.34 37.53 10.424999999999997
O 10.425 39.615 14.594999999999997
O 12.51 39.615 12.509999999999998
O 10.425 2.7318179660128058e-15 12.509999999999998
O 8.34 37.53 14.594999999999997
O 10.425 39.615 18.764999999999997
O 12.51 39.615 16.679999999999996
O 10.425 2.7318179660128058e-15 16.679999999999996
O 8.34 37.53 18.764999999999997
O 10.425 39.615 22.934999999999995
O 12.51 39.615 20.849999999999994
O 10.425 2.7318179660128058e-15 20.849999999999994
O 8.34 37.53 22.934999999999995
O 10.425 39.615 27.104999999999997
O 12.51 39.615 25.019999999999996
O 10.425 2.7318179660128058e-15 25.019999999999996
O 8.34 37.53 27.104999999999997
O 14.594999999999999 2.085 2.085
O 16.68 2.085 0.0
O 14.594999999999999 4.17 0.0
O 12.51 0.0 2.085
O 14.594999999999999 2.085 6.254999999999999
O 16.68 2.085 4.169999999999999
O 14.594999999999999 4.17 4.169999999999999
O 12.51 0.0 6.254999999999999
O 14.594999999999999 2.085 10.424999999999997
O 16.68 2.085 8.339999999999998
O 14.594999999999999 4.17 8.339999999999998
O 12.51 0.0 10.424999999999997
O 14.594999999999999 2.085 14.594999999999997
O 16.68 2.085 12.509999999999998
O 14.594999999999999 4.17 12.509999999999998
O 12.51 0.0 14.594999999999997
O 14.594999999999999 2.085 18.764999999999997
O 16.68 2.085 16.679999999999996
O 14.594999999999999 4.17 16.679999999999996
O 12.51 0.0 18.764999999999997
O 14.594999999999999 2.085 22.934999999999995
O 16.68 2.085 20.849999999999994
O 14.594999999999999 4.17 20.849999999999994
O 12.51 0.0 22.934999999999995
O 14.594999999999999 2.085 27.104999999999997
O 16.68 2.085 25.019999999999996
O 14.594999999999999 4.17 25.019999999999996
O 12.51 0.0 27.104999999999997
O 14.594999999999999 6.255000000000002 2.085
O 16.68 6.255000000000002 0.0
O 14.594999999999999 8.34 0.0
O 12.51 4.170000000000001 2.085
O 14.594999999999999 6.255000000000002 6.254999999999999
O 16.68 6.255000000000002 4.169999999999999
O 14.594999999999999 8.34 4.169999999999999
O 12.51 4.170000000000001 6.254999999999999
O 14.594999999999999 6.255000000000002 10.424999999999997
O 16.68 6.255000000000002 8.339999999999998
O 14.594999999999999 8.34 8.339999999999998
O 12.51 4.170000000000001 10.424999999999997
O 14.594999999999999 6.255000000000002 14.594999999999997
O 16.68 6.255000000000002 12.509999999999998
O 14.594999999999999 8.34 12.509999999999998
O 12.51 4.170000000000001 14.594999999999997
O 14.594999999999999 6.255000000000002 18.764999999999997
O 16.68 6.255000000000002 16.679999999999996
O 14.594999999999999 8.34 16.679999999999996
O 12.51 4.170000000000001 18.764999999999997
O 14.594999999999999 6.255000000000002 22.934999999999995
O 16.68 6.255000000000002 20.849999999999994
O 14.594999999999999 8.34 20.849999999999994
O 12.51 4.170000000000001 22.934999999999995
O 16.68 6.255000000000002 25.019999999999996
O 12.51 4.170000000000001 27.104999999999997
O 14.594999999999999 10.425 2.085
O 16.68 10.425 0.0
O 14.594999999999999 12.510000000000003 0.0
O 12.51 8.340000000000002 2.085
O 14.594999999999999 10.425 6.254999999999999
O 16.68 10.425 4.169999999999999
O 14.594999999999999 12.510000000000003 4.169999999999999
O 12.51 8.340000000000002 6.254999999999999
O 14.594999999999999 10.425 10.424999999999997
O 16.68 10.425 8.339999999999998
O 14.594999999999999 12.510000000000003 8.339999999999998
O 12.51 8.340000000000002 10.424999999999997
O 14.594999999999999 10.425 14.594999999999997
O 16.68 10.425 12.509999999999998
O 14.594999999999999 12.510000000000003 12.509999999999998
O 12.51 8.340000000000002 14.594999999999997
O 14.594999999999999 10.425 18.764999999999997
O 16.68 10.425 16.679999999999996
O 14.594999999999999 12.510000000000003 16.679999999999996
O 12.51 8.340000000000002 18.764999999999997
O 16.68 10.425 20.849999999999994
O 12.51 8.340000000000002 22.934999999999995
O 14.594999999999999 14.595000000000002 2.085
O 16.68 14.595000000000002 0.0
O 14.594999999999999 16.680000000000003 0.0
O 12.51 12.510000000000003 2.085
O 14.594999999999999 14.595000000000002 6.254999999999999
O 16.68 14.595000000000002 4.169999999999999
O 14.594999999999999 16.680000000000003 4.169999999999999
O 12.51 12.510000000000003 6.254999999999999
O 14.594999999999999 14.595000000000002 10.424999999999997
O 16.68 14.595000000000002 8.339999999999998
O 14.594999999999999 16.680000000000003 8.339999999999998
O 12.51 12.510000000000003 10.424999999999997
O 14.594999999999999 14.595000000000002 14.594999999999997
O 16.68 14.595000000000002 12.509999999999998
O 14.594999999999999 16.680000000000003 12.509999999999998
O 12.51 12.510000000000003 14.594999999999997
O 16.68 14.595000000000002 16.679999999999996
O 12.51 12.510000000000003 18.764999999999997
O 14.594999999999999 18.765000000000004 2.085
O 16.68 18.765000000000004 0.0
O 14.594999999999999 20.849999999999998 0.0
O 12.51 16.680000000000003 2.085
O 14.594999999999999 18.765000000000004 6.254999999999999
O 16.68 18.765000000000004 4.169999999999999
O 14.594999999999999 20.849999999999998 4.169999999999999
O 12.51 16.680000000000003 6.254999999999999
O 14.594999999999999 18.765000000000004 10.424999999999997
O 16.68 18.765000000000004 8.339999999999998
O 14.594999999999999 20.849999999999998 8.339999999999998
O 12.51 16.680000000000003 10.424999999999997
O 16.68 18.765000000000004 12.509999999999998
O 12.51 16.680000000000003 14.594999999999997
O 14.594999999999999 22.935000000000002 2.085
O 16.68 22.935000000000002 0.0
O 14.594999999999999 25.020000000000007 0.0
O 12.51 20.849999999999998 2.085
O 14.594999999999999 22.935000000000002 6.254999999999999
O 16.68 22.935000000000002 4.169999999999999
O 14.594999999999999 25.020000000000007 4.169999999999999
O 12.51 20.849999999999998 6.254999999999999
O 14.594999999999999 22.935000000000002 10.424999999999997
O 16.68 22.935000000000002 8.339999999999998
O 14.594999999999999 25.020000000000007 8.339999999999998
O 12.51 20.849999999999998 10.424999999999997
O 16.68 22.935000000000002 12.509999999999998
O 14.594999999999999 25.020000000000007 12.509999999999998
O 14.594999999999999 27.105000000000008 2.085
O 16.68 27.105000000000008 0.0
O 14.594999999999999 29.190000000000005 0.0
O 12.51 25.020000000000007 2.085
O 14.594999999999999 27.105000000000008 6.254999999999999
O 16.68 27.105000000000008 4.169999999999999
O 14.594999999999999 29.190000000000005 4.169999999999999
O 12.51 25.020000000000007 6.254999999999999
O 14.594999999999999 27.105000000000008 10.424999999999997
O 16.68 27.105000000000008 8.339999999999998
O 14.594999999999999 29.190000000000005 8.339999999999998
O 12.51 25.020000000000007 10.424999999999997
O 14.594999999999999 27.105000000000008 14.594999999999997
O 16.68 27.105000000000008 12.509999999999998
O 14.594999999999999 29.190000000000005 12.509999999999998
O 12.51 25.020000000000007 14.594999999999997
O 16.68 27.105000000000008 16.679999999999996
O 14.594999999999999 29.190000000000005 16.679999999999996
O 14.594999999999999 31.275000000000006 2.085
O 16.68 31.275000000000006 0.0
O 14.594999999999999 33.36000000000001 0.0
O 12.51 29.190000000000005 2.085
O 14.594999999999999 31.275000000000006 6.254999999999999
O 16.68 31.275000000000006 4.169999999999999
O 14.594999999999999 33.36000000000001 4.169999999999999
O 12.51 29.190000000000005 6.254999999999999
O 14.594999999999999 31.275000000000006 10.424999999999997
O 16.68 31.275000000000006 8.339999999999998
O 14.594999999999999 33.36000000000001 8.339999999999998
O 12.51 29.190000000000005 10.424999999999997
O 14.594999999999999 31.275000000000006 14.594999999999997
O 16.68 31.275000000000006 12.509999999999998
O 14.594999999999999 33.36000000000001 12.509999999999998
O 12.51 29.190000000000005 14.594999999999997
O 14.594999999999999 31.275000000000006 18.764999999999997
O 16.68 31.275000000000006 16.679999999999996
O 14.594999999999999 33.36000000000001 16.679999999999996
O 12.51 29.190000000000005 18.764999999999997
O 16.68 31.275000000000006 20.849999999999994
O 14.594999999999999 33.36000000000001 20.849999999999994
O 14.594999999999999 35.44500000000001 2.085
O 16.68 35.44500000000001 0.0
O 14.594999999999999 37.53000000000001 0.0
O 12.51 33.36000000000001 2.085
O 14.594999999999999 35.44500000000001 6.254999999999999
O 16.68 35.44500000000001 4.169999999999999
O 14.594999999999999 37.53000000000001 4.169999999999999
O 12.51 33.36000000000001 6.254999999999999
O 14.594999999999999 35.44500000000001 10.424999999999997
O 16.68 35.44500000000001 8.339999999999998
O 14.594999999999999 37.53000000000001 8.339999999999998
O 12.51 33.36000000000001 10.424999999999997
O 14.594999999999999 35.44500000000001 14.594999999999997
O 16.68 35.44500000000001 12.509999999999998
O 14.594999999999999 37.53000000000001 12.509999999999998
O 12.51 33.36000000000001 14.594999999999997
O 14.594999999999999 35.44500000000001 18.764999999999997
O 16.68 35.44500000000001 16.679999999999996
O 14.594999999999999 37.53000000000001 16.679999999999996
O 12.51 33.36000000000001 18.764999999999997
O 14.594999999999999 35.44500000000001 22.934999999999995
O 16.68 35.44500000000001 20.849999999999994
O 14.594999999999999 37.53000000000001 20.849999999999994
O 12.51 33.36000000000001 22.934999999999995
O 16.68 35.44500000000001 25.019999999999996
O 14.594999999999999 37.53000000000001 25.019999999999996
O 14.594999999999999 39.615 2.085
O 16.68 39.615 0.0
O 14.594999999999999 2.7318179660128058e-15 0.0
O 12.51 37.53 2.085
O 14.594999999999999 39.615 6.254999999999999
O 16.68 39.615 4.169999999999999
O 14.594999999999999 2.7318179660128058e-15 4.169999999999999
O 12.51 37.53 6.254999999999999
O 14.594999999999999 39.615 10.424999999999997
O 16.68 39.615 8.339999999999998
O 14.594999999999999 2.7318179660128058e-15 8.339999999999998
O 12.51 37.53 10.424999999999997
O 14.594999999999999 39.615 14.594999999999997
O 16.68 39.615 12.509999999999998
O 14.594999999999999 2.7318179660128058e-15 12.509999999999998
O 12.51 37.53 14.594999999999997
O 14.594999999999999 39.615 18.764999999999997
O 16.68 39.615 16.679999999999996
O 14.594999999999999 2.7318179660128058e-15 16.679999999999996
O 12.51 37.53 18.764999999999997
O 14.594999999999999 39.615 22.934999999999995
O 16.68 39.615 20.849999999999994
O 14.594999999999999 2.7318179660128058e-15 20.849999999999994
O 12.51 37.53 22.934999999999995
O 14.594999999999999 39.615 27.104999999999997
O 16.68 39.615 25.019999999999996
O 14.594999999999999 2.7318179660128058e-15 25.019999999999996
O 12.51 37.53 27.104999999999997
O 18.765 2.085 2.085
O 20.85 2.085 0.0
O 18.765 4.17 0.0
O 16.68 0.0 2.085
O 18.765 2.085 6.254999999999999
O 20.85 2.085 4.169999999999999
O 18.765 4.17 4.169999999999999
O 16.68 0.0 6.254999999999999
O 18.765 2.085 10.424999999999997
O 20.85 2.085 8.339999999999998
O 18.765 4.17 8.339999999999998
O 16.68 0.0 10.424999999999997
O 18.765 2.085 14.594999999999997
O 20.85 2.085 12.509999999999998
O 18.765 4.17 12.509999999999998
O 16.68 0.0 14.594999999999997
O 18.765 2.085 18.764999999999997
O 20.85 2.085 16.679999999999996
O 18.765 4.17 16.679999999999996
O 16.68 0.0 18.764999999999997
O 18.765 2.085 22.934999999999995
O 20.85 2.085 20.849999999999994
O 18.765 4.17 20.849999999999994
O 16.68 0.0 22.934999999999995
O 18.765 2.085 27.104999999999997
O 20.85 2.085 25.019999999999996
O 18.765 4.17 25.019999999999996
O 16.68 0.0 27.104999999999997
O 18.765 6.255000000000002 2.085
O 20.85 6.255000000000002 0.0
O 18.765 8.34 0.0
O 16.68 4.170000000000001 2.085
O 18.765 6.255000000000002 6.254999999999999
O 20.85 6.255000000000002 4.169999999999999
O 18.765 8.34 4.169999999999999
O 16.68 4.170000000000001 6.254999999999999
O 18.765 6.255000000000002 10.424999999999997
O 20.85 6.255000000000002 8.339999999999998
O 18.765 8.34 8.339999999999998
O 16.68 4.170000000000001 10.424999999999997
O 18.765 6.255000000000002 14.594999999999997
O 20.85 6.255000000000002 12.509999999999998
O 18.765 8.34 12.509999999999998
O 16.68 4.170000000000001 14.594999999999997
O 18.765 6.255000000000002 18.764999999999997
O 20.85 6.255000000000002 16.679999999999996
O 18.765 8.34 16.679999999999996
O 16.68 4.170000000000001 18.764999999999997
O 18.765 6.255000000000002 22.934999999999995
O 20.85 6.255000000000002 20.849999999999994
O 18.765 8.34 20.849999999999994
O 16.68 4.170000000000001 22.934999999999995
O 20.85 6.255000000000002 25.019999999999996
O 16.68 4.170000000000001 27.104999999999997
O 18.765 10.425 2.085
O 20.85 10.425 0.0
O 18.765 12.510000000000003 0.0
O 16.68 8.340000000000002 2.085
O 18.765 10.425 6.254999999999999
O 20.85 10.425 4.169999999999999
O 18.765 12.510000000000003 4.169999999999999
O 16.68 8.340000000000002 6.254999999999999
O 18.765 10.425 10.424999999999997
O 20.85 10.425 8.339999999999998
O 18.765 12.510000000000003 8.339999999999998
O 16.68 8.340000000000002 10.424999999999997
O 18.765 10.425 14.594999999999997
O 20.85 10.425 12.509999999999998
O 18.765 12.510000000000003 12.509999999999998
O 16.68 8.340000000000002 14.594999999999997
O 18.765 10.425 18.764999999999997
O 20.85 10.425 16.679999999999996
O 18.765 12.510000000000003 16.679999999999996
O 16.68 8.340000000000002 18.764999999999997
O 20.85 10.425 20.849999999999994
O 16.68 8.340000000000002 22.934999999999995
O 18.765 14.595000000000002 2.085
O 20.85 14.595000000000002 0.0
O 18.765 16.680000000000003 0.0
O 16.68 12.510000000000003 2.085
O 18.765 14.595000000000002 6.254999999999999
O 20.85 14.595000000000002 4.169999999999999
O 18.765 16.680000000000003 4.169999999999999
O 16.68 12.510000000000003 6.254999999999999
O 18.765 14.595000000000002 10.424999999999997
O 20.85 14.595000000000002 8.339999999999998
O 18.765 16.680000000000003 8.339999999999998
O 16.68 12.510000000000003 10.424999999999997
O 18.765 14.595000000000002 14.594999999999997
O 20.85 14.595000000000002 12.509999999999998
O 18.765 16.680000000000003 12.509999999999998
O 16.68 12.510000000000003 14.594999999999997
O 20.85 14.595000000000002 16.679999999999996
O 16.68 12.510000000000003 18.764999999999997
O 18.765 18.765000000000004 2.085
O 20.85 18.765000000000004 0.0
O 18.765 20.849999999999998 0.0
O 16.68 16.680000000000003 2.085
O 18.765 18.765000000000004 6.254999999999999
O 20.85 18.765000000000004 4.169999999999999
O 18.765 20.849999999999998 4.169999999999999
O 16.68 16.680000000000003 6.254999999999999
O 18.765 18.765000000000004 10.424999999999997
O 20.85 18.765000000000004 8.339999999999998
O 18.765 20.849999999999998 8.339999999999998
O 16.68 16.680000000000003 10.424999999999997
O 20.85 18.765000000000004 12.509999999999998
O 16.68 16.680000000000003 14.594999999999997
O 18.765 22.935000000000002 2.085
O 20.85 22.935000000000002 0.0
O 18.765 25.020000000000007 0.0
O 16.68 20.849999999999998 2.085
O 18.765 22.935000000000002 6.254999999999999
O 20.85 22.935000000000002 4.169999999999999
O 18.765 25.020000000000007 4.169999999999999
O 16.68 20.849999999999998 6.254999999999999
O 18.765 22.935000000000002 10.424999999999997
O 20.85 22.935000000000002 8.339999999999998
O 18.765 25.020000000000007 8.339999999999998
O 16.68 20.849999999999998 10.424999999999997
O 20.85 22.935000000000002 12.509999999999998
O 18.765 25.020000000000007 12.509999999999998
O 18.765 27.105000000000008 2.085
O 20.85 27.105000000000008 0.0
O 18.765 29.190000000000005 0.0
O 16.68 25.020000000000007 2.085
O 18.765 27.105000000000008 6.254999999999999
O 20.85 27.105000000000008 4.169999999999999
O 18.765 29.190000000000005 4.169999999999999
O 16.68 25.020000000000007 6.254999999999999
O 18.765 27.105000000000008 10.424999999999997
O 20.85 27.105000000000008 8.339999999999998
O 18.765 29.190000000000005 8.339999999999998
O 16.68 25.020000000000007 10.424999999999997
O 18.765 27.105000000000008 14.594999999999997
O 20.85 27.105000000000008 12.509999999999998
O 18.765 29.190000000000005 12.509999999999998
O 16.68 25.020000000000007 14.594999999999997
O 20.85 27.105000000000008 16.679999999999996
O 18.765 29.190000000000005 16.679999999999996
O 18.765 31.275000000000006 2.085
O 20.85 31.275000000000006 0.0
O 18.765 33.36000000000001 0.0
O 16.68 29.190000000000005 2.085
O 18.765 31.275000000000006 6.254999999999999
O 20.85 31.275000000000006 4.169999999999999
O 18.765 33.36000000000001 4.169999999999999
O 16.68 29.190000000000005 6.254999999999999
O 18.765 31.275000000000006 10.424999999999997
O 20.85 31.275000000000006 8.339999999999998
O 18.765 33.36000000000001 8.339999999999998
O 16.68 29.190000000000005 10.424999999999997
O 18.765 31.275000000000006 14.594999999999997
O 20.85 31.275000000000006 12.509999999999998
O 18.765 33.36000000000001 12.509999999999998
O 16.68 29.190000000000005 14.594999999999997
O 18.765 31.275000000000006 18.764999999999997
O 20.85 31.275000000000006 16.679999999999996
O 18.765 33.36000000000001 16.679999999999996
O 16.68 29.190000000000005 18.764999999999997
O 20.85 31.275000000000006 20.849999999999994
O 18.765 33.36000000000001 20.849999999999994
O 18.765 35.44500000000001 2.085
O 20.85 35.44500000000001 0.0
O 18.765 37.53000000000001 0.0
O 16.68 33.36000000000001 2.085
O 18.765 35.44500000000001 6.254999999999999
O 20.85 35.44500000000001 4.169999999999999
O 18.765 37.53000000000001 4.169999999999999
O 16.68 33.36000000000001 6.254999999999999
O 18.765 35.44500000000001 10.424999999999997
O 20.85 35.44500000000001 8.339999999999998
O 18.765 37.53000000000001 8.339999999999998
O 16.68 33.36000000000001 10.424999999999997
O 18.765 35.44500000000001 14.594999999999997
O 20.85 35.44500000000001 12.509999999999998
O 18.765 37.53000000000001 12.509999999999998
O 16.68 33.36000000000001 14.594999999999997
O 18.765 35.44500000000001 18.764999999999997
O 20.85 35.44500000000001 16.679999999999996
O 18.765 37.53000000000001 16.679999999999996
O 16.68 33.36000000000001 18.764999999999997
O 18.765 35.44500000000001 22.934999999999995
O 20.85 35.44500000000001 20.849999999999994
O 18.765 37.53000000000001 20.849999999999994
O 16.68 33.36000000000001 22.934999999999995
O 20.85 35.44500000000001 25.019999999999996
O 18.765 37.53000000000001 25.019999999999996
O 18.765 39.615 2.085
O 20.85 39.615 0.0
O 18.765 2.7318179660128058e-15 0.0
O 16.68 37.53 2.085
O 18.765 39.615 6.254999999999999
O 20.85 39.615 4.169999999999999
O 18.765 2.7318179660128058e-15 4.169999999999999
O 16.68 37.53 6.254999999999999
O 18.765 39.615 10.424999999999997
O 20.85 39.615 8.339999999999998
O 18.765 2.7318179660128058e-15 8.339999999999998
O 16.68 37.53 10.424999999999997
O 18.765 39.615 14.594999999999997
O 20.85 39.615 12.509999999999998
O 18.765 2.7318179660128058e-15 12.509999999999998
O 16.68 37.53 14.594999999999997
O 18.765 39.615 18.764999999999997
O 20.85 39.615 16.679999999999996
O 18.765 2.7318179660128058e-15 16.679999999999996
O 16.68 37.53 18.764999999999997
O 18.765 39.615 22.934999999999995
O 20.85 39.615 20.849999999999994
O 18.765 2.7318179660128058e-15 20.849999999999994
O 16.68 37.53 22.934999999999995
O 18.765 39.615 27.104999999999997
O 20.85 39.615 25.019999999999996
O 18.765 2.7318179660128058e-15 25.019999999999996
O 16.68 37.53 27.104999999999997
O 22.935 2.085 2.085
O 25.019999999999996 2.085 0.0
O 22.935 4.17 0.0
O 20.849999999999998 0.0 2.085
O 22.935 2.085 6.254999999999999
O 25.019999999999996 2.085 4.169999999999999
O 22.935 4.17 4.169999999999999
O 20.849999999999998 0.0 6.254999999999999
O 22.935 2.085 10.424999999999997
O 25.019999999999996 2.085 8.339999999999998
O 22.935 4.17 8.339999999999998
O 20.849999999999998 0.0 10.424999999999997
O 22.935 2.085 14.594999999999997
O 25.019999999999996 2.085 12.509999999999998
O 22.935 4.17 12.509999999999998
O 20.849999999999998 0.0 14.594999999999997
O 22.935 2.085 18.764999999999997
O 25.019999999999996 2.085 16.679999999999996
O 22.935 4.17 16.679999999999996
O 20.849999999999998 0.0 18.764999999999997
O 22.935 2.085 22.934999999999995
O 25.019999999999996 2.085 20.849999999999994
O 22.935 4.17 20.849999999999994
O 20.849999999999998 0.0 22.934999999999995
O 22.935 2.085 27.104999999999997
O 25.019999999999996 2.085 25.019999999999996
O 22.935 4.17 25.019999999999996
O 20.849999999999998 0.0 27.104999999999997
O 22.935 6.255000000000002 2.085
O 25.019999999999996 6.255000000000002 0.0
O 22.935 8.34 0.0
O 20.849999999999998 4.170000000000001 2.085
O 22.935 6.255000000000002 6.254999999999999
O 25.019999999999996 6.255000000000002 4.169999999999999
O 22.935 8.34 4.169999999999999
O 20.849999999999998 4.170000000000001 6.254999999999999
O 22.935 6.255000000000002 10.424999999999997
O 25.019999999999996 6.255000000000002 8.339999999999998
O 22.935 8.34 8.339999999999998
O 20.849999999999998 4.170000000000001 10.424999999999997
O 22.935 6.255000000000002 14.594999999999997
O 25.019999999999996 6.255000000000002 12.509999999999998
O 22.935 8.34 12.509999999999998
O 20.849999999999998 4.170000000000001 14.594999999999997
O 22.935 6.255000000000002 18.764999999999997
O 25.019999999999996 6.255000000000002 16.679999999999996
O 22.935 8.34 16.679999999999996
O 20.849999999999998 4.170000000000001 18.764999999999997
O 22.935 6.255000000000002 22.934999999999995
O 25.019999999999996 6.255000000000002 20.849999999999994
O 22.935 8.34 20.849999999999994
O 20.849999999999998 4.170000000000001 22.934999999999995
O 25.019999999999996 6.255000000000002 25.019999999999996
O 20.849999999999998 4.170000000000001 27.104999999999997
O 22.935 10.425 2.085
O 25.019999999999996 10.425 0.0
O 22.935 12.510000000000003 0.0
O 20.849999999999998 8.340000000000002 2.085
O 22.935 10.425 6.254999999999999
O 25.019999999999996 10.425 4.169999999999999
O 22.935 12.510000000000003 4.169999999999999
O 20.849999999999998 8.340000000000002 6.254999999999999
O 22.935 10.425 10.424999999999997
O 25.019999999999996 10.425 8.339999999999998
O 22.935 12.510000000000003 8.339999999999998
O 20.849999999999998 8.340000000000002 10.424999999999997
O 22.935 10.425 14.594999999999997
O 25.019999999999996 10.425 12.509999999999998
O 22.935 12.510000000000003 12.509999999999998
O 20.849999999999998 8.340000000000002 14.594999999999997
O 22.935 10.425 18.764999999999997
O 25.019999999999996 10.425 16.679999999999996
O 22.935 12.510000000000003 16.679999999999996
O 20.849999999999998 8.340000000000002 18.764999999999997
O 25.019999999999996 10.425 20.849999999999994
O 20.849999999999998 8.340000000000002 22.934999999999995
O 22.935 14.595000000000002 2.085
O 25.019999999999996 14.595000000000002 0.0
O 22.935 16.680000000000003 0.0
O 20.849999999999998 12.510000000000003 2.085
O 22.935 14.595000000000002 6.254999999999999
O 25.019999999999996 14.595000000000002 4.169999999999999
O 22.935 16.680000000000003 4.169999999999999
O 20.849999999999998 12.510000000000003 6.254999999999999
O 22.935 14.595000000000002 10.424999999999997
O 25.019999999999996 14.595000000000002 8.339999999999998
O 22.935 16.680000000000003 8.339999999999998
O 20.849999999999998 12.510000000000003 10.424999999999997
O 22.935 14.595000000000002 14.594999999999997
O 25.019999999999996 14.595000000000002 12.509999999999998
O 22.935 16.680000000000003 12.509999999999998
O 20.849999999999998 12.510000000000003 14.594999999999997
O 25.019999999999996 14.595000000000002 16.679999999999996
O 20.849999999999998 12.510000000000003 18.764999999999997
O 22.935 18.765000000000004 2.085
O 25.019999999999996 18.765000000000004 0.0
O 22.935 20.849999999999998 0.0
O 20.849999999999998 16.680000000000003 2.085
O 22.935 18.765000000000004 6.254999999999999
O 25.019999999999996 18.765000000000004 4.169999999999999
O 22.935 20.849999999999998 4.169999999999999
O 20.849999999999998 16.680000000000003 6.254999999999999
O 22.935 18.765000000000004 10.424999999999997
O 25.019999999999996 18.765000000000004 8.339999999999998
O 22.935 20.849999999999998 8.339999999999998
O 20.849999999999998 16.680000000000003 10.424999999999997
O 25.019999999999996 18.765000000000004 12.509999999999998
O 20.849999999999998 16.680000000000003 14.594999999999997
O 22.935 22.935000000000002 2.085
O 25.019999999999996 22.935000000000002 0.0
O 22.935 25.020000000000007 0.0
O 20.849999999999998 20.849999999999998 2.085
O 22.935 22.935000000000002 6.254999999999999
O 25.019999999999996 22.935000000000002 4.169999999999999
O 22.935 25.020000000000007 4.169999999999999
O 20.849999999999998 20.849999999999998 6.254999999999999
O 22.935 22.935000000000002 10.424999999999997
O 25.019999999999996 22.935000000000002 8.339999999999998
O 22.935 25.020000000000007 8.339999999999998
O 20.849999999999998 20.849999999999998 10.424999999999997
O 25.019999999999996 22.935000000000002 12.509999999999998
O 22.935 25.020000000000007 12.509999999999998
O 22.935 27.105000000000008 2.085
O 25.019999999999996 27.105000000000008 0.0
O 22.935 29.190000000000005 0.0
O 20.849999999999998 25.020000000000007 2.085
O 22.935 27.105000000000008 6.254999999999999
O 25.019999999999996 27.105000000000008 4.169999999999999
O 22.935 29.190000000000005 4.169999999999999
O 20.849999999999998 25.020000000000007 6.254999999999999
O 22.935 27.105000000000008 10.424999999999997
O 25.019999999999996 27.105000000000008 8.339999999999998
O 22.935 29.190000000000005 8.339999999999998
O 20.849999999999998 25.020000000000007 10.424999999999997
O 22.935 27.105000000000008 14.594999999999997
O 25.019999999999996 27.105000000000008 12.509999999999998
O 22.935 29.190000000000005 12.509999999999998
O 20.849999999999998 25.020000000000007 14.594999999999997
O 25.019999999999996 27.105000000000008 16.679999999999996
O 22.935 29.190000000000005 16.679999999999996
O 22.935 31.275000000000006 2.085
O 25.019999999999996 31.275000000000006 0.0
O 22.935 33.36000000000001 0.0
O 20.849999999999998 29.190000000000005 2.085
O 22.935 31.275000000000006 6.254999999999999
O 25.019999999999996 31.275000000000006 4.169999999999999
O 22.935 33.36000000000001 4.169999999999999
O 20.849999999999998 29.190000000000005 6.254999999999999
O 22.935 31.275000000000006 10.424999999999997
O 25.019999999999996 31.275000000000006 8.339999999999998
O 22.935 33.36000000000001 8.339999999999998
O 20.849999999999998 29.190000000000005 10.424999999999997
O 22.935 31.275000000000006 14.594999999999997
O 25.019999999999996 31.275000000000006 12.509999999999998
O 22.935 33.36000000000001 12.509999999999998
O 20.849999999999998 29.190000000000005 14.594999999999997
O 22.935 31.275000000000006 18.764999999999997
O 25.019999999999996 31.275000000000006 16.679999999999996
O 22.935 33.36000000000001 16.679999999999996
O 20.849999999999998 29.190000000000005 18.764999999999997
O 25.019999999999996 31.275000000000006 20.849999999999994
O 22.935 33.36000000000001 20.849999999999994
O 22.935 35.44500000000001 2.085
O 25.019999999999996 35.44500000000001 0.0
O 22.935 37.53000000000001 0.0
O 20.849999999999998 33.36000000000001 2.085
O 22.935 35.44500000000001 6.254999999999999
O 25.019999999999996 35.44500000000001 4.169999999999999
O 22.935 37.53000000000001 4.169999999999999
O 20.849999999999998 33.36000000000001 6.254999999999999
O 22.935 35.44500000000001 10.424999999999997
O 25.019999999999996 35.44500000000001 8.339999999999998
O 22.935 37.53000000000001 8.339999999999998
O 20.849999999999998 33.36000000000001 10.424999999999997
O 22.935 35.44500000000001 14.594999999999997
O 25.019999999999996 35.44500000000001 12.509999999999998
O 22.935 37.53000000000001 12.509999999999998
O 20.849999999999998 33.36000000000001 14.594999999999997
O 22.935 35.44500000000001 18.764999999999997
O 25.019999999999996 35.44500000000001 16.679999999999996
O 22.935 37.53000000000001 16.679999999999996
O 20.849999999999998 33.36000000000001 18.764999999999997
O 22.935 35.44500000000001 22.934999999999995
O 25.019999999999996 35.44500000000001 20.849999999999994
O 22.935 37.53000000000001 20.849999999999994
O 20.849999999999998 33.36000000000001 22.934999999999995
O 25.019999999999996 35.44500000000001 25.019999999999996
O 22.935 37.53000000000001 25.019999999999996
O 22.935 39.615 2.085
O 25.019999999999996 39.615 0.0
O 22.935 2.7318179660128058e-15 0.0
O 20.849999999999998 37.53 2.085
O 22.935 39.615 6.254999999999999
O 25.019999999999996 39.615 4.169999999999999
O 22.935 2.7318179660128058e-15 4.169999999999999
O 20.849999999999998 37.53 6.254999999999999
O 22.935 39.615 10.424999999999997
O 25.019999999999996 39.615 8.339999999999998
O 22.935 2.7318179660128058e-15 8.339999999999998
O 20.849999999999998 37.53 10.424999999999997
O 22.935 39.615 14.594999999999997
O 25.019999999999996 39.615 12.509999999999998
O 22.935 2.7318179660128058e-15 12.509999999999998
O 20.849999999999998 37.53 14.594999999999997
O 22.935 39.615 18.764999999999997
O 25.019999999999996 39.615 16.679999999999996
O 22.935 2.7318179660128058e-15 16.679999999999996
O 20.849999999999998 37.53 18.764999999999997
O 22.935 39.615 22.934999999999995
O 25.019999999999996 39.615 20.849999999999994
O 22.935 2.7318179660128058e-15 20.849999999999994
O 20.849999999999998 37.53 22.934999999999995
O 22.935 39.615 27.104999999999997
O 25.019999999999996 39.615 25.019999999999996
O 22.935 2.7318179660128058e-15 25.019999999999996
O 20.849999999999998 37.53 27.104999999999997
O 27.105 2.085 2.085
O 29.189999999999998 2.085 0.0
O 27.105 4.17 0.0
O 25.02 0.0 2.085
O 27.105 2.085 6.254999999999999
O 29.189999999999998 2.085 4.169999999999999
O 27.105 4.17 4.169999999999999
O 25.02 0.0 6.254999999999999
O 27.105 2.085 10.424999999999997
O 29.189999999999998 2.085 8.339999999999998
O 27.105 4.17 8.339999999999998
O 25.02 0.0 10.424999999999997
O 27.105 2.085 14.594999999999997
O 29.189999999999998 2.085 12.509999999999998
O 27.105 4.17 12.509999999999998
O 25.02 0.0 14.594999999999997
O 27.105 2.085 18.764999999999997
O 29.189999999999998 2.085 16.679999999999996
O 27.105 4.17 16.679999999999996
O 25.02 0.0 18.764999999999997
O 27.105 2.085 22.934999999999995
O 29.189999999999998 2.085 20.849999999999994
O 27.105 4.17 20.849999999999994
O 25.02 0.0 22.934999999999995
O 27.105 2.085 27.104999999999997
O 29.189999999999998 2.085 25.019999999999996
O 27.105 4.17 25.019999999999996
O 25.02 0.0 27.104999999999997
O 27.105 6.255000000000002 2.085
O 29.189999999999998 6.255000000000002 0.0
O 27.105 8.34 0.0
O 25.02 4.170000000000001 2.085
O 27.105 6.255000000000002 6.254999999999999
O 29.189999999999998 6.255000000000002 4.169999999999999
O 27.105 8.34 4.169999999999999
O 25.02 4.170000000000001 6.254999999999999
O 27.105 6.255000000000002 10.424999999999997
O 29.189999999999998 6.255000000000002 8.339999999999998
O 27.105 8.34 8.339999999999998
O 25.02 4.170000000000001 10.424999999999997
O 27.105 6.255000000000002 14.594999999999997
O 29.189999999999998 6.255000000000002 12.509999999999998
O 27.105 8.34 12.509999999999998
O 25.02 4.170000000000001 14.594999999999997
O 27.105 6.255000000000002 18.764999999999997
O 29.189999999999998 6.255000000000002 16.679999999999996
O 27.105 8.34 16.679999999999996
O 25.02 4.170000000000001 18.764999999999997
O 27.105 6.255000000000002 22.934999999999995
O 29.189999999999998 6.255000000000002 20.849999999999994
O 27.105 8.34 20.849999999999994
O 25.02 4.170000000000001 22.934999999999995
O 29.189999999999998 6.255000000000002 25.019999999999996
O 25.02 4.170000000000001 27.104999999999997
O 27.105 10.425 2.085
O 29.189999999999998 10.425 0.0
O 27.105 12.510000000000003 0.0
O 25.02 8.340000000000002 2.085
O 27.105 10.425 6.254999999999999
O 29.189999999999998 10.425 4.169999999999999
O 27.105 12.510000000000003 4.169999999999999
O 25.02 8.340000000000002 6.254999999999999
O 27.105 10.425 10.424999999999997
O 29.189999999999998 10.425 8.339999999999998
O 27.105 12.510000000000003 8.339999999999998
O 25.02 8.340000000000002 10.424999999999997
O 27.105 10.425 14.594999999999997
O 29.189999999999998 10.425 12.509999999999998
O 27.105 12.510000000000003 12.509999999999998
O 25.02 8.340000000000002 14.594999999999997
O 27.105 10.425 18.764999999999997
O 29.189999999999998 10.425 16.679999999999996
O 27.105 12.510000000000003 16.679999999999996
O 25.02 8.340000000000002 18.764999999999997
O 29.189999999999998 10.425 20.849999999999994
O 25.02 8.340000000000002 22.934999999999995
O 27.105 14.595000000000002 2.085
O 29.189999999999998 14.595000000000002 0.0
O 27.105 16.680000000000003 0.0
O 25.02 12.510000000000003 2.085
O 27.105 14.595000000000002 6.254999999999999
O 29.189999999999998 14.595000000000002 4.169999999999999
O 27.105 16.680000000000003 4.169999999999999
O 25.02 12.510000000000003 6.254999999999999
O 27.105 14.595000000000002 10.424999999999997
O 29.189999999999998 14.595000000000002 8.339999999999998
O 27.105 16.680000000000003 8.339999999999998
O 25.02 12.510000000000003 10.424999999999997
O 27.105 14.595000000000002 14.594999999999997
O 29.189999999999998 14.595000000000002 12.509999999999998
O 27.105 16.680000000000003 12.509999999999998
O 25.02 12.510000000000003 14.594999999999997
O 29.189999999999998 14.595000000000002 16.679999999999996
O 25.02 12.510000000000003 18.764999999999997
O 27.105 18.765000000000004 2.085
O 29.189999999999998 18.765000000000004 0.0
O 27.105 20.849999999999998 0.0
O 25.02 16.680000000000003 2.085
O 27.105 18.765000000000004 6.254999999999999
O 29.189999999999998 18.765000000000004 4.169999999999999
O 27.105 20.849999999999998 4.169999999999999
O 25.02 16.680000000000003 6.254999999999999
O 27.105 18.765000000000004 10.424999999999997
O 29.189999999999998 18.765000000000004 8.339999999999998
O 27.105 20.849999999999998 8.339999999999998
O 25.02 16.680000000000003 10.424999999999997
O 29.189999999999998 18.765000000000004 12.509999999999998
O 25.02 16.680000000000003 14.594999999999997
O 27.105 22.935000000000002 2.085
O 29.189999999999998 22.935000000000002 0.0
O 27.105 25.020000000000007 0.0
O 25.02 20.849999999999998 2.085
O 27.105 22.935000000000002 6.254999999999999
O 29.189999999999998 22.935000000000002 4.169999999999999
O 27.105 25.020000000000007 4.169999999999999
O 25.02 20.849999999999998 6.254999999999999
O 27.105 22.935000000000002 10.424999999999997
O 29.189999999999998 22.935000000000002 8.339999999999998
O 27.105 25.020000000000007 8.339999999999998
O 25.02 20.849999999999998 10.424999999999997
O 29.189999999999998 22.935000000000002 12.509999999999998
O 27.105 25.020000000000007 12.509999999999998
O 27.105 27.105000000000008 2.085
O 29.189999999999998 27.105000000000008 0.0
O 27.105 29.190000000000005 0.0
O 25.02 25.020000000000007 2.085
O 27.105 27.105000000000008 6.254999999999999
O 29.189999999999998 27.105000000000008 4.169999999999999
O 27.105 29.190000000000005 4.169999999999999
O 25.02 25.020000000000007 6.254999999999999
O 27.105 27.105000000000008 10.424999999999997
O 29.189999999999998 27.105000000000008 8.339999999999998
O 27.105 29.190000000000005 8.339999999999998
O 25.02 25.020000000000007 10.424999999999997
O 27.105 27.105000000000008 14.594999999999997
O 29.189999999999998 27.105000000000008 12.509999999999998
O 27.105 29.190000000000005 12.509999999999998
O 25.02 25.020000000000007 14.594999999999997
O 29.189999999999998 27.105000000000008 16.679999999999996
O 27.105 29.190000000000005 16.679999999999996
O 27.105 31.275000000000006 2.085
O 29.189999999999998 31.275000000000006 0.0
O 27.105 33.36000000000001 0.0
O 25.02 29.190000000000005 2.085
O 27.105 31.275000000000006 6.254999999999999
O 29.189999999999998 31.275000000000006 4.169999999999999
O 27.105 33.36000000000001 4.169999999999999
O 25.02 29.190000000000005 6.254999999999999
O 27.105 31.275000000000006 10.424999999999997
O 29.189999999999998 31.275000000000006 8.339999999999998
O 27.105 33.36000000000001 8.339999999999998
O 25.02 29.190000000000005 10.424999999999997
O 27.105 31.275000000000006 14.594999999999997
O 29.189999999999998 31.275000000000006 12.509999999999998
O 27.105 33.36000000000001 12.509999999999998
O 25.02 29.190000000000005 14.594999999999997
O 27.105 31.275000000000006 18.764999999999997
O 29.189999999999998 31.275000000000006 16.679999999999996
O 27.105 33.36000000000001 16.679999999999996
O 25.02 29.190000000000005 18.764999999999997
O 29.189999999999998 31.275000000000006 20.849999999999994
O 27.105 33.36000000000001 20.849999999999994
O 27.105 35.44500000000001 2.085
O 29.189999999999998 35.44500000000001 0.0
O 27.105 37.53000000000001 0.0
O 25.02 33.36000000000001 2.085
O 27.105 35.44500000000001 6.254999999999999
O 29.189999999999998 35.44500000000001 4.169999999999999
O 27.105 37.53000000000001 4.169999999999999
O 25.02 33.36000000000001 6.254999999999999
O 27.105 35.44500000000001 10.424999999999997
O 29.189999999999998 35.44500000000001 8.339999999999998
O 27.105 37.53000000000001 8.339999999999998
O 25.02 33.36000000000001 10.424999999999997
O 27.105 35.44500000000001 14.594999999999997
O 29.189999999999998 35.44500000000001 12.509999999999998
O 27.105 37.53000000000001 12.509999999999998
O 25.02 33.36000000000001 14.594999999999997
O 27.105 35.44500000000001 18.764999999999997
O 29.189999999999998 35.44500000000001 16.679999999999996
O 27.105 37.53000000000001 16.679999999999996
O 25.02 33.36000000000001 18.764999999999997
O 27.105 35.44500000000001 22.934999999999995
O 29.189999999999998 35.44500000000001 20.849999999999994
O 27.105 37.53000000000001 20.849999999999994
O 25.02 33.36000000000001 22.934999999999995
O 29.189999999999998 35.44500000000001 25.019999999999996
O 27.105 37.53000000000001 25.019999999999996
O 27.105 39.615 2.085
O 29.189999999999998 39.615 0.0
O 27.105 2.7318179660128058e-15 0.0
O 25.02 37.53 2.085
O 27.105 39.615 6.254999999999999
O 29.189999999999998 39.615 4.169999999999999
O 27.105 2.7318179660128058e-15 4.169999999999999
O 25.02 37.53 6.254999999999999
O 27.105 39.615 10.424999999999997
O 29.189999999999998 39.615 8.339999999999998
O 27.105 2.7318179660128058e-15 8.339999999999998
O 25.02 37.53 10.424999999999997
O 27.105 39.615 14.594999999999997
O 29.189999999999998 39.615 12.509999999999998
O 27.105 2.7318179660128058e-15 12.509999999999998
O 25.02 37.53 14.594999999999997
O 27.105 39.615 18.764999999999997
O 29.189999999999998 39.615 16.679999999999996
O 27.105 2.7318179660128058e-15 16.679999999999996
O 25.02 37.53 18.764999999999997
O 27.105 39.615 22.934999999999995
O 29.189999999999998 39.615 20.849999999999994
O 27.105 2.7318179660128058e-15 20.849999999999994
O 25.02 37.53 22.934999999999995
O 27.105 39.615 27.104999999999997
O 29.189999999999998 39.615 25.019999999999996
O 27.105 2.7318179660128058e-15 25.019999999999996
O 25.02 37.53 27.104999999999997
O 31.275 2.085 2.085
O 33.36 2.085 0.0
O 31.275 4.17 0.0
O 29.189999999999998 0.0 2.085
O 31.275 2.085 6.254999999999999
O 33.36 2.085 4.169999999999999
O 31.275 4.17 4.169999999999999
O 29.189999999999998 0.0 6.254999999999999
O 31.275 2.085 10.424999999999997
O 33.36 2.085 8.339999999999998
O 31.275 4.17 8.339999999999998
O 29.189999999999998 0.0 10.424999999999997
O 31.275 2.085 14.594999999999997
O 33.36 2.085 12.509999999999998
O 31.275 4.17 12.509999999999998
O 29.189999999999998 0.0 14.594999999999997
O 31.275 2.085 18.764999999999997
O 33.36 2.085 16.679999999999996
O 31.275 4.17 16.679999999999996
O 29.189999999999998 0.0 18.764999999999997
O 31.275 2.085 22.934999999999995
O 33.36 2.085 20.849999999999994
O 31.275 4.17 20.849999999999994
O 29.189999999999998 0.0 22.934999999999995
O 31.275 2.085 27.104999999999997
O 33.36 2.085 25.019999999999996
O 31.275 4.17 25.019999999999996
O 29.189999999999998 0.0 27.104999999999997
O 31.275 6.255000000000002 2.085
O 33.36 6.255000000000002 0.0
O 31.275 8.34 0.0
O 29.189999999999998 4.170000000000001 2.085
O 31.275 6.255000000000002 6.254999999999999
O 33.36 6.255000000000002 4.169999999999999
O 31.275 8.34 4.169999999999999
O 29.189999999999998 4.170000000000001 6.254999999999999
O 31.275 6.255000000000002 10.424999999999997
O 33.36 6.255000000000002 8.339999999999998
O 31.275 8.34 8.339999999999998
O 29.189999999999998 4.170000000000001 10.424999999999997
O 31.275 6.255000000000002 14.594999999999997
O 33.36 6.255000000000002 12.509999999999998
O 31.275 8.34 12.509999999999998
O 29.189999999999998 4.170000000000001 14.594999999999997
O 31.275 6.255000000000002 18.764999999999997
O 33.36 6.255000000000002 16.679999999999996
O 31.275 8.34 16.679999999999996
O 29.189999999999998 4.170000000000001 18.764999999999997
O 31.275 6.255000000000002 22.934999999999995
O 33.36 6.255000000000002 20.849999999999994
O 31.275 8.34 20.849999999999994
O 29.189999999999998 4.170000000000001 22.934999999999995
O 33.36 6.255000000000002 25.019999999999996
O 29.189999999999998 4.170000000000001 27.104999999999997
O 31.275 10.425 2.085
O 33.36 10.425 0.0
O 31.275 12.510000000000003 0.0
O 29.189999999999998 8.340000000000002 2.085
O 31.275 10.425 6.254999999999999
O 33.36 10.425 4.169999999999999
O 31.275 12.510000000000003 4.169999999999999
O 29.189999999999998 8.340000000000002 6.254999999999999
O 31.275 10.425 10.424999999999997
O 33.36 10.425 8.339999999999998
O 31.275 12.510000000000003 8.339999999999998
O 29.189999999999998 8.340000000000002 10.424999999999997
O 31.275 10.425 14.594999999999997
O 33.36 10.425 12.509999999999998
O 31.275 12.510000000000003 12.509999999999998
O 29.189999999999998 8.340000000000002 14.594999999999997
O 31.275 10.425 18.764999999999997
O 33.36 10.425 16.679999999999996
O 31.275 12.510000000000003 16.679999999999996
O 29.189999999999998 8.340000000000002 18.764999999999997
O 33.36 10.425 20.849999999999994
O 29.189999999999998 8.340000000000002 22.934999999999995
O 31.275 14.595000000000002 2.085
O 33.36 14.595000000000002 0.0
O 31.275 16.680000000000003 0.0
O 29.189999999999998 12.510000000000003 2.085
O 31.275 14.595000000000002 6.254999999999999
O 33.36 14.595000000000002 4.169999999999999
O 31.275 16.680000000000003 4.169999999999999
O 29.189999999999998 12.510000000000003 6.254999999999999
O 31.275 14.595000000000002 10.424999999999997
O 33.36 14.595000000000002 8.339999999999998
O 31.275 16.680000000000003 8.339999999999998
O 29.189999999999998 12.510000000000003 10.424999999999997
O 31.275 14.595000000000002 14.594999999999997
O 33.36 14.595000000000002 12.509999999999998
O 31.275 16.680000000000003 12.509999999999998
O 29.189999999999998 12.510000000000003 14.594999999999997
O 33.36 14.595000000000002 16.679999999999996
O 29.189999999999998 12.510000000000003 18.764999999999997
O 31.275 18.765000000000004 2.085
O 33.36 18.765000000000004 0.0
O 31.275 20.849999999999998 0.0
O 29.189999999999998 16.680000000000003 2.085
O 31.275 18.765000000000004 6.254999999999999
O 33.36 18.765000000000004 4.169999999999999
O 31.275 20.849999999999998 4.169999999999999
O 29.189999999999998 16.680000000000003 6.254999999999999
O 31.275 18.765000000000004 10.424999999999997
O 33.36 18.765000000000004 8.339999999999998
O 31.275 20.849999999999998 8.339999999999998
O 29.189999999999998 16.680000000000003 10.424999999999997
O 33.36 18.765000000000004 12.509999999999998
O 29.189999999999998 16.680000000000003 14.594999999999997
O 31.275 22.935000000000002 2.085
O 33.36 22.935000000000002 0.0
O 31.275 25.020000000000007 0.0
O 29.189999999999998 20.849999999999998 2.085
O 31.275 22.935000000000002 6.254999999999999
O 33.36 22.935000000000002 4.169999999999999
O 31.275 25.020000000000007 4.169999999999999
O 29.189999999999998 20.849999999999998 6.254999999999999
O 31.275 22.935000000000002 10.424999999999997
O 33.36 22.935000000000002 8.339999999999998
O 31.275 25.020000000000007 8.339999999999998
O 29.189999999999998 20.849999999999998 10.424999999999997
O 33.36 22.935000000000002 12.509999999999998
O 31.275 25.020000000000007 12.509999999999998
O 31.275 27.105000000000008 2.085
O 33.36 27.105000000000008 0.0
O 31.275 29.190000000000005 0.0
O 29.189999999999998 25.020000000000007 2.085
O 31.275 27.105000000000008 6.254999999999999
O 33.36 27.105000000000008 4.169999999999999
O 31.275 29.190000000000005 4.169999999999999
O 29.189999999999998 25.020000000000007 6.254999999999999
O 31.275 27.105000000000008 10.424999999999997
O 33.36 27.105000000000008 8.339999999999998
O 31.275 29.190000000000005 8.339999999999998
O 29.189999999999998 25.020000000000007 10.424999999999997
O 31.275 27.105000000000008 14.594999999999997
O 33.36 27.105000000000008 12.509999999999998
O 31.275 29.190000000000005 12.509999999999998
O 29.189999999999998 25.020000000000007 14.594999999999997
O 33.36 27.105000000000008 16.679999999999996
O 31.275 29.190000000000005 16.679999999999996
O 31.275 31.275000000000006 2.085
O 33.36 31.275000000000006 0.0
O 31.275 33.36000000000001 0.0
O 29.189999999999998 29.190000000000005 2.085
O 31.275 31.275000000000006 6.254999999999999
O 33.36 31.275000000000006 4.169999999999999
O 31.275 33.36000000000001 4.169999999999999
O 29.189999999999998 29.190000000000005 6.254999999999999
O 31.275 31.275000000000006 10.424999999999997
O 33.36 31.275000000000006 8.339999999999998
O 31.275 33.36000000000001 8.339999999999998
O 29.189999999999998 29.190000000000005 10.424999999999997
O 31.275 31.275000000000006 14.594999999999997
O 33.36 31.275000000000006 12.509999999999998
O 31.275 33.36000000000001 12.509999999999998
O 29.189999999999998 29.190000000000005 14.594999999999997
O 31.275 31.275000000000006 18.764999999999997
O 33.36 31.275000000000006 16.679999999999996
O 31.275 33.36000000000001 16.679999999999996
O 29.189999999999998 29.190000000000005 18.764999999999997
O 33.36 31.275000000000006 20.849999999999994
O 31.275 33.36000000000001 20.849999999999994
O 31.275 35.44500000000001 2.085
O 33.36 35.44500000000001 0.0
O 31.275 37.53000000000001 0.0
O 29.189999999999998 33.36000000000001 2.085
O 31.275 35.44500000000001 6.254999999999999
O 33.36 35.44500000000001 4.169999999999999
O 31.275 37.53000000000001 4.169999999999999
O 29.189999999999998 33.36000000000001 6.254999999999999
O 31.275 35.44500000000001 10.424999999999997
O 33.36 35.44500000000001 8.339999999999998
O 31.275 37.53000000000001 8.339999999999998
O 29.189999999999998 33.36000000000001 10.424999999999997
O 31.275 35.44500000000001 14.594999999999997
O 33.36 35.44500000000001 12.509999999999998
O 31.275 37.53000000000001 12.509999999999998
O 29.189999999999998 33.36000000000001 14.594999999999997
O 31.275 35.44500000000001 18.764999999999997
O 33.36 35.44500000000001 16.679999999999996
O 31.275 37.53000000000001 16.679999999999996
O 29.189999999999998 33.36000000000001 18.764999999999997
O 31.275 35.44500000000001 22.934999999999995
O 33.36 35.44500000000001 20.849999999999994
O 31.275 37.53000000000001 20.849999999999994
O 29.189999999999998 33.36000000000001 22.934999999999995
O 33.36 35.44500000000001 25.019999999999996
O 31.275 37.53000000000001 25.019999999999996
O 31.275 39.615 2.085
O 33.36 39.615 0.0
O 31.275 2.7318179660128058e-15 0.0
O 29.189999999999998 37.53 2.085
O 31.275 39.615 6.254999999999999
O 33.36 39.615 4.169999999999999
O 31.275 2.7318179660128058e-15 4.169999999999999
O 29.189999999999998 37.53 6.254999999999999
O 31.275 39.615 10.424999999999997
O 33.36 39.615 8.339999999999998
O 31.275 2.7318179660128058e-15 8.339999999999998
O 29.189999999999998 37.53 10.424999999999997
O 31.275 39.615 14.594999999999997
O 33.36 39.615 12.509999999999998
O 31.275 2.7318179660128058e-15 12.509999999999998
O 29.189999999999998 37.53 14.594999999999997
O 31.275 39.615 18.764999999999997
O 33.36 39.615 16.679999999999996
O 31.275 2.7318179660128058e-15 16.679999999999996
O 29.189999999999998 37.53 18.764999999999997
O 31.275 39.615 22.934999999999995
O 33.36 39.615 20.849999999999994
O 31.275 2.7318179660128058e-15 20.849999999999994
O 29.189999999999998 37.53 22.934999999999995
O 31.275 39.615 27.104999999999997
O 33.36 39.615 25.019999999999996
O 31.275 2.7318179660128058e-15 25.019999999999996
O 29.189999999999998 37.53 27.104999999999997
O 35.445 2.085 2.085
O 37.53 2.085 0.0
O 35.445 4.17 0.0
O 33.36 0.0 2.085
O 35.445 2.085 6.254999999999999
O 37.53 2.085 4.169999999999999
O 35.445 4.17 4.169999999999999
O 33.36 0.0 6.254999999999999
O 35.445 2.085 10.424999999999997
O 37.53 2.085 8.339999999999998
O 35.445 4.17 8.339999999999998
O 33.36 0.0 10.424999999999997
O 35.445 2.085 14.594999999999997
O 37.53 2.085 12.509999999999998
O 35.445 4.17 12.509999999999998
O 33.36 0.0 14.594999999999997
O 35.445 2.085 18.764999999999997
O 37.53 2.085 16.679999999999996
O 35.445 4.17 16.679999999999996
O 33.36 0.0 18.764999999999997
O 35.445 2.085 22.934999999999995
O 37.53 2.085 20.849999999999994
O 35.445 4.17 20.849999999999994
O 33.36 0.0 22.934999999999995
O 35.445 2.085 27.104999999999997
O 37.53 2.085 25.019999999999996
O 35.445 4.17 25.019999999999996
O 33.36 0.0 27.104999999999997
O 35.445 6.255000000000002 2.085
O 37.53 6.255000000000002 0.0
O 35.445 8.34 0.0
O 33.36 4.170000000000001 2.085
O 35.445 6.255000000000002 6.254999999999999
O 37.53 6.255000000000002 4.169999999999999
O 35.445 8.34 4.169999999999999
O 33.36 4.170000000000001 6.254999999999999
O 35.445 6.255000000000002 10.424999999999997
O 37.53 6.255000000000002 8.339999999999998
O 35.445 8.34 8.339999999999998
O 33.36 4.170000000000001 10.424999999999997
O 35.445 6.255000000000002 14.594999999999997
O 37.53 6.255000000000002 12.509999999999998
O 35.445 8.34 12.509999999999998
O 33.36 4.170000000000001 14.594999999999997
O 35.445 6.255000000000002 18.764999999999997
O 37.53 6.255000000000002 16.679999999999996
O 35.445 8.34 16.679999999999996
O 33.36 4.170000000000001 18.764999999999997
O 35.445 6.255000000000002 22.934999999999995
O 37.53 6.255000000000002 20.849999999999994
O 35.445 8.34 20.849999999999994
O 33.36 4.170000000000001 22.934999999999995
O 37.53 6.255000000000002 25.019999999999996
O 33.36 4.170000000000001 27.104999999999997
O 35.445 10.425 2.085
O 37.53 10.425 0.0
O 35.445 12.510000000000003 0.0
O 33.36 8.340000000000002 2.085
O 35.445 10.425 6.254999999999999
O 37.53 10.425 4.169999999999999
O 35.445 12.510000000000003 4.169999999999999
O 33.36 8.340000000000002 6.254999999999999
O 35.445 10.425 10.424999999999997
O 37.53 10.425 8.339999999999998
O 35.445 12.510000000000003 8.339999999999998
O 33.36 8.340000000000002 10.424999999999997
O 35.445 10.425 14.594999999999997
O 37.53 10.425 12.509999999999998
O 35.445 12.510000000000003 12.509999999999998
O 33.36 8.340000000000002 14.594999999999997
O 35.445 10.425 18.764999999999997
O 37.53 10.425 16.679999999999996
O 35.445 12.510000000000003 16.679999999999996
O 33.36 8.340000000000002 18.764999999999997
O 37.53 10.425 20.849999999999994
O 33.36 8.340000000000002 22.934999999999995
O 35.445 14.595000000000002 2.085
O 37.53 14.595000000000002 0.0
O 35.445 16.680000000000003 0.0
O 33.36 12.510000000000003 2.085
O 35.445 14.595000000000002 6.254999999999999
O 37.53 14.595000000000002 4.169999999999999
O 35.445 16.680000000000003 4.169999999999999
O 33.36 12.510000000000003 6.254999999999999
O 35.445 14.595000000000002 10.424999999999997
O 37.53 14.595000000000002 8.339999999999998
O 35.445 16.680000000000003 8.339999999999998
O 33.36 12.510000000000003 10.424999999999997
O 35.445 14.595000000000002 14.594999999999997
O 37.53 14.595000000000002 12.509999999999998
O 35.445 16.680000000000003 12.509999999999998
O 33.36 12.510000000000003 14.594999999999997
O 37.53 14.595000000000002 16.679999999999996
O 33.36 12.510000000000003 18.764999999999997
O 35.445 18.765000000000004 2.085
O 37.53 18.765000000000004 0.0
O 35.445 20.849999999999998 0.0
O 33.36 16.680000000000003 2.085
O 35.445 18.765000000000004 6.254999999999999
O 37.53 18.765000000000004 4.169999999999999
O 35.445 20.849999999999998 4.169999999999999
O 33.36 16.680000000000003 6.254999999999999
O 35.445 18.765000000000004 10.424999999999997
O 37.53 18.765000000000004 8.339999999999998
O 35.445 20.849999999999998 8.339999999999998
O 33.36 16.680000000000003 10.424999999999997
O 37.53 18.765000000000004 12.509999999999998
O 33.36 16.680000000000003 14.594999999999997
O 35.445 22.935000000000002 2.085
O 37.53 22.935000000000002 0.0
O 35.445 25.020000000000007 0.0
O 33.36 20.849999999999998 2.085
O 35.445 22.935000000000002 6.254999999999999
O 37.53 22.935000000000002 4.169999999999999
O 35.445 25.020000000000007 4.169999999999999
O 33.36 20.849999999999998 6.254999999999999
O 35.445 22.935000000000002 10.424999999999997
O 37.53 22.935000000000002 8.339999999999998
O 35.445 25.020000000000007 8.339999999999998
O 33.36 20.849999999999998 10.424999999999997
O 37.53 22.935000000000002 12.509999999999998
O 35.445 25.020000000000007 12.509999999999998
O 35.445 27.105000000000008 2.085
O 37.53 27.105000000000008 0.0
O 35.445 29.190000000000005 0.0
O 33.36 25.020000000000007 2.085
O 35.445 27.105000000000008 6.254999999999999
O 37.53 27.105000000000008 4.169999999999999
O 35.445 29.190000000000005 4.169999999999999
O 33.36 25.020000000000007 6.254999999999999
O 35.445 27.105000000000008 10.424999999999997
O 37.53 27.105000000000008 8.339999999999998
O 35.445 29.190000000000005 8.339999999999998
O 33.36 25.020000000000007 10.424999999999997
O 35.445 27.105000000000008 14.594999999999997
O 37.53 27.105000000000008 12.509999999999998
O 35.445 29.190000000000005 12.509999999999998
O 33.36 25.020000000000007 14.594999999999997
O 37.53 27.105000000000008 16.679999999999996
O 35.445 29.190000000000005 16.679999999999996
O 35.445 31.275000000000006 2.085
O 37.53 31.275000000000006 0.0
O 35.445 33.36000000000001 0.0
O 33.36 29.190000000000005 2.085
O 35.445 31.275000000000006 6.254999999999999
O 37.53 31.275000000000006 4.169999999999999
O 35.445 33.36000000000001 4.169999999999999
O 33.36 29.190000000000005 6.254999999999999
O 35.445 31.275000000000006 10.424999999999997
O 37.53 31.275000000000006 8.339999999999998
O 35.445 33.36000000000001 8.339999999999998
O 33.36 29.190000000000005 10.424999999999997
O 35.445 31.275000000000006 14.594999999999997
O 37.53 31.275000000000006 12.509999999999998
O 35.445 33.36000000000001 12.509999999999998
O 33.36 29.190000000000005 14.594999999999997
O 35.445 31.275000000000006 18.764999999999997
O 37.53 31.275000000000006 16.679999999999996
O 35.445 33.36000000000001 16.679999999999996
O 33.36 29.190000000000005 18.764999999999997
O 37.53 31.275000000000006 20.849999999999994
O 35.445 33.36000000000001 20.849999999999994
O 35.445 35.44500000000001 2.085
O 37.53 35.44500000000001 0.0
O 35.445 37.53000000000001 0.0
O 33.36 33.36000000000001 2.085
O 35.445 35.44500000000001 6.254999999999999
O 37.53 35.44500000000001 4.169999999999999
O 35.445 37.53000000000001 4.169999999999999
O 33.36 33.36000000000001 6.254999999999999
O 35.445 35.44500000000001 10.424999999999997
O 37.53 35.44500000000001 8.339999999999998
O 35.445 37.53000000000001 8.339999999999998
O 33.36 33.36000000000001 10.424999999999997
O 35.445 35.44500000000001 14.594999999999997
O 37.53 35.44500000000001 12.509999999999998
O 35.445 37.53000000000001 12.509999999999998
O 33.36 33.36000000000001 14.594999999999997
O 35.445 35.44500000000001 18.764999999999997
O 37.53 35.44500000000001 16.679999999999996
O 35.445 37.53000000000001 16.679999999999996
O 33.36 33.36000000000001 18.764999999999997
O 35.445 35.44500000000001 22.934999999999995
O 37.53 35.44500000000001 20.849999999999994
O 35.445 37.53000000000001 20.849999999999994
O 33.36 33.36000000000001 22.934999999999995
O 37.53 35.44500000000001 25.019999999999996
O 35.445 37.53000000000001 25.019999999999996
O 35.445 39.615 2.085
O 37.53 39.615 0.0
O 35.445 2.7318179660128058e-15 0.0
O 33.36 37.53 2.085
O 35.445 39.615 6.254999999999999
O 37.53 39.615 4.169999999999999
O 35.445 2.7318179660128058e-15 4.169999999999999
O 33.36 37.53 6.254999999999999
O 35.445 39.615 10.424999999999997
O 37.53 39.615 8.339999999999998
O 35.445 2.7318179660128058e-15 8.339999999999998
O 33.36 37.53 10.424999999999997
O 35.445 39.615 14.594999999999997
O 37.53 39.615 12.509999999999998
O 35.445 2.7318179660128058e-15 12.509999999999998
O 33.36 37.53 14.594999999999997
O 35.445 39.615 18.764999999999997
O 37.53 39.615 16.679999999999996
O 35.445 2.7318179660128058e-15 16.679999999999996
O 33.36 37.53 18.764999999999997
O 35.445 39.615 22.934999999999995
O 37.53 39.615 20.849999999999994
O 35.445 2.7318179660128058e-15 20.849999999999994
O 33.36 37.53 22.934999999999995
O 35.445 39.615 27.104999999999997
O 37.53 39.615 25.019999999999996
O 35.445 2.7318179660128058e-15 25.019999999999996
O 33.36 37.53 27.104999999999997
O 39.614999999999995 2.085 2.085
O 41.699999999999996 2.085 0.0
O 39.614999999999995 4.17 0.0
O 37.529999999999994 0.0 2.085
O 39.614999999999995 2.085 6.254999999999999
O 41.699999999999996 2.085 4.169999999999999
O 39.614999999999995 4.17 4.169999999999999
O 37.529999999999994 0.0 6.254999999999999
O 39.614999999999995 2.085 10.424999999999997
O 41.699999999999996 2.085 8.339999999999998
O 39.614999999999995 4.17 8.339999999999998
O 37.529999999999994 0.0 10.424999999999997
O 39.614999999999995 2.085 14.594999999999997
O 41.699999999999996 2.085 12.509999999999998
O 39.614999999999995 4.17 12.509999999999998
O 37.529999999999994 0.0 14.594999999999997
O 39.614999999999995 2.085 18.764999999999997
O 41.699999999999996 2.085 16.679999999999996
O 39.614999999999995 4.17 16.679999999999996
O 37.529999999999994 0.0 18.764999999999997
O 39.614999999999995 2.085 22.934999999999995
O 41.699999999999996 2.085 20.849999999999994
O 39.614999999999995 4.17 20.849999999999994
O 37.529999999999994 0.0 22.934999999999995
O 39.614999999999995 2.085 27.104999999999997
O 41.699999999999996 2.085 25.019999999999996
O 39.614999999999995 4.17 25.019999999999996
O 37.529999999999994 0.0 27.104999999999997
O 39.614999999999995 6.255000000000002 2.085
O 41.699999999999996 6.255000000000002 0.0
O 39.614999999999995 8.34 0.0
O 37.529999999999994 4.170000000000001 2.085
O 39.614999999999995 6.255000000000002 6.254999999999999
O 41.699999999999996 6.255000000000002 4.169999999999999
O 39.614999999999995 8.34 4.169999999999999
O 37.529999999999994 4.170000000000001 6.254999999999999
O 39.614999999999995 6.255000000000002 10.424999999999997
O 41.699999999999996 6.255000000000002 8.339999999999998
O 39.614999999999995 8.34 8.339999999999998
O 37.529999999999994 4.170000000000001 10.424999999999997
O 39.614999999999995 6.255000000000002 14.594999999999997
O 41.699999999999996 6.255000000000002 12.509999999999998
O 39.614999999999995 8.34 12.509999999999998
O 37.529999999999994 4.170000000000001 14.594999999999997
O 39.614999999999995 6.255000000000002 18.764999999999997
O 41.699999999999996 6.255000000000002 16.679999999999996
O 39.614999999999995 8.34 16.679999999999996
O 37.529999999999994 4.170000000000001 18.764999999999997
O 39.614999999999995 6.255000000000002 22.934999999999995
O 41.699999999999996 6.255000000000002 20.849999999999994
O 39.614999999999995 8.34 20.849999999999994
O 37.529999999999994 4.170000000000001 22.934999999999995
O 41.699999999999996 6.255000000000002 25.019999999999996
O 37.529999999999994 4.170000000000001 27.104999999999997
O 39.614999999999995 10.425 2.085
O 41.699999999999996 10.425 0.0
O 39.614999999999995 12.510000000000003 0.0
O 37.529999999999994 8.340000000000002 2.085
O 39.614999999999995 10.425 6.254999999999999
O 41.699999999999996 10.425 4.169999999999999
O 39.614999999999995 12.510000000000003 4.169999999999999
O 37.529999999999994 8.340000000000002 6.254999999999999
O 39.614999999999995 10.425 10.424999999999997
O 41.699999999999996 10.425 8.339999999999998
O 39.614999999999995 12.510000000000003 8.339999999999998
O 37.529999999999994 8.340000000000002 10.424999999999997
O 39.614999999999995 10.425 14.594999999999997
O 41.699999999999996 10.425 12.509999999999998
O 39.614999999999995 12.510000000000003 12.509999999999998
O 37.529999999999994 8.340000000000002 14.594999999999997
O 39.614999999999995 10.425 18.764999999999997
O 41.699999999999996 10.425 16.679999999999996
O 39.614999999999995 12.510000000000003 16.679999999999996
O 37.529999999999994 8.340000000000002 18.764999999999997
O 41.699999999999996 10.425 20.849999999999994
O 37.529999999999994 8.340000000000002 22.934999999999995
O 39.614999999999995 14.595000000000002 2.085
O 41.699999999999996 14.595000000000002 0.0
O 39.614999999999995 16.680000000000003 0.0
O 37.529999999999994 12.510000000000003 2.085
O 39.614999999999995 14.595000000000002 6.254999999999999
O 41.699999999999996 14.595000000000002 4.169999999999999
O 39.614999999999995 16.680000000000003 4.169999999999999
O 37.529999999999994 12.510000000000003 6.254999999999999
O 39.614999999999995 14.595000000000002 10.424999999999997
O 41.699999999999996 14.595000000000002 8.339999999999998
O 39.614999999999995 16.680000000000003 8.339999999999998
O 37.529999999999994 12.510000000000003 10.424999999999997
O 39.614999999999995 14.595000000000002 14.594999999999997
O 41.699999999999996 14.595000000000002 12.509999999999998
O 39.614999999999995 16.680000000000003 12.509999999999998
O 37.529999999999994 12.510000000000003 14.594999999999997
O 41.699999999999996 14.595000000000002 16.679999999999996
O 37.529999999999994 12.510000000000003 18.764999999999997
O 39.614999999999995 18.765000000000004 2.085
O 41.699999999999996 18.765000000000004 0.0
O 39.614999999999995 20.849999999999998 0.0
O 37.529999999999994 16.680000000000003 2.085
O 39.614999999999995 18.765000000000004 6.254999999999999
O 41.699999999999996 18.765000000000004 4.169999999999999
O 39.614999999999995 20.849999999999998 4.169999999999999
O 37.529999999999994 16.680000000000003 6.254999999999999
O 39.614999999999995 18.765000000000004 10.424999999999997
O 41.699999999999996 18.765000000000004 8.339999999999998
O 39.614999999999995 20.849999999999998 8.339999999999998
O 37.529999999999994 16.680000000000003 10.424999999999997
O 41.699999999999996 18.765000000000004 12.509999999999998
O 37.529999999999994 16.680000000000003 14.594999999999997
O 39.614999999999995 22.935000000000002 2.085
O 41.699999999999996 22.935000000000002 0.0
O 39.614999999999995 25.020000000000007 0.0
O 37.529999999999994 20.849999999999998 2.085
O 39.614999999999995 22.935000000000002 6.254999999999999
O 41.699999999999996 22.935000000000002 4.169999999999999
O 39.614999999999995 25.020000000000007 4.169999999999999
O 37.529999999999994 20.849999999999998 6.254999999999999
O 39.614999999999995 22.935000000000002 10.424999999999997
O 41.699999999999996 22.935000000000002 8.339999999999998
O 39.614999999999995 25.020000000000007 8.339999999999998
O 37.529999999999994 20.849999999999998 10.424999999999997
O 41.699999999999996 22.935000000000002 12.509999999999998
O 39.614999999999995 25.020000000000007 12.509999999999998
O 39.614999999999995 27.105000000000008 2.085
O 41.699999999999996 27.105000000000008 0.0
O 39.614999999999995 29.190000000000005 0.0
O 37.529999999999994 25.020000000000007 2.085
O 39.614999999999995 27.105000000000008 6.254999999999999
O 41.699999999999996 27.105000000000008 4.169999999999999
O 39.614999999999995 29.190000000000005 4.169999999999999
O 37.529999999999994 25.020000000000007 6.254999999999999
O 39.614999999999995 27.105000000000008 10.424999999999997
O 41.699999999999996 27.105000000000008 8.339999999999998
O 39.614999999999995 29.190000000000005 8.339999999999998
O 37.529999999999994 25.020000000000007 10.424999999999997
O 39.614999999999995 27.105000000000008 14.594999999999997
O 41.699999999999996 27.105000000000008 12.509999999999998
O 39.614999999999995 29.190000000000005 12.509999999999998
O 37.529999999999994 25.020000000000007 14.594999999999997
O 41.699999999999996 27.105000000000008 16.679999999999996
O 39.614999999999995 29.190000000000005 16.679999999999996
O 39.614999999999995 31.275000000000006 2.085
O 41.699999999999996 31.275000000000006 0.0
O 39.614999999999995 33.36000000000001 0.0
O 37.529999999999994 29.190000000000005 2.085
O 39.614999999999995 31.275000000000006 6.254999999999999
O 41.699999999999996 31.275000000000006 4.169999999999999
O 39.614999999999995 33.36000000000001 4.169999999999999
O 37.529999999999994 29.190000000000005 6.254999999999999
O 39.614999999999995 31.275000000000006 10.424999999999997
O 41.699999999999996 31.275000000000006 8.339999999999998
O 39.614999999999995 33.36000000000001 8.339999999999998
O 37.529999999999994 29.190000000000005 10.424999999999997
O 39.614999999999995 31.275000000000006 14.594999999999997
O 41.699999999999996 31.275000000000006 12.509999999999998
O 39.614999999999995 33.36000000000001 12.509999999999998
O 37.529999999999994 29.190000000000005 14.594999999999997
O 39.614999999999995 31.275000000000006 18.764999999999997
O 41.699999999999996 31.275000000000006 16.679999999999996
O 39.614999999999995 33.36000000000001 16.679999999999996
O 37.529999999999994 29.190000000000005 18.764999999999997
O 41.699999999999996 31.275000000000006 20.849999999999994
O 39.614999999999995 33.36000000000001 20.849999999999994
O 39.614999999999995 35.44500000000001 2.085
O 41.699999999999996 35.44500000000001 0.0
O 39.614999999999995 37.53000000000001 0.0
O 37.529999999999994 33.36000000000001 2.085
O 39.614999999999995 35.44500000000001 6.254999999999999
O 41.699999999999996 35.44500000000001 4.169999999999999
O 39.614999999999995 37.53000000000001 4.169999999999999
O 37.529999999999994 33.36000000000001 6.254999999999999
O 39.614999999999995 35.44500000000001 10.424999999999997
O 41.699999999999996 35.44500000000001 8.339999999999998
O 39.614999999999995 37.53000000000001 8.339999999999998
O 37.529999999999994 33.36000000000001 10.424999999999997
O 39.614999999999995 35.44500000000001 14.594999999999997
O 41.699999999999996 35.44500000000001 12.509999999999998
O 39.614999999999995 37.53000000000001 12.509999999999998
O 37.529999999999994 33.36000000000001 14.594999999999997
O 39.614999999999995 35.44500000000001 18.764999999999997
O 41.699999999999996 35.44500000000001 16.679999999999996
O 39.614999999999995 37.53000000000001 16.679999999999996
O 37.529999999999994 33.36000000000001 18.764999999999997
O 39.614999999999995 35.44500000000001 22.934999999999995
O 41.699999999999996 35.44500000000001 20.849999999999994
O 39.614999999999995 37.53000000000001 20.849999999999994
O 37.529999999999994 33.36000000000001 22.934999999999995
O 41.699999999999996 35.44500000000001 25.019999999999996
O 39.614999999999995 37.53000000000001 25.019999999999996
O 39.614999999999995 39.615 2.085
O 41.699999999999996 39.615 0.0
O 39.614999999999995 2.7318179660128058e-15 0.0
O 37.529999999999994 37.53 2.085
O 39.614999999999995 39.615 6.254999999999999
O 41.699999999999996 39.615 4.169999999999999
O 39.614999999999995 2.7318179660128058e-15 4.169999999999999
O 37.529999999999994 37.53 6.254999999999999
O 39.614999999999995 39.615 10.424999999999997
O 41.699999999999996 39.615 8.339999999999998
O 39.614999999999995 2.7318179660128058e-15 8.339999999999998
O 37.529999999999994 37.53 10.424999999999997
O 39.614999999999995 39.615 14.594999999999997
O 41.699999999999996 39.615 12.509999999999998
O 39.614999999999995 2.7318179660128058e-15 12.509999999999998
O 37.529999999999994 37.53 14.594999999999997
O 39.614999999999995 39.615 18.764999999999997
O 41.699999999999996 39.615 16.679999999999996
O 39.614999999999995 2.7318179660128058e-15 16.679999999999996
O 37.529999999999994 37.53 18.764999999999997
O 39.614999999999995 39.615 22.934999999999995
O 41.699999999999996 39.615 20.849999999999994
O 39.614999999999995 2.7318179660128058e-15 20.849999999999994
O 37.529999999999994 37.53 22.934999999999995
O 39.614999999999995 39.615 27.104999999999997
O 41.699999999999996 39.615 25.019999999999996
O 39.614999999999995 2.7318179660128058e-15 25.019999999999996
O 37.529999999999994 37.53 27.104999999999997
O 43.785 2.085 2.085
O 45.87 2.085 0.0
O 43.785 4.17 0.0
O 41.699999999999996 0.0 2.085
O 43.785 2.085 6.254999999999999
O 45.87 2.085 4.169999999999999
O 43.785 4.17 4.169999999999999
O 41.699999999999996 0.0 6.254999999999999
O 43.785 2.085 10.424999999999997
O 45.87 2.085 8.339999999999998
O 43.785 4.17 8.339999999999998
O 41.699999999999996 0.0 10.424999999999997
O 43.785 2.085 14.594999999999997
O 45.87 2.085 12.509999999999998
O 43.785 4.17 12.509999999999998
O 41.699999999999996 0.0 14.594999999999997
O 43.785 2.085 18.764999999999997
O 45.87 2.085 16.679999999999996
O 43.785 4.17 16.679999999999996
O 41.699999999999996 0.0 18.764999999999997
O 43.785 2.085 22.934999999999995
O 45.87 2.085 20.849999999999994
O 43.785 4.17 20.849999999999994
O 41.699999999999996 0.0 22.934999999999995
O 43.785 2.085 27.104999999999997
O 45.87 2.085 25.019999999999996
O 43.785 4.17 25.019999999999996
O 41.699999999999996 0.0 27.104999999999997
O 43.785 6.255000000000002 2.085
O 45.87 6.255000000000002 0.0
O 43.785 8.34 0.0
O 41.699999999999996 4.170000000000001 2.085
O 43.785 6.255000000000002 6.254999999999999
O 45.87 6.255000000000002 4.169999999999999
O 43.785 8.34 4.169999999999999
O 41.699999999999996 4.170000000000001 6.254999999999999
O 43.785 6.255000000000002 10.424999999999997
O 45.87 6.255000000000002 8.339999999999998
O 43.785 8.34 8.339999999999998
O 41.699999999999996 4.170000000000001 10.424999999999997
O 43.785 6.255000000000002 14.594999999999997
O 45.87 6.255000000000002 12.509999999999998
O 43.785 8.34 12.509999999999998
O 41.699999999999996 4.170000000000001 14.594999999999997
O 43.785 6.255000000000002 18.764999999999997
O 45.87 6.255000000000002 16.679999999999996
O 43.785 8.34 16.679999999999996
O 41.699999999999996 4.170000000000001 18.764999999999997
O 43.785 6.255000000000002 22.934999999999995
O 45.87 6.255000000000002 20.849999999999994
O 43.785 8.34 20.849999999999994
O 41.699999999999996 4.170000000000001 22.934999999999995
O 45.87 6.255000000000002 25.019999999999996
O 41.699999999999996 4.170000000000001 27.104999999999997
O 43.785 10.425 2.085
O 45.87 10.425 0.0
O 43.785 12.510000000000003 0.0
O 41.699999999999996 8.340000000000002 2.085
O 43.785 10.425 6.254999999999999
O 45.87 10.425 4.169999999999999
O 43.785 12.510000000000003 4.169999999999999
O 41.699999999999996 8.340000000000002 6.254999999999999
O 43.785 10.425 10.424999999999997
O 45.87 10.425 8.339999999999998
O 43.785 12.510000000000003 8.339999999999998
O 41.699999999999996 8.340000000000002 10.424999999999997
O 43.785 10.425 14.594999999999997
O 45.87 10.425 12.509999999999998
O 43.785 12.510000000000003 12.509999999999998
O 41.699999999999996 8.340000000000002 14.594999999999997
O 43.785 10.425 18.764999999999997
O 45.87 10.425 16.679999999999996
O 43.785 12.510000000000003 16.679999999999996
O 41.699999999999996 8.340000000000002 18.764999999999997
O 45.87 10.425 20.849999999999994
O 41.699999999999996 8.340000000000002 22.934999999999995
O 43.785 14.595000000000002 2.085
O 45.87 14.595000000000002 0.0
O 43.785 16.680000000000003 0.0
O 41.699999999999996 12.510000000000003 2.085
O 43.785 14.595000000000002 6.254999999999999
O 45.87 14.595000000000002 4.169999999999999
O 43.785 16.680000000000003 4.169999999999999
O 41.699999999999996 12.510000000000003 6.254999999999999
O 43.785 14.595000000000002 10.424999999999997
O 45.87 14.595000000000002 8.339999999999998
O 43.785 16.680000000000003 8.339999999999998
O 41.699999999999996 12.510000000000003 10.424999999999997
O 43.785 14.595000000000002 14.594999999999997
O 45.87 14.595000000000002 12.509999999999998
O 43.785 16.680000000000003 12.509999999999998
O 41.699999999999996 12.510000000000003 14.594999999999997
O 45.87 14.595000000000002 16.679999999999996
O 41.699999999999996 12.510000000000003 18.764999999999997
O 43.785 18.765000000000004 2.085
O 45.87 18.765000000000004 0.0
O 43.785 20.849999999999998 0.0
O 41.699999999999996 16.680000000000003 2.085
O 43.785 18.765000000000004 6.254999999999999
O 45.87 18.765000000000004 4.169999999999999
O 43.785 20.849999999999998 4.169999999999999
O 41.699999999999996 16.680000000000003 6.254999999999999
O 43.785 18.765000000000004 10.424999999999997
O 45.87 18.765000000000004 8.339999999999998
O 43.785 20.849999999999998 8.339999999999998
O 41.699999999999996 16.680000000000003 10.424999999999997
O 45.87 18.765000000000004 12.509999999999998
O 41.699999999999996 16.680000000000003 14.594999999999997
O 43.785 22.935000000000002 2.085
O 45.87 22.935000000000002 0.0
O 43.785 25.020000000000007 0.0
O 41.699999999999996 20.849999999999998 2.085
O 43.785 22.935000000000002 6.254999999999999
O 45.87 22.935000000000002 4.169999999999999
O 43.785 25.020000000000007 4.169999999999999
O 41.699999999999996 20.849999999999998 6.254999999999999
O 43.785 22.935000000000002 10.424999999999997
O 45.87 22.935000000000002 8.339999999999998
O 43.785 25.020000000000007 8.339999999999998
O 41.699999999999996 20.849999999999998 10.424999999999997
O 45.87 22.935000000000002 12.509999999999998
O 43.785 25.020000000000007 12.509999999999998
O 43.785 27.105000000000008 2.085
O 45.87 27.105000000000008 0.0
O 43.785 29.190000000000005 0.0
O 41.699999999999996 25.020000000000007 2.085
O 43.785 27.105000000000008 6.254999999999999
O 45.87 27.105000000000008 4.169999999999999
O 43.785 29.190000000000005 4.169999999999999
O 41.699999999999996 25.020000000000007 6.254999999999999
O 43.785 27.105000000000008 10.424999999999997
O 45.87 27.105000000000008 8.339999999999998
O 43.785 29.190000000000005 8.339999999999998
O 41.699999999999996 25.020000000000007 10.424999999999997
O 43.785 27.105000000000008 14.594999999999997
O 45.87 27.105000000000008 12.509999999999998
O 43.785 29.190000000000005 12.509999999999998
O 41.699999999999996 25.020000000000007 14.594999999999997
O 45.87 27.105000000000008 16.679999999999996
O 43.785 29.190000000000005 16.679999999999996
O 43.785 31.275000000000006 2.085
O 45.87 31.275000000000006 0.0
O 43.785 33.36000000000001 0.0
O 41.699999999999996 29.190000000000005 2.085
O 43.785 31.275000000000006 6.254999999999999
O 45.87 31.275000000000006 4.169999999999999
O 43.785 33.36000000000001 4.169999999999999
O 41.699999999999996 29.190000000000005 6.254999999999999
O 43.785 31.275000000000006 10.424999999999997
O 45.87 31.275000000000006 8.339999999999998
O 43.785 33.36000000000001 8.339999999999998
O 41.699999999999996 29.190000000000005 10.424999999999997
O 43.785 31.275000000000006 14.594999999999997
O 45.87 31.275000000000006 12.509999999999998
O 43.785 33.36000000000001 12.509999999999998
O 41.699999999999996 29.190000000000005 14.594999999999997
O 43.785 31.275000000000006 18.764999999999997
O 45.87 31.275000000000006 16.679999999999996
O 43.785 33.36000000000001 16.679999999999996
O 41.699999999999996 29.190000000000005 18.764999999999997
O 45.87 31.275000000000006 20.849999999999994
O 43.785 33.36000000000001 20.849999999999994
O 43.785 35.44500000000001 2.085
O 45.87 35.44500000000001 0.0
O 43.785 37.53000000000001 0.0
O 41.699999999999996 33.36000000000001 2.085
O 43.785 35.44500000000001 6.254999999999999
O 45.87 35.44500000000001 4.169999999999999
O 43.785 37.53000000000001 4.169999999999999
O 41.699999999999996 33.36000000000001 6.254999999999999
O 43.785 35.44500000000001 10.424999999999997
O 45.87 35.44500000000001 8.339999999999998
O 43.785 37.53000000000001 8.339999999999998
O 41.699999999999996 33.36000000000001 10.424999999999997
O 43.785 35.44500000000001 14.594999999999997
O 45.87 35.44500000000001 12.509999999999998
O 43.785 37.53000000000001 12.509999999999998
O 41.699999999999996 33.36000000000001 14.594999999999997
O 43.785 35.44500000000001 18.764999999999997
O 45.87 35.44500000000001 16.679999999999996
O 43.785 37.53000000000001 16.679999999999996
O 41.699999999999996 33.36000000000001 18.764999999999997
O 43.785 35.44500000000001 22.934999999999995
O 45.87 35.44500000000001 20.849999999999994
O 43.785 37.53000000000001 20.849999999999994
O 41.699999999999996 33.36000000000001 22.934999999999995
O 45.87 35.44500000000001 25.019999999999996
O 43.785 37.53000000000001 25.019999999999996
O 43.785 39.615 2.085
O 45.87 39.615 0.0
O 43.785 2.7318179660128058e-15 0.0
O 41.699999999999996 37.53 2.085
O 43.785 39.615 6.254999999999999
O 45.87 39.615 4.169999999999999
O 43.785 2.7318179660128058e-15 4.169999999999999
O 41.699999999999996 37.53 6.254999999999999
O 43.785 39.615 10.424999999999997
O 45.87 39.615 8.339999999999998
O 43.785 2.7318179660128058e-15 8.339999999999998
O 41.699999999999996 37.53 10.424999999999997
O 43.785 39.615 14.594999999999997
O 45.87 39.615 12.509999999999998
O 43.785 2.7318179660128058e-15 12.509999999999998
O 41.699999999999996 37.53 14.594999999999997
O 43.785 39.615 18.764999999999997
O 45.87 39.615 16.679999999999996
O 43.785 2.7318179660128058e-15 16.679999999999996
O 41.699999999999996 37.53 18.764999999999997
O 43.785 39.615 22.934999999999995
O 45.87 39.615 20.849999999999994
O 43.785 2.7318179660128058e-15 20.849999999999994
O 41.699999999999996 37.53 22.934999999999995
O 43.785 39.615 27.104999999999997
O 45.87 39.615 25.019999999999996
O 43.785 2.7318179660128058e-15 25.019999999999996
O 41.699999999999996 37.53 27.104999999999997
O 47.955 2.085 2.085
O 50.04 2.085 0.0
O 47.955 4.17 0.0
O 45.87 0.0 2.085
O 47.955 2.085 6.254999999999999
O 50.04 2.085 4.169999999999999
O 47.955 4.17 4.169999999999999
O 45.87 0.0 6.254999999999999
O 47.955 2.085 10.424999999999997
O 50.04 2.085 8.339999999999998
O 47.955 4.17 8.339999999999998
O 45.87 0.0 10.424999999999997
O 47.955 2.085 14.594999999999997
O 50.04 2.085 12.509999999999998
O 47.955 4.17 12.509999999999998
O 45.87 0.0 14.594999999999997
O 47.955 2.085 18.764999999999997
O 50.04 2.085 16.679999999999996
O 47.955 4.17 16.679999999999996
O 45.87 0.0 18.764999999999997
O 47.955 2.085 22.934999999999995
O 50.04 2.085 20.849999999999994
O 47.955 4.17 20.849999999999994
O 45.87 0.0 22.934999999999995
O 47.955 2.085 27.104999999999997
O 50.04 2.085 25.019999999999996
O 47.955 4.17 25.019999999999996
O 45.87 0.0 27.104999999999997
O 47.955 6.255000000000002 2.085
O 50.04 6.255000000000002 0.0
O 47.955 8.34 0.0
O 45.87 4.170000000000001 2.085
O 47.955 6.255000000000002 6.254999999999999
O 50.04 6.255000000000002 4.169999999999999
O 47.955 8.34 4.169999999999999
O 45.87 4.170000000000001 6.254999999999999
O 47.955 6.255000000000002 10.424999999999997
O 50.04 6.255000000000002 8.339999999999998
O 47.955 8.34 8.339999999999998
O 45.87 4.170000000000001 10.424999999999997
O 47.955 6.255000000000002 14.594999999999997
O 50.04 6.255000000000002 12.509999999999998
O 47.955 8.34 12.509999999999998
O 45.87 4.170000000000001 14.594999999999997
O 47.955 6.255000000000002 18.764999999999997
O 50.04 6.255000000000002 16.679999999999996
O 47.955 8.34 16.679999999999996
O 45.87 4.170000000000001 18.764999999999997
O 47.955 6.255000000000002 22.934999999999995
O 50.04 6.255000000000002 20.849999999999994
O 47.955 8.34 20.849999999999994
O 45.87 4.170000000000001 22.934999999999995
O 50.04 6.255000000000002 25.019999999999996
O 45.87 4.170000000000001 27.104999999999997
O 47.955 10.425 2.085
O 50.04 10.425 0.0
O 47.955 12.510000000000003 0.0
O 45.87 8.340000000000002 2.085
O 47.955 10.425 6.254999999999999
O 50.04 10.425 4.169999999999999
O 47.955 12.510000000000003 4.169999999999999
O 45.87 8.340000000000002 6.254999999999999
O 47.955 10.425 10.424999999999997
O 50.04 10.425 8.339999999999998
O 47.955 12.510000000000003 8.339999999999998
O 45.87 8.340000000000002 10.424999999999997
O 47.955 10.425 14.594999999999997
O 50.04 10.425 12.509999999999998
O 47.955 12.510000000000003 12.509999999999998
O 45.87 8.340000000000002 14.594999999999997
O 47.955 10.425 18.764999999999997
O 50.04 10.425 16.679999999999996
O 47.955 12.510000000000003 16.679999999999996
O 45.87 8.340000000000002 18.764999999999997
O 50.04 10.425 20.849999999999994
O 45.87 8.340000000000002 22.934999999999995
O 47.955 14.595000000000002 2.085
O 50.04 14.595000000000002 0.0
O 47.955 16.680000000000003 0.0
O 45.87 12.510000000000003 2.085
O 47.955 14.595000000000002 6.254999999999999
O 50.04 14.595000000000002 4.169999999999999
O 47.955 16.680000000000003 4.169999999999999
O 45.87 12.510000000000003 6.254999999999999
O 47.955 14.595000000000002 10.424999999999997
O 50.04 14.595000000000002 8.339999999999998
O 47.955 16.680000000000003 8.339999999999998
O 45.87 12.510000000000003 10.424999999999997
O 47.955 14.595000000000002 14.594999999999997
O 50.04 14.595000000000002 12.509999999999998
O 47.955 16.680000000000003 12.509999999999998
O 45.87 12.510000000000003 14.594999999999997
O 50.04 14.595000000000002 16.679999999999996
O 45.87 12.510000000000003 18.764999999999997
O 47.955 18.765000000000004 2.085
O 50.04 18.765000000000004 0.0
O 47.955 20.849999999999998 0.0
O 45.87 16.680000000000003 2.085
O 47.955 18.765000000000004 6.254999999999999
O 50.04 18.765000000000004 4.169999999999999
O 47.955 20.849999999999998 4.169999999999999
O 45.87 16.680000000000003 6.254999999999999
O 47.955 18.765000000000004 10.424999999999997
O 50.04 18.765000000000004 8.339999999999998
O 47.955 20.849999999999998 8.339999999999998
O 45.87 16.680000000000003 10.424999999999997
O 50.04 18.765000000000004 12.509999999999998
O 45.87 16.680000000000003 14.594999999999997
O 47.955 22.935000000000002 2.085
O 50.04 22.935000000000002 0.0
O 47.955 25.020000000000007 0.0
O 45.87 20.849999999999998 2.085
O 47.955 22.935000000000002 6.254999999999999
O 50.04 22.935000000000002 4.169999999999999
O 47.955 25.020000000000007 4.169999999999999
O 45.87 20.849999999999998 6.254999999999999
O 47.955 22.935000000000002 10.424999999999997
O 50.04 22.935000000000002 8.339999999999998
O 47.955 25.020000000000007 8.339999999999998
O 45.87 20.849999999999998 10.424999999999997
O 50.04 22.935000000000002 12.509999999999998
O 47.955 25.020000000000007 12.509999999999998
O 47.955 27.105000000000008 2.085
O 50.04 27.105000000000008 0.0
O 47.955 29.190000000000005 0.0
O 45.87 25.020000000000007 2.085
O 47.955 27.105000000000008 6.254999999999999
O 50.04 27.105000000000008 4.169999999999999
O 47.955 29.190000000000005 4.169999999999999
O 45.87 25.020000000000007 6.254999999999999
O 47.955 27.105000000000008 10.424999999999997
O 50.04 27.105000000000008 8.339999999999998
O 47.955 29.190000000000005 8.339999999999998
O 45.87 25.020000000000007 10.424999999999997
O 47.955 27.105000000000008 14.594999999999997
O 50.04 27.105000000000008 12.509999999999998
O 47.955 29.190000000000005 12.509999999999998
O 45.87 25.020000000000007 14.594999999999997
O 50.04 27.105000000000008 16.679999999999996
O 47.955 29.190000000000005 16.679999999999996
O 47.955 31.275000000000006 2.085
O 50.04 31.275000000000006 0.0
O 47.955 33.36000000000001 0.0
O 45.87 29.190000000000005 2.085
O 47.955 31.275000000000006 6.254999999999999
O 50.04 31.275000000000006 4.169999999999999
O 47.955 33.36000000000001 4.169999999999999
O 45.87 29.190000000000005 6.254999999999999
O 47.955 31.275000000000006 10.424999999999997
O 50.04 31.275000000000006 8.339999999999998
O 47.955 33.36000000000001 8.339999999999998
O 45.87 29.190000000000005 10.424999999999997
O 47.955 31.275000000000006 14.594999999999997
O 50.04 31.275000000000006 12.509999999999998
O 47.955 33.36000000000001 12.509999999999998
O 45.87 29.190000000000005 14.594999999999997
O 47.955 31.275000000000006 18.764999999999997
O 50.04 31.275000000000006 16.679999999999996
O 47.955 33.36000000000001 16.679999999999996
O 45.87 29.190000000000005 18.764999999999997
O 50.04 31.275000000000006 20.849999999999994
O 47.955 33.36000000000001 20.849999999999994
O 47.955 35.44500000000001 2.085
O 50.04 35.44500000000001 0.0
O 47.955 37.53000000000001 0.0
O 45.87 33.36000000000001 2.085
O 47.955 35.44500000000001 6.254999999999999
O 50.04 35.44500000000001 4.169999999999999
O 47.955 37.53000000000001 4.169999999999999
O 45.87 33.36000000000001 6.254999999999999
O 47.955 35.44500000000001 10.424999999999997
O 50.04 35.44500000000001 8.339999999999998
O 47.955 37.53000000000001 8.339999999999998
O 45.87 33.36000000000001 10.424999999999997
O 47.955 35.44500000000001 14.594999999999997
O 50.04 35.44500000000001 12.509999999999998
O 47.955 37.53000000000001 12.509999999999998
O 45.87 33.36000000000001 14.594999999999997
O 47.955 35.44500000000001 18.764999999999997
O 50.04 35.44500000000001 16.679999999999996
O 47.955 37.53000000000001 16.679999999999996
O 45.87 33.36000000000001 18.764999999999997
O 47.955 35.44500000000001 22.934999999999995
O 50.04 35.44500000000001 20.849999999999994
O 47.955 37.53000000000001 20.849999999999994
O 45.87 33.36000000000001 22.934999999999995
O 50.04 35.44500000000001 25.019999999999996
O 47.955 37.53000000000001 25.019999999999996
O 47.955 39.615 2.085
O 50.04 39.615 0.0
O 47.955 2.7318179660128058e-15 0.0
O 45.87 37.53 2.085
O 47.955 39.615 6.254999999999999
O 50.04 39.615 4.169999999999999
O 47.955 2.7318179660128058e-15 4.169999999999999
O 45.87 37.53 6.254999999999999
O 47.955 39.615 10.424999999999997
O 50.04 39.615 8.339999999999998
O 47.955 2.7318179660128058e-15 8.339999999999998
O 45.87 37.53 10.424999999999997
O 47.955 39.615 14.594999999999997
O 50.04 39.615 12.509999999999998
O 47.955 2.7318179660128058e-15 12.509999999999998
O 45.87 37.53 14.594999999999997
O 47.955 39.615 18.764999999999997
O 50.04 39.615 16.679999999999996
O 47.955 2.7318179660128058e-15 16.679999999999996
O 45.87 37.53 18.764999999999997
O 47.955 39.615 22.934999999999995
O 50.04 39.615 20.849999999999994
O 47.955 2.7318179660128058e-15 20.849999999999994
O 45.87 37.53 22.934999999999995
O 47.955 39.615 27.104999999999997
O 50.04 39.615 25.019999999999996
O 47.955 2.7318179660128058e-15 25.019999999999996
O 45.87 37.53 27.104999999999997
O 52.125 2.085 2.085
O 54.21 2.085 0.0
O 52.125 4.17 0.0
O 50.04 0.0 2.085
O 52.125 2.085 6.254999999999999
O 54.21 2.085 4.169999999999999
O 52.125 4.17 4.169999999999999
O 50.04 0.0 6.254999999999999
O 52.125 2.085 10.424999999999997
O 54.21 2.085 8.339999999999998
O 52.125 4.17 8.339999999999998
O 50.04 0.0 10.424999999999997
O 52.125 2.085 14.594999999999997
O 54.21 2.085 12.509999999999998
O 52.125 4.17 12.509999999999998
O 50.04 0.0 14.594999999999997
O 52.125 2.085 18.764999999999997
O 54.21 2.085 16.679999999999996
O 52.125 4.17 16.679999999999996
O 50.04 0.0 18.764999999999997
O 52.125 2.085 22.934999999999995
O 54.21 2.085 20.849999999999994
O 52.125 4.17 20.849999999999994
O 50.04 0.0 22.934999999999995
O 52.125 2.085 27.104999999999997
O 54.21 2.085 25.019999999999996
O 52.125 4.17 25.019999999999996
O 50.04 0.0 27.104999999999997
O 52.125 6.255000000000002 2.085
O 54.21 6.255000000000002 0.0
O 52.125 8.34 0.0
O 50.04 4.170000000000001 2.085
O 52.125 6.255000000000002 6.254999999999999
O 54.21 6.255000000000002 4.169999999999999
O 52.125 8.34 4.169999999999999
O 50.04 4.170000000000001 6.254999999999999
O 52.125 6.255000000000002 10.424999999999997
O 54.21 6.255000000000002 8.339999999999998
O 52.125 8.34 8.339999999999998
O 50.04 4.170000000000001 10.424999999999997
O 52.125 6.255000000000002 14.594999999999997
O 54.21 6.255000000000002 12.509999999999998
O 52.125 8.34 12.509999999999998
O 50.04 4.170000000000001 14.594999999999997
O 52.125 6.255000000000002 18.764999999999997
O 54.21 6.255000000000002 16.679999999999996
O 52.125 8.34 16.679999999999996
O 50.04 4.170000000000001 18.764999999999997
O 52.125 6.255000000000002 22.934999999999995
O 54.21 6.255000000000002 20.849999999999994
O 52.125 8.34 20.849999999999994
O 50.04 4.170000000000001 22.934999999999995
O 54.21 6.255000000000002 25.019999999999996
O 50.04 4.170000000000001 27.104999999999997
O 52.125 10.425 2.085
O 54.21 10.425 0.0
O 52.125 12.510000000000003 0.0
O 50.04 8.340000000000002 2.085
O 52.125 10.425 6.254999999999999
O 54.21 10.425 4.169999999999999
O 52.125 12.510000000000003 4.169999999999999
O 50.04 8.340000000000002 6.254999999999999
O 52.125 10.425 10.424999999999997
O 54.21 10.425 8.339999999999998
O 52.125 12.510000000000003 8.339999999999998
O 50.04 8.340000000000002 10.424999999999997
O 52.125 10.425 14.594999999999997
O 54.21 10.425 12.509999999999998
O 52.125 12.510000000000003 12.509999999999998
O 50.04 8.340000000000002 14.594999999999997
O 52.125 10.425 18.764999999999997
O 54.21 10.425 16.679999999999996
O 52.125 12.510000000000003 16.679999999999996
O 50.04 8.340000000000002 18.764999999999997
O 54.21 10.425 20.849999999999994
O 50.04 8.340000000000002 22.934999999999995
O 52.125 14.595000000000002 2.085
O 54.21 14.595000000000002 0.0
O 52.125 16.680000000000003 0.0
O 50.04 12.510000000000003 2.085
O 52.125 14.595000000000002 6.254999999999999
O 54.21 14.595000000000002 4.169999999999999
O 52.125 16.680000000000003 4.169999999999999
O 50.04 12.510000000000003 6.254999999999999
O 52.125 14.595000000000002 10.424999999999997
O 54.21 14.595000000000002 8.339999999999998
O 52.125 16.680000000000003 8.339999999999998
O 50.04 12.510000000000003 10.424999999999997
O 52.125 14.595000000000002 14.594999999999997
O 54.21 14.595000000000002 12.509999999999998
O 52.125 16.680000000000003 12.509999999999998
O 50.04 12.510000000000003 14.594999999999997
O 54.21 14.595000000000002 16.679999999999996
O 50.04 12.510000000000003 18.764999999999997
O 52.125 18.765000000000004 2.085
O 54.21 18.765000000000004 0.0
O 52.125 20.849999999999998 0.0
O 50.04 16.680000000000003 2.085
O 52.125 18.765000000000004 6.254999999999999
O 54.21 18.765000000000004 4.169999999999999
O 52.125 20.849999999999998 4.169999999999999
O 50.04 16.680000000000003 6.254999999999999
O 52.125 18.765000000000004 10.424999999999997
O 54.21 18.765000000000004 8.339999999999998
O 52.125 20.849999999999998 8.339999999999998
O 50.04 16.680000000000003 10.424999999999997
O 54.21 18.765000000000004 12.509999999999998
O 50.04 16.680000000000003 14.594999999999997
O 52.125 22.935000000000002 2.085
O 54.21 22.935000000000002 0.0
O 52.125 25.020000000000007 0.0
O 50.04 20.849999999999998 2.085
O 52.125 22.935000000000002 6.254999999999999
O 54.21 22.935000000000002 4.169999999999999
O 52.125 25.020000000000007 4.169999999999999
O 50.04 20.849999999999998 6.254999999999999
O 52.125 22.935000000000002 10.424999999999997
O 54.21 22.935000000000002 8.339999999999998
O 52.125 25.020000000000007 8.339999999999998
O 50.04 20.849999999999998 10.424999999999997
O 54.21 22.935000000000002 12.509999999999998
O 52.125 25.020000000000007 12.509999999999998
O 52.125 27.105000000000008 2.085
O 54.21 27.105000000000008 0.0
O 52.125 29.190000000000005 0.0
O 50.04 25.020000000000007 2.085
O 52.125 27.105000000000008 6.254999999999999
O 54.21 27.105000000000008 4.169999999999999
O 52.125 29.190000000000005 4.169999999999999
O 50.04 25.020000000000007 6.254999999999999
O 52.125 27.105000000000008 10.424999999999997
O 54.21 27.105000000000008 8.339999999999998
O 52.125 29.190000000000005 8.339999999999998
O 50.04 25.020000000000007 10.424999999999997
O 52.125 27.105000000000008 14.594999999999997
O 54.21 27.105000000000008 12.509999999999998
O 52.125 29.190000000000005 12.509999999999998
O 50.04 25.020000000000007 14.594999999999997
O 54.21 27.105000000000008 16.679999999999996
O 52.125 29.190000000000005 16.679999999999996
O 52.125 31.275000000000006 2.085
O 54.21 31.275000000000006 0.0
O 52.125 33.36000000000001 0.0
O 50.04 29.190000000000005 2.085
O 52.125 31.275000000000006 6.254999999999999
O 54.21 31.275000000000006 4.169999999999999
O 52.125 33.36000000000001 4.169999999999999
O 50.04 29.190000000000005 6.254999999999999
O 52.125 31.275000000000006 10.424999999999997
O 54.21 31.275000000000006 8.339999999999998
O 52.125 33.36000000000001 8.339999999999998
O 50.04 29.190000000000005 10.424999999999997
O 52.125 31.275000000000006 14.594999999999997
O 54.21 31.275000000000006 12.509999999999998
O 52.125 33.36000000000001 12.509999999999998
O 50.04 29.190000000000005 14.594999999999997
O 52.125 31.275000000000006 18.764999999999997
O 54.21 31.275000000000006 16.679999999999996
O 52.125 33.36000000000001 16.679999999999996
O 50.04 29.190000000000005 18.764999999999997
O 54.21 31.275000000000006 20.849999999999994
O 52.125 33.36000000000001 20.849999999999994
O 52.125 35.44500000000001 2.085
O 54.21 35.44500000000001 0.0
O 52.125 37.53000000000001 0.0
O 50.04 33.36000000000001 2.085
O 52.125 35.44500000000001 6.254999999999999
O 54.21 35.44500000000001 4.169999999999999
O 52.125 37.53000000000001 4.169999999999999
O 50.04 33.36000000000001 6.254999999999999
O 52.125 35.44500000000001 10.424999999999997
O 54.21 35.44500000000001 8.339999999999998
O 52.125 37.53000000000001 8.339999999999998
O 50.04 33.36000000000001 10.424999999999997
O 52.125 35.44500000000001 14.594999999999997
O 54.21 35.44500000000001 12.509999999999998
O 52.125 37.53000000000001 12.509999999999998
O 50.04 33.36000000000001 14.594999999999997
O 52.125 35.44500000000001 18.764999999999997
O 54.21 35.44500000000001 16.679999999999996
O 52.125 37.53000000000001 16.679999999999996
O 50.04 33.36000000000001 18.764999999999997
O 52.125 35.44500000000001 22.934999999999995
O 54.21 35.44500000000001 20.849999999999994
O 52.125 37.53000000000001 20.849999999999994
O 50.04 33.36000000000001 22.934999999999995
O 54.21 35.44500000000001 25.019999999999996
O 52.125 37.53000000000001 25.019999999999996
O 52.125 39.615 2.085
O 54.21 39.615 0.0
O 52.125 2.7318179660128058e-15 0.0
O 50.04 37.53 2.085
O 52.125 39.615 6.254999999999999
O 54.21 39.615 4.169999999999999
O 52.125 2.7318179660128058e-15 4.169999999999999
O 50.04 37.53 6.254999999999999
O 52.125 39.615 10.424999999999997
O 54.21 39.615 8.339999999999998
O 52.125 2.7318179660128058e-15 8.339999999999998
O 50.04 37.53 10.424999999999997
O 52.125 39.615 14.594999999999997
O 54.21 39.615 12.509999999999998
O 52.125 2.7318179660128058e-15 12.509999999999998
O 50.04 37.53 14.594999999999997
O 52.125 39.615 18.764999999999997
O 54.21 39.615 16.679999999999996
O 52.125 2.7318179660128058e-15 16.679999999999996
O 50.04 37.53 18.764999999999997
O 52.125 39.615 22.934999999999995
O 54.21 39.615 20.849999999999994
O 52.125 2.7318179660128058e-15 20.849999999999994
O 50.04 37.53 22.934999999999995
O 52.125 39.615 27.104999999999997
O 54.21 39.615 25.019999999999996
O 52.125 2.7318179660128058e-15 25.019999999999996
O 50.04 37.53 27.104999999999997
O 56.295 2.085 2.085
O 58.38 2.085 0.0
O 56.295 4.17 0.0
O 54.21 0.0 2.085
O 56.295 2.085 6.254999999999999
O 58.38 2.085 4.169999999999999
O 56.295 4.17 4.169999999999999
O 54.21 0.0 6.254999999999999
O 56.295 2.085 10.424999999999997
O 58.38 2.085 8.339999999999998
O 56.295 4.17 8.339999999999998
O 54.21 0.0 10.424999999999997
O 56.295 2.085 14.594999999999997
O 58.38 2.085 12.509999999999998
O 56.295 4.17 12.509999999999998
O 54.21 0.0 14.594999999999997
O 56.295 2.085 18.764999999999997
O 58.38 2.085 16.679999999999996
O 56.295 4.17 16.679999999999996
O 54.21 0.0 18.764999999999997
O 56.295 2.085 22.934999999999995
O 58.38 2.085 20.849999999999994
O 56.295 4.17 20.849999999999994
O 54.21 0.0 22.934999999999995
O 56.295 2.085 27.104999999999997
O 58.38 2.085 25.019999999999996
O 56.295 4.17 25.019999999999996
O 54.21 0.0 27.104999999999997
O 56.295 6.255000000000002 2.085
O 58.38 6.255000000000002 0.0
O 56.295 8.34 0.0
O 54.21 4.170000000000001 2.085
O 56.295 6.255000000000002 6.254999999999999
O 58.38 6.255000000000002 4.169999999999999
O 56.295 8.34 4.169999999999999
O 54.21 4.170000000000001 6.254999999999999
O 56.295 6.255000000000002 10.424999999999997
O 58.38 6.255000000000002 8.339999999999998
O 56.295 8.34 8.339999999999998
O 54.21 4.170000000000001 10.424999999999997
O 56.295 6.255000000000002 14.594999999999997
O 58.38 6.255000000000002 12.509999999999998
O 56.295 8.34 12.509999999999998
O 54.21 4.170000000000001 14.594999999999997
O 56.295 6.255000000000002 18.764999999999997
O 58.38 6.255000000000002 16.679999999999996
O 56.295 8.34 16.679999999999996
O 54.21 4.170000000000001 18.764999999999997
O 56.295 6.255000000000002 22.934999999999995
O 58.38 6.255000000000002 20.849999999999994
O 56.295 8.34 20.849999999999994
O 54.21 4.170000000000001 22.934999999999995
O 58.38 6.255000000000002 25.019999999999996
O 54.21 4.170000000000001 27.104999999999997
O 56.295 10.425 2.085
O 58.38 10.425 0.0
O 56.295 12.510000000000003 0.0
O 54.21 8.340000000000002 2.085
O 56.295 10.425 6.254999999999999
O 58.38 10.425 4.169999999999999
O 56.295 12.510000000000003 4.169999999999999
O 54.21 8.340000000000002 6.254999999999999
O 56.295 10.425 10.424999999999997
O 58.38 10.425 8.339999999999998
O 56.295 12.510000000000003 8.339999999999998
O 54.21 8.340000000000002 10.424999999999997
O 56.295 10.425 14.594999999999997
O 58.38 10.425 12.509999999999998
O 56.295 12.510000000000003 12.509999999999998
O 54.21 8.340000000000002 14.594999999999997
O 56.295 10.425 18.764999999999997
O 58.38 10.425 16.679999999999996
O 56.295 12.510000000000003 16.679999999999996
O 54.21 8.340000000000002 18.764999999999997
O 58.38 10.425 20.849999999999994
O 54.21 8.340000000000002 22.934999999999995
O 56.295 14.595000000000002 2.085
O 58.38 14.595000000000002 0.0
O 56.295 16.680000000000003 0.0
O 54.21 12.510000000000003 2.085
O 56.295 14.595000000000002 6.254999999999999
O 58.38 14.595000000000002 4.169999999999999
O 56.295 16.680000000000003 4.169999999999999
O 54.21 12.510000000000003 6.254999999999999
O 56.295 14.595000000000002 10.424999999999997
O 58.38 14.595000000000002 8.339999999999998
O 56.295 16.680000000000003 8.339999999999998
O 54.21 12.510000000000003 10.424999999999997
O 56.295 14.595000000000002 14.594999999999997
O 58.38 14.595000000000002 12.509999999999998
O 56.295 16.680000000000003 12.509999999999998
O 54.21 12.510000000000003 14.594999999999997
O 58.38 14.595000000000002 16.679999999999996
O 54.21 12.510000000000003 18.764999999999997
O 56.295 18.765000000000004 2.085
O 58.38 18.765000000000004 0.0
O 56.295 20.849999999999998 0.0
O 54.21 16.680000000000003 2.085
O 56.295 18.765000000000004 6.254999999999999
O 58.38 18.765000000000004 4.169999999999999
O 56.295 20.849999999999998 4.169999999999999
O 54.21 16.680000000000003 6.254999999999999
O 56.295 18.765000000000004 10.424999999999997
O 58.38 18.765000000000004 8.339999999999998
O 56.295 20.849999999999998 8.339999999999998
O 54.21 16.680000000000003 10.424999999999997
O 58.38 18.765000000000004 12.509999999999998
O 54.21 16.680000000000003 14.594999999999997
O 56.295 22.935000000000002 2.085
O 58.38 22.935000000000002 0.0
O 56.295 25.020000000000007 0.0
O 54.21 20.849999999999998 2.085
O 56.295 22.935000000000002 6.254999999999999
O 58.38 22.935000000000002 4.169999999999999
O 56.295 25.020000000000007 4.169999999999999
O 54.21 20.849999999999998 6.254999999999999
O 56.295 22.935000000000002 10.424999999999997
O 58.38 22.935000000000002 8.339999999999998
O 56.295 25.020000000000007 8.339999999999998
O 54.21 20.849999999999998 10.424999999999997
O 58.38 22.935000000000002 12.509999999999998
O 56.295 25.020000000000007 12.509999999999998
O 56.295 27.105000000000008 2.085
O 58.38 27.105000000000008 0.0
O 56.295 29.190000000000005 0.0
O 54.21 25.020000000000007 2.085
O 56.295 27.105000000000008 6.254999999999999
O 58.38 27.105000000000008 4.169999999999999
O 56.295 29.190000000000005 4.169999999999999
O 54.21 25.020000000000007 6.254999999999999
O 56.295 27.105000000000008 10.424999999999997
O 58.38 27.105000000000008 8.339999999999998
O 56.295 29.190000000000005 8.339999999999998
O 54.21 25.020000000000007 10.424999999999997
O 56.295 27.105000000000008 14.594999999999997
O 58.38 27.105000000000008 12.509999999999998
O 56.295 29.190000000000005 12.509999999999998
O 54.21 25.020000000000007 14.594999999999997
O 58.38 27.105000000000008 16.679999999999996
O 56.295 29.190000000000005 16.679999999999996
O 56.295 31.275000000000006 2.085
O 58.38 31.275000000000006 0.0
O 56.295 33.36000000000001 0.0
O 54.21 29.190000000000005 2.085
O 56.295 31.275000000000006 6.254999999999999
O 58.38 31.275000000000006 4.169999999999999
O 56.295 33.36000000000001 4.169999999999999
O 54.21 29.190000000000005 6.254999999999999
O 56.295 31.275000000000006 10.424999999999997
O 58.38 31.275000000000006 8.339999999999998
O 56.295 33.36000000000001 8.339999999999998
O 54.21 29.190000000000005 10.424999999999997
O 56.295 31.275000000000006 14.594999999999997
O 58.38 31.275000000000006 12.509999999999998
O 56.295 33.36000000000001 12.509999999999998
O 54.21 29.190000000000005 14.594999999999997
O 56.295 31.275000000000006 18.764999999999997
O 58.38 31.275000000000006 16.679999999999996
O 56.295 33.36000000000001 16.679999999999996
O 54.21 29.190000000000005 18.764999999999997
O 58.38 31.275000000000006 20.849999999999994
O 56.295 33.36000000000001 20.849999999999994
O 56.295 35.44500000000001 2.085
O 58.38 35.44500000000001 0.0
O 56.295 37.53000000000001 0.0
O 54.21 33.36000000000001 2.085
O 56.295 35.44500000000001 6.254999999999999
O 58.38 35.44500000000001 4.169999999999999
O 56.295 37.53000000000001 4.169999999999999
O 54.21 33.36000000000001 6.254999999999999
O 56.295 35.44500000000001 10.424999999999997
O 58.38 35.44500000000001 8.339999999999998
O 56.295 37.53000000000001 8.339999999999998
O 54.21 33.36000000000001 10.424999999999997
O 56.295 35.44500000000001 14.594999999999997
O 58.38 35.44500000000001 12.509999999999998
O 56.295 37.53000000000001 12.509999999999998
O 54.21 33.36000000000001 14.594999999999997
O 56.295 35.44500000000001 18.764999999999997
O 58.38 35.44500000000001 16.679999999999996
O 56.295 37.53000000000001 16.679999999999996
O 54.21 33.36000000000001 18.764999999999997
O 56.295 35.44500000000001 22.934999999999995
O 58.38 35.44500000000001 20.849999999999994
O 56.295 37.53000000000001 20.849999999999994
O 54.21 33.36000000000001 22.934999999999995
O 58.38 35.44500000000001 25.019999999999996
O 56.295 37.53000000000001 25.019999999999996
O 56.295 39.615 2.085
O 58.38 39.615 0.0
O 56.295 2.7318179660128058e-15 0.0
O 54.21 37.53 2.085
O 56.295 39.615 6.254999999999999
O 58.38 39.615 4.169999999999999
O 56.295 2.7318179660128058e-15 4.169999999999999
O 54.21 37.53 6.254999999999999
O 56.295 39.615 10.424999999999997
O 58.38 39.615 8.339999999999998
O 56.295 2.7318179660128058e-15 8.339999999999998
O 54.21 37.53 10.424999999999997
O 56.295 39.615 14.594999999999997
O 58.38 39.615 12.509999999999998
O 56.295 2.7318179660128058e-15 12.509999999999998
O 54.21 37.53 14.594999999999997
O 56.295 39.615 18.764999999999997
O 58.38 39.615 16.679999999999996
O 56.295 2.7318179660128058e-15 16.679999999999996
O 54.21 37.53 18.764999999999997
O 56.295 39.615 22.934999999999995
O 58.38 39.615 20.849999999999994
O 56.295 2.7318179660128058e-15 20.849999999999994
O 54.21 37.53 22.934999999999995
O 56.295 39.615 27.104999999999997
O 58.38 39.615 25.019999999999996
O 56.295 2.7318179660128058e-15 25.019999999999996
O 54.21 37.53 27.104999999999997
O 60.464999999999996 2.085 2.085
O 62.54999999999999 2.085 0.0
O 60.464999999999996 4.17 0.0
O 58.379999999999995 0.0 2.085
O 60.464999999999996 2.085 6.254999999999999
O 62.54999999999999 2.085 4.169999999999999
O 60.464999999999996 4.17 4.169999999999999
O 58.379999999999995 0.0 6.254999999999999
O 60.464999999999996 2.085 10.424999999999997
O 62.54999999999999 2.085 8.339999999999998
O 60.464999999999996 4.17 8.339999999999998
O 58.379999999999995 0.0 10.424999999999997
O 60.464999999999996 2.085 14.594999999999997
O 62.54999999999999 2.085 12.509999999999998
O 60.464999999999996 4.17 12.509999999999998
O 58.379999999999995 0.0 14.594999999999997
O 60.464999999999996 2.085 18.764999999999997
O 62.54999999999999 2.085 16.679999999999996
O 60.464999999999996 4.17 16.679999999999996
O 58.379999999999995 0.0 18.764999999999997
O 60.464999999999996 2.085 22.934999999999995
O 62.54999999999999 2.085 20.849999999999994
O 60.464999999999996 4.17 20.849999999999994
O 58.379999999999995 0.0 22.934999999999995
O 60.464999999999996 2.085 27.104999999999997
O 62.54999999999999 2.085 25.019999999999996
O 60.464999999999996 4.17 25.019999999999996
O 58.379999999999995 0.0 27.104999999999997
O 60.464999999999996 6.255000000000002 2.085
O 62.54999999999999 6.255000000000002 0.0
O 60.464999999999996 8.34 0.0
O 58.379999999999995 4.170000000000001 2.085
O 60.464999999999996 6.255000000000002 6.254999999999999
O 62.54999999999999 6.255000000000002 4.169999999999999
O 60.464999999999996 8.34 4.169999999999999
O 58.379999999999995 4.170000000000001 6.254999999999999
O 60.464999999999996 6.255000000000002 10.424999999999997
O 62.54999999999999 6.255000000000002 8.339999999999998
O 60.464999999999996 8.34 8.339999999999998
O 58.379999999999995 4.170000000000001 10.424999999999997
O 60.464999999999996 6.255000000000002 14.594999999999997
O 62.54999999999999 6.255000000000002 12.509999999999998
O 60.464999999999996 8.34 12.509999999999998
O 58.379999999999995 4.170000000000001 14.594999999999997
O 60.464999999999996 6.255000000000002 18.764999999999997
O 62.54999999999999 6.255000000000002 16.679999999999996
O 60.464999999999996 8.34 16.679999999999996
O 58.379999999999995 4.170000000000001 18.764999999999997
O 60.464999999999996 6.255000000000002 22.934999999999995
O 62.54999999999999 6.255000000000002 20.849999999999994
O 60.464999999999996 8.34 20.849999999999994
O 58.379999999999995 4.170000000000001 22.934999999999995
O 62.54999999999999 6.255000000000002 25.019999999999996
O 58.379999999999995 4.170000000000001 27.104999999999997
O 60.464999999999996 10.425 2.085
O 62.54999999999999 10.425 0.0
O 60.464999999999996 12.510000000000003 0.0
O 58.379999999999995 8.340000000000002 2.085
O 60.464999999999996 10.425 6.254999999999999
O 62.54999999999999 10.425 4.169999999999999
O 60.464999999999996 12.510000000000003 4.169999999999999
O 58.379999999999995 8.340000000000002 6.254999999999999
O 60.464999999999996 10.425 10.424999999999997
O 62.54999999999999 10.425 8.339999999999998
O 60.464999999999996 12.510000000000003 8.339999999999998
O 58.379999999999995 8.340000000000002 10.424999999999997
O 60.464999999999996 10.425 14.594999999999997
O 62.54999999999999 10.425 12.509999999999998
O 60.464999999999996 12.510000000000003 12.509999999999998
O 58.379999999999995 8.340000000000002 14.594999999999997
O 60.464999999999996 10.425 18.764999999999997
O 62.54999999999999 10.425 16.679999999999996
O 60.464999999999996 12.510000000000003 16.679999999999996
O 58.379999999999995 8.340000000000002 18.764999999999997
O 62.54999999999999 10.425 20.849999999999994
O 58.379999999999995 8.340000000000002 22.934999999999995
O 60.464999999999996 14.595000000000002 2.085
O 62.54999999999999 14.595000000000002 0.0
O 60.464999999999996 16.680000000000003 0.0
O 58.379999999999995 12.510000000000003 2.085
O 60.464999999999996 14.595000000000002 6.254999999999999
O 62.54999999999999 14.595000000000002 4.169999999999999
O 60.464999999999996 16.680000000000003 4.169999999999999
O 58.379999999999995 12.510000000000003 6.254999999999999
O 60.464999999999996 14.595000000000002 10.424999999999997
O 62.54999999999999 14.595000000000002 8.339999999999998
O 60.464999999999996 16.680000000000003 8.339999999999998
O 58.379999999999995 12.510000000000003 10.424999999999997
O 60.464999999999996 14.595000000000002 14.594999999999997
O 62.54999999999999 14.595000000000002 12.509999999999998
O 60.464999999999996 16.680000000000003 12.509999999999998
O 58.379999999999995 12.510000000000003 14.594999999999997
O 62.54999999999999 14.595000000000002 16.679999999999996
O 58.379999999999995 12.510000000000003 18.764999999999997
O 60.464999999999996 18.765000000000004 2.085
O 62.54999999999999 18.765000000000004 0.0
O 60.464999999999996 20.849999999999998 0.0
O 58.379999999999995 16.680000000000003 2.085
O 60.464999999999996 18.765000000000004 6.254999999999999
O 62.54999999999999 18.765000000000004 4.169999999999999
O 60.464999999999996 20.849999999999998 4.169999999999999
O 58.379999999999995 16.680000000000003 6.254999999999999
O 60.464999999999996 18.765000000000004 10.424999999999997
O 62.54999999999999 18.765000000000004 8.339999999999998
O 60.464999999999996 20.849999999999998 8.339999999999998
O 58.379999999999995 16.680000000000003 10.424999999999997
O 62.54999999999999 18.765000000000004 12.509999999999998
O 58.379999999999995 16.680000000000003 14.594999999999997
O 60.464999999999996 22.935000000000002 2.085
O 62.54999999999999 22.935000000000002 0.0
O 60.464999999999996 25.020000000000007 0.0
O 58.379999999999995 20.849999999999998 2.085
O 60.464999999999996 22.935000000000002 6.254999999999999
O 62.54999999999999 22.935000000000002 4.169999999999999
O 60.464999999999996 25.020000000000007 4.169999999999999
O 58.379999999999995 20.849999999999998 6.254999999999999
O 60.464999999999996 22.935000000000002 10.424999999999997
O 62.54999999999999 22.935000000000002 8.339999999999998
O 60.464999999999996 25.020000000000007 8.339999999999998
O 58.379999999999995 20.849999999999998 10.424999999999997
O 62.54999999999999 22.935000000000002 12.509999999999998
O 60.464999999999996 25.020000000000007 12.509999999999998
O 60.464999999999996 27.105000000000008 2.085
O 62.54999999999999 27.105000000000008 0.0
O 60.464999999999996 29.190000000000005 0.0
O 58.379999999999995 25.020000000000007 2.085
O 60.464999999999996 27.105000000000008 6.254999999999999
O 62.54999999999999 27.105000000000008 4.169999999999999
O 60.464999999999996 29.190000000000005 4.169999999999999
O 58.379999999999995 25.020000000000007 6.254999999999999
O 60.464999999999996 27.105000000000008 10.424999999999997
O 62.54999999999999 27.105000000000008 8.339999999999998
O 60.464999999999996 29.190000000000005 8.339999999999998
O 58.379999999999995 25.020000000000007 10.424999999999997
O 60.464999999999996 27.105000000000008 14.594999999999997
O 62.54999999999999 27.105000000000008 12.509999999999998
O 60.464999999999996 29.190000000000005 12.509999999999998
O 58.379999999999995 25.020000000000007 14.594999999999997
O 62.54999999999999 27.105000000000008 16.679999999999996
O 60.464999999999996 29.190000000000005 16.679999999999996
O 60.464999999999996 31.275000000000006 2.085
O 62.54999999999999 31.275000000000006 0.0
O 60.464999999999996 33.36000000000001 0.0
O 58.379999999999995 29.190000000000005 2.085
O 60.464999999999996 31.275000000000006 6.254999999999999
O 62.54999999999999 31.275000000000006 4.169999999999999
O 60.464999999999996 33.36000000000001 4.169999999999999
O 58.379999999999995 29.190000000000005 6.254999999999999
O 60.464999999999996 31.275000000000006 10.424999999999997
O 62.54999999999999 31.275000000000006 8.339999999999998
O 60.464999999999996 33.36000000000001 8.339999999999998
O 58.379999999999995 29.190000000000005 10.424999999999997
O 60.464999999999996 31.275000000000006 14.594999999999997
O 62.54999999999999 31.275000000000006 12.509999999999998
O 60.464999999999996 33.36000000000001 12.509999999999998
O 58.379999999999995 29.190000000000005 14.594999999999997
O 60.464999999999996 31.275000000000006 18.764999999999997
O 62.54999999999999 31.275000000000006 16.679999999999996
O 60.464999999999996 33.36000000000001 16.679999999999996
O 58.379999999999995 29.190000000000005 18.764999999999997
O 62.54999999999999 31.275000000000006 20.849999999999994
O 60.464999999999996 33.36000000000001 20.849999999999994
O 60.464999999999996 35.44500000000001 2.085
O 62.54999999999999 35.44500000000001 0.0
O 60.464999999999996 37.53000000000001 0.0
O 58.379999999999995 33.36000000000001 2.085
O 60.464999999999996 35.44500000000001 6.254999999999999
O 62.54999999999999 35.44500000000001 4.169999999999999
O 60.464999999999996 37.53000000000001 4.169999999999999
O 58.379999999999995 33.36000000000001 6.254999999999999
O 60.464999999999996 35.44500000000001 10.424999999999997
O 62.54999999999999 35.44500000000001 8.339999999999998
O 60.464999999999996 37.53000000000001 8.339999999999998
O 58.379999999999995 33.36000000000001 10.424999999999997
O 60.464999999999996 35.44500000000001 14.594999999999997
O 62.54999999999999 35.44500000000001 12.509999999999998
O 60.464999999999996 37.53000000000001 12.509999999999998
O 58.379999999999995 33.36000000000001 14.594999999999997
O 60.464999999999996 35.44500000000001 18.764999999999997
O 62.54999999999999 35.44500000000001 16.679999999999996
O 60.464999999999996 37.53000000000001 16.679999999999996
O 58.379999999999995 33.36000000000001 18.764999999999997
O 60.464999999999996 35.44500000000001 22.934999999999995
O 62.54999999999999 35.44500000000001 20.849999999999994
O 60.464999999999996 37.53000000000001 20.849999999999994
O 58.379999999999995 33.36000000000001 22.934999999999995
O 62.54999999999999 35.44500000000001 25.019999999999996
O 60.464999999999996 37.53000000000001 25.019999999999996
O 60.464999999999996 39.615 2.085
O 62.54999999999999 39.615 0.0
O 60.464999999999996 2.7318179660128058e-15 0.0
O 58.379999999999995 37.53 2.085
O 60.464999999999996 39.615 6.254999999999999
O 62.54999999999999 39.615 4.169999999999999
O 60.464999999999996 2.7318179660128058e-15 4.169999999999999
O 58.379999999999995 37.53 6.254999999999999
O 60.464999999999996 39.615 10.424999999999997
O 62.54999999999999 39.615 8.339999999999998
O 60.464999999999996 2.7318179660128058e-15 8.339999999999998
O 58.379999999999995 37.53 10.424999999999997
O 60.464999999999996 39.615 14.594999999999997
O 62.54999999999999 39.615 12.509999999999998
O 60.464999999999996 2.7318179660128058e-15 12.509999999999998
O 58.379999999999995 37.53 14.594999999999997
O 60.464999999999996 39.615 18.764999999999997
O 62.54999999999999 39.615 16.679999999999996
O 60.464999999999996 2.7318179660128058e-15 16.679999999999996
O 58.379999999999995 37.53 18.764999999999997
O 60.464999999999996 39.615 22.934999999999995
O 62.54999999999999 39.615 20.849999999999994
O 60.464999999999996 2.7318179660128058e-15 20.849999999999994
O 58.379999999999995 37.53 22.934999999999995
O 60.464999999999996 39.615 27.104999999999997
O 62.54999999999999 39.615 25.019999999999996
O 60.464999999999996 2.7318179660128058e-15 25.019999999999996
O 58.379999999999995 37.53 27.104999999999997
O 64.63499999999999 2.085 2.085
O 66.72 2.085 0.0
O 64.63499999999999 4.17 0.0
O 62.54999999999999 0.0 2.085
O 64.63499999999999 2.085 6.254999999999999
O 66.72 2.085 4.169999999999999
O 64.63499999999999 4.17 4.169999999999999
O 62.54999999999999 0.0 6.254999999999999
O 64.63499999999999 2.085 10.424999999999997
O 66.72 2.085 8.339999999999998
O 64.63499999999999 4.17 8.339999999999998
O 62.54999999999999 0.0 10.424999999999997
O 64.63499999999999 2.085 14.594999999999997
O 66.72 2.085 12.509999999999998
O 64.63499999999999 4.17 12.509999999999998
O 62.54999999999999 0.0 14.594999999999997
O 64.63499999999999 2.085 18.764999999999997
O 66.72 2.085 16.679999999999996
O 64.63499999999999 4.17 16.679999999999996
O 62.54999999999999 0.0 18.764999999999997
O 64.63499999999999 2.085 22.934999999999995
O 66.72 2.085 20.849999999999994
O 64.63499999999999 4.17 20.849999999999994
O 62.54999999999999 0.0 22.934999999999995
O 64.63499999999999 2.085 27.104999999999997
O 66.72 2.085 25.019999999999996
O 64.63499999999999 4.17 25.019999999999996
O 62.54999999999999 0.0 27.104999999999997
O 64.63499999999999 6.255000000000002 2.085
O 66.72 6.255000000000002 0.0
O 64.63499999999999 8.34 0.0
O 62.54999999999999 4.170000000000001 2.085
O 64.63499999999999 6.255000000000002 6.254999999999999
O 66.72 6.255000000000002 4.169999999999999
O 64.63499999999999 8.34 4.169999999999999
O 62.54999999999999 4.170000000000001 6.254999999999999
O 64.63499999999999 6.255000000000002 10.424999999999997
O 66.72 6.255000000000002 8.339999999999998
O 64.63499999999999 8.34 8.339999999999998
O 62.54999999999999 4.170000000000001 10.424999999999997
O 64.63499999999999 6.255000000000002 14.594999999999997
O 66.72 6.255000000000002 12.509999999999998
O 64.63499999999999 8.34 12.509999999999998
O 62.54999999999999 4.170000000000001 14.594999999999997
O 64.63499999999999 6.255000000000002 18.764999999999997
O 66.72 6.255000000000002 16.679999999999996
O 64.63499999999999 8.34 16.679999999999996
O 62.54999999999999 4.170000000000001 18.764999999999997
O 64.63499999999999 6.255000000000002 22.934999999999995
O 66.72 6.255000000000002 20.849999999999994
O 64.63499999999999 8.34 20.849999999999994
O 62.54999999999999 4.170000000000001 22.934999999999995
O 66.72 6.255000000000002 25.019999999999996
O 62.54999999999999 4.170000000000001 27.104999999999997
O 64.63499999999999 10.425 2.085
O 66.72 10.425 0.0
O 64.63499999999999 12.510000000000003 0.0
O 62.54999999999999 8.340000000000002 2.085
O 64.63499999999999 10.425 6.254999999999999
O 66.72 10.425 4.169999999999999
O 64.63499999999999 12.510000000000003 4.169999999999999
O 62.54999999999999 8.340000000000002 6.254999999999999
O 64.63499999999999 10.425 10.424999999999997
O 66.72 10.425 8.339999999999998
O 64.63499999999999 12.510000000000003 8.339999999999998
O 62.54999999999999 8.340000000000002 10.424999999999997
O 64.63499999999999 10.425 14.594999999999997
O 66.72 10.425 12.509999999999998
O 64.63499999999999 12.510000000000003 12.509999999999998
O 62.54999999999999 8.340000000000002 14.594999999999997
O 64.63499999999999 10.425 18.764999999999997
O 66.72 10.425 16.679999999999996
O 64.63499999999999 12.510000000000003 16.679999999999996
O 62.54999999999999 8.340000000000002 18.764999999999997
O 66.72 10.425 20.849999999999994
O 62.54999999999999 8.340000000000002 22.934999999999995
O 64.63499999999999 14.595000000000002 2.085
O 66.72 14.595000000000002 0.0
O 64.63499999999999 16.680000000000003 0.0
O 62.54999999999999 12.510000000000003 2.085
O 64.63499999999999 14.595000000000002 6.254999999999999
O 66.72 14.595000000000002 4.169999999999999
O 64.63499999999999 16.680000000000003 4.169999999999999
O 62.54999999999999 12.510000000000003 6.254999999999999
O 64.63499999999999 14.595000000000002 10.424999999999997
O 66.72 14.595000000000002 8.339999999999998
O 64.63499999999999 16.680000000000003 8.339999999999998
O 62.54999999999999 12.510000000000003 10.424999999999997
O 64.63499999999999 14.595000000000002 14.594999999999997
O 66.72 14.595000000000002 12.509999999999998
O 64.63499999999999 16.680000000000003 12.509999999999998
O 62.54999999999999 12.510000000000003 14.594999999999997
O 66.72 14.595000000000002 16.679999999999996
O 62.54999999999999 12.510000000000003 18.764999999999997
O 64.63499999999999 18.765000000000004 2.085
O 66.72 18.765000000000004 0.0
O 64.63499999999999 20.849999999999998 0.0
O 62.54999999999999 16.680000000000003 2.085
O 64.63499999999999 18.765000000000004 6.254999999999999
O 66.72 18.765000000000004 4.169999999999999
O 64.63499999999999 20.849999999999998 4.169999999999999
O 62.54999999999999 16.680000000000003 6.254999999999999
O 64.63499999999999 18.765000000000004 10.424999999999997
O 66.72 18.765000000000004 8.339999999999998
O 64.63499999999999 20.849999999999998 8.339999999999998
O 62.54999999999999 16.680000000000003 10.424999999999997
O 66.72 18.765000000000004 12.509999999999998
O 62.54999999999999 16.680000000000003 14.594999999999997
O 64.63499999999999 22.935000000000002 2.085
O 66.72 22.935000000000002 0.0
O 64.63499999999999 25.020000000000007 0.0
O 62.54999999999999 20.849999999999998 2.085
O 64.63499999999999 22.935000000000002 6.254999999999999
O 66.72 22.935000000000002 4.169999999999999
O 64.63499999999999 25.020000000000007 4.169999999999999
O 62.54999999999999 20.849999999999998 6.254999999999999
O 64.63499999999999 22.935000000000002 10.424999999999997
O 66.72 22.935000000000002 8.339999999999998
O 64.63499999999999 25.020000000000007 8.339999999999998
O 62.54999999999999 20.849999999999998 10.424999999999997
O 66.72 22.935000000000002 12.509999999999998
O 64.63499999999999 25.020000000000007 12.509999999999998
O 64.63499999999999 27.105000000000008 2.085
O 66.72 27.105000000000008 0.0
O 64.63499999999999 29.190000000000005 0.0
O 62.54999999999999 25.020000000000007 2.085
O 64.63499999999999 27.105000000000008 6.254999999999999
O 66.72 27.105000000000008 4.169999999999999
O 64.63499999999999 29.190000000000005 4.169999999999999
O 62.54999999999999 25.020000000000007 6.254999999999999
O 64.63499999999999 27.105000000000008 10.424999999999997
O 66.72 27.105000000000008 8.339999999999998
O 64.63499999999999 29.190000000000005 8.339999999999998
O 62.54999999999999 25.020000000000007 10.424999999999997
O 64.63499999999999 27.105000000000008 14.594999999999997
O 66.72 27.105000000000008 12.509999999999998
O 64.63499999999999 29.190000000000005 12.509999999999998
O 62.54999999999999 25.020000000000007 14.594999999999997
O 66.72 27.105000000000008 16.679999999999996
O 64.63499999999999 29.190000000000005 16.679999999999996
O 64.63499999999999 31.275000000000006 2.085
O 66.72 31.275000000000006 0.0
O 64.63499999999999 33.36000000000001 0.0
O 62.54999999999999 29.190000000000005 2.085
O 64.63499999999999 31.275000000000006 6.254999999999999
O 66.72 31.275000000000006 4.169999999999999
O 64.63499999999999 33.36000000000001 4.169999999999999
O 62.54999999999999 29.190000000000005 6.254999999999999
O 64.63499999999999 31.275000000000006 10.424999999999997
O 66.72 31.275000000000006 8.339999999999998
O 64.63499999999999 33.36000000000001 8.339999999999998
O 62.54999999999999 29.190000000000005 10.424999999999997
O 64.63499999999999 31.275000000000006 14.594999999999997
O 66.72 31.275000000000006 12.509999999999998
O 64.63499999999999 33.36000000000001 12.509999999999998
O 62.54999999999999 29.190000000000005 14.594999999999997
O 64.63499999999999 31.275000000000006 18.764999999999997
O 66.72 31.275000000000006 16.679999999999996
O 64.63499999999999 33.36000000000001 16.679999999999996
O 62.54999999999999 29.190000000000005 18.764999999999997
O 66.72 31.275000000000006 20.849999999999994
O 64.63499999999999 33.36000000000001 20.849999999999994
O 64.63499999999999 35.44500000000001 2.085
O 66.72 35.44500000000001 0.0
O 64.63499999999999 37.53000000000001 0.0
O 62.54999999999999 33.36000000000001 2.085
O 64.63499999999999 35.44500000000001 6.254999999999999
O 66.72 35.44500000000001 4.169999999999999
O 64.63499999999999 37.53000000000001 4.169999999999999
O 62.54999999999999 33.36000000000001 6.254999999999999
O 64.63499999999999 35.44500000000001 10.424999999999997
O 66.72 35.44500000000001 8.339999999999998
O 64.63499999999999 37.53000000000001 8.339999999999998
O 62.54999999999999 33.36000000000001 10.424999999999997
O 64.63499999999999 35.44500000000001 14.594999999999997
O 66.72 35.44500000000001 12.509999999999998
O 64.63499999999999 37.53000000000001 12.509999999999998
O 62.54999999999999 33.36000000000001 14.594999999999997
O 64.63499999999999 35.44500000000001 18.764999999999997
O 66.72 35.44500000000001 16.679999999999996
O 64.63499999999999 37.53000000000001 16.679999999999996
O 62.54999999999999 33.36000000000001 18.764999999999997
O 64.63499999999999 35.44500000000001 22.934999999999995
O 66.72 35.44500000000001 20.849999999999994
O 64.63499999999999 37.53000000000001 20.849999999999994
O 62.54999999999999 33.36000000000001 22.934999999999995
O 66.72 35.44500000000001 25.019999999999996
O 64.63499999999999 37.53000000000001 25.019999999999996
O 64.63499999999999 39.615 2.085
O 66.72 39.615 0.0
O 64.63499999999999 2.7318179660128058e-15 0.0
O 62.54999999999999 37.53 2.085
O 64.63499999999999 39.615 6.254999999999999
O 66.72 39.615 4.169999999999999
O 64.63499999999999 2.7318179660128058e-15 4.169999999999999
O 62.54999999999999 37.53 6.254999999999999
O 64.63499999999999 39.615 10.424999999999997
O 66.72 39.615 8.339999999999998
O 64.63499999999999 2.7318179660128058e-15 8.339999999999998
O 62.54999999999999 37.53 10.424999999999997
O 64.63499999999999 39.615 14.594999999999997
O 66.72 39.615 12.509999999999998
O 64.63499999999999 2.7318179660128058e-15 12.509999999999998
O 62.54999999999999 37.53 14.594999999999997
O 64.63499999999999 39.615 18.764999999999997
O 66.72 39.615 16.679999999999996
O 64.63499999999999 2.7318179660128058e-15 16.679999999999996
O 62.54999999999999 37.53 18.764999999999997
O 64.63499999999999 39.615 22.934999999999995
O 66.72 39.615 20.849999999999994
O 64.63499999999999 2.7318179660128058e-15 20.849999999999994
O 62.54999999999999 37.53 22.934999999999995
O 64.63499999999999 39.615 27.104999999999997
O 66.72 39.615 25.019999999999996
O 64.63499999999999 2.7318179660128058e-15 25.019999999999996
O 62.54999999999999 37.53 27.104999999999997
O 68.80499999999999 2.085 2.085
O 70.89 2.085 0.0
O 68.80499999999999 4.17 0.0
O 66.72 0.0 2.085
O 68.80499999999999 2.085 6.254999999999999
O 70.89 2.085 4.169999999999999
O 68.80499999999999 4.17 4.169999999999999
O 66.72 0.0 6.254999999999999
O 68.80499999999999 2.085 10.424999999999997
O 70.89 2.085 8.339999999999998
O 68.80499999999999 4.17 8.339999999999998
O 66.72 0.0 10.424999999999997
O 68.80499999999999 2.085 14.594999999999997
O 70.89 2.085 12.509999999999998
O 68.80499999999999 4.17 12.509999999999998
O 66.72 0.0 14.594999999999997
O 68.80499999999999 2.085 18.764999999999997
O 70.89 2.085 16.679999999999996
O 68.80499999999999 4.17 16.679999999999996
O 66.72 0.0 18.764999999999997
O 68.80499999999999 2.085 22.934999999999995
O 70.89 2.085 20.849999999999994
O 68.80499999999999 4.17 20.849999999999994
O 66.72 0.0 22.934999999999995
O 68.80499999999999 2.085 27.104999999999997
O 70.89 2.085 25.019999999999996
O 68.80499999999999 4.17 25.019999999999996
O 66.72 0.0 27.104999999999997
O 68.80499999999999 6.255000000000002 2.085
O 70.89 6.255000000000002 0.0
O 68.80499999999999 8.34 0.0
O 66.72 4.170000000000001 2.085
O 68.80499999999999 6.255000000000002 6.254999999999999
O 70.89 6.255000000000002 4.169999999999999
O 68.80499999999999 8.34 4.169999999999999
O 66.72 4.170000000000001 6.254999999999999
O 68.80499999999999 6.255000000000002 10.424999999999997
O 70.89 6.255000000000002 8.339999999999998
O 68.80499999999999 8.34 8.339999999999998
O 66.72 4.170000000000001 10.424999999999997
O 68.80499999999999 6.255000000000002 14.594999999999997
O 70.89 6.255000000000002 12.509999999999998
O 68.80499999999999 8.34 12.509999999999998
O 66.72 4.170000000000001 14.594999999999997
O 68.80499999999999 6.255000000000002 18.764999999999997
O 70.89 6.255000000000002 16.679999999999996
O 68.80499999999999 8.34 16.679999999999996
O 66.72 4.170000000000001 18.764999999999997
O 68.80499999999999 6.255000000000002 22.934999999999995
O 70.89 6.255000000000002 20.849999999999994
O 68.80499999999999 8.34 20.849999999999994
O 66.72 4.170000000000001 22.934999999999995
O 70.89 6.255000000000002 25.019999999999996
O 66.72 4.170000000000001 27.104999999999997
O 68.80499999999999 10.425 2.085
O 70.89 10.425 0.0
O 68.80499999999999 12.510000000000003 0.0
O 66.72 8.340000000000002 2.085
O 68.80499999999999 10.425 6.254999999999999
O 70.89 10.425 4.169999999999999
O 68.80499999999999 12.510000000000003 4.169999999999999
O 66.72 8.340000000000002 6.254999999999999
O 68.80499999999999 10.425 10.424999999999997
O 70.89 10.425 8.339999999999998
O 68.80499999999999 12.510000000000003 8.339999999999998
O 66.72 8.340000000000002 10.424999999999997
O 68.80499999999999 10.425 14.594999999999997
O 70.89 10.425 12.509999999999998
O 68.80499999999999 12.510000000000003 12.509999999999998
O 66.72 8.340000000000002 14.594999999999997
O 68.80499999999999 10.425 18.764999999999997
O 70.89 10.425 16.679999999999996
O 68.80499999999999 12.510000000000003 16.679999999999996
O 66.72 8.340000000000002 18.764999999999997
O 70.89 10.425 20.849999999999994
O 66.72 8.340000000000002 22.934999999999995
O 68.80499999999999 14.595000000000002 2.085
O 70.89 14.595000000000002 0.0
O 68.80499999999999 16.680000000000003 0.0
O 66.72 12.510000000000003 2.085
O 68.80499999999999 14.595000000000002 6.254999999999999
O 70.89 14.595000000000002 4.169999999999999
O 68.80499999999999 16.680000000000003 4.169999999999999
O 66.72 12.510000000000003 6.254999999999999
O 68.80499999999999 14.595000000000002 10.424999999999997
O 70.89 14.595000000000002 8.339999999999998
O 68.80499999999999 16.680000000000003 8.339999999999998
O 66.72 12.510000000000003 10.424999999999997
O 68.80499999999999 14.595000000000002 14.594999999999997
O 70.89 14.595000000000002 12.509999999999998
O 68.80499999999999 16.680000000000003 12.509999999999998
O 66.72 12.510000000000003 14.594999999999997
O 70.89 14.595000000000002 16.679999999999996
O 66.72 12.510000000000003 18.764999999999997
O 68.80499999999999 18.765000000000004 2.085
O 70.89 18.765000000000004 0.0
O 68.80499999999999 20.849999999999998 0.0
O 66.72 16.680000000000003 2.085
O 68.80499999999999 18.765000000000004 6.254999999999999
O 70.89 18.765000000000004 4.169999999999999
O 68.80499999999999 20.849999999999998 4.169999999999999
O 66.72 16.680000000000003 6.254999999999999
O 68.80499999999999 18.765000000000004 10.424999999999997
O 70.89 18.765000000000004 8.339999999999998
O 68.80499999999999 20.849999999999998 8.339999999999998
O 66.72 16.680000000000003 10.424999999999997
O 70.89 18.765000000000004 12.509999999999998
O 66.72 16.680000000000003 14.594999999999997
O 68.80499999999999 22.935000000000002 2.085
O 70.89 22.935000000000002 0.0
O 68.80499999999999 25.020000000000007 0.0
O 66.72 20.849999999999998 2.085
O 68.80499999999999 22.935000000000002 6.254999999999999
O 70.89 22.935000000000002 4.169999999999999
O 68.80499999999999 25.020000000000007 4.169999999999999
O 66.72 20.849999999999998 6.254999999999999
O 68.80499999999999 22.935000000000002 10.424999999999997
O 70.89 22.935000000000002 8.339999999999998
O 68.80499999999999 25.020000000000007 8.339999999999998
O 66.72 20.849999999999998 10.424999999999997
O 70.89 22.935000000000002 12.509999999999998
O 68.80499999999999 25.020000000000007 12.509999999999998
O 68.80499999999999 27.105000000000008 2.085
O 70.89 27.105000000000008 0.0
O 68.80499999999999 29.190000000000005 0.0
O 66.72 25.020000000000007 2.085
O 68.80499999999999 27.105000000000008 6.254999999999999
O 70.89 27.105000000000008 4.169999999999999
O 68.80499999999999 29.190000000000005 4.169999999999999
O 66.72 25.020000000000007 6.254999999999999
O 68.80499999999999 27.105000000000008 10.424999999999997
O 70.89 27.105000000000008 8.339999999999998
O 68.80499999999999 29.190000000000005 8.339999999999998
O 66.72 25.020000000000007 10.424999999999997
O 68.80499999999999 27.105000000000008 14.594999999999997
O 70.89 27.105000000000008 12.509999999999998
O 68.80499999999999 29.190000000000005 12.509999999999998
O 66.72 25.020000000000007 14.594999999999997
O 70.89 27.105000000000008 16.679999999999996
O 68.80499999999999 29.190000000000005 16.679999999999996
O 68.80499999999999 31.275000000000006 2.085
O 70.89 31.275000000000006 0.0
O 68.80499999999999 33.36000000000001 0.0
O 66.72 29.190000000000005 2.085
O 68.80499999999999 31.275000000000006 6.254999999999999
O 70.89 31.275000000000006 4.169999999999999
O 68.80499999999999 33.36000000000001 4.169999999999999
O 66.72 29.190000000000005 6.254999999999999
O 68.80499999999999 31.275000000000006 10.424999999999997
O 70.89 31.275000000000006 8.339999999999998
O 68.80499999999999 33.36000000000001 8.339999999999998
O 66.72 29.190000000000005 10.424999999999997
O 68.80499999999999 31.275000000000006 14.594999999999997
O 70.89 31.275000000000006 12.509999999999998
O 68.80499999999999 33.36000000000001 12.509999999999998
O 66.72 29.190000000000005 14.594999999999997
O 68.80499999999999 31.275000000000006 18.764999999999997
O 70.89 31.275000000000006 16.679999999999996
O 68.80499999999999 33.36000000000001 16.679999999999996
O 66.72 29.190000000000005 18.764999999999997
O 70.89 31.275000000000006 20.849999999999994
O 68.80499999999999 33.36000000000001 20.849999999999994
O 68.80499999999999 35.44500000000001 2.085
O 70.89 35.44500000000001 0.0
O 68.80499999999999 37.53000000000001 0.0
O 66.72 33.36000000000001 2.085
O 68.80499999999999 35.44500000000001 6.254999999999999
O 70.89 35.44500000000001 4.169999999999999
O 68.80499999999999 37.53000000000001 4.169999999999999
O 66.72 33.36000000000001 6.254999999999999
O 68.80499999999999 35.44500000000001 10.424999999999997
O 70.89 35.44500000000001 8.339999999999998
O 68.80499999999999 37.53000000000001 8.339999999999998
O 66.72 33.36000000000001 10.424999999999997
O 68.80499999999999 35.44500000000001 14.594999999999997
O 70.89 35.44500000000001 12.509999999999998
O 68.80499999999999 37.53000000000001 12.509999999999998
O 66.72 33.36000000000001 14.594999999999997
O 68.80499999999999 35.44500000000001 18.764999999999997
O 70.89 35.44500000000001 16.679999999999996
O 68.80499999999999 37.53000000000001 16.679999999999996
O 66.72 33.36000000000001 18.764999999999997
O 68.80499999999999 35.44500000000001 22.934999999999995
O 70.89 35.44500000000001 20.849999999999994
O 68.80499999999999 37.53000000000001 20.849999999999994
O 66.72 33.36000000000001 22.934999999999995
O 70.89 35.44500000000001 25.019999999999996
O 68.80499999999999 37.53000000000001 25.019999999999996
O 68.80499999999999 39.615 2.085
O 70.89 39.615 0.0
O 68.80499999999999 2.7318179660128058e-15 0.0
O 66.72 37.53 2.085
O 68.80499999999999 39.615 6.254999999999999
O 70.89 39.615 4.169999999999999
O 68.80499999999999 2.7318179660128058e-15 4.169999999999999
O 66.72 37.53 6.254999999999999
O 68.80499999999999 39.615 10.424999999999997
O 70.89 39.615 8.339999999999998
O 68.80499999999999 2.7318179660128058e-15 8.339999999999998
O 66.72 37.53 10.424999999999997
O 68.80499999999999 39.615 14.594999999999997
O 70.89 39.615 12.509999999999998
O 68.80499999999999 2.7318179660128058e-15 12.509999999999998
O 66.72 37.53 14.594999999999997
O 68.80499999999999 39.615 18.764999999999997
O 70.89 39.615 16.679999999999996
O 68.80499999999999 2.7318179660128058e-15 16.679999999999996
O 66.72 37.53 18.764999999999997
O 68.80499999999999 39.615 22.934999999999995
O 70.89 39.615 20.849999999999994
O 68.80499999999999 2.7318179660128058e-15 20.849999999999994
O 66.72 37.53 22.934999999999995
O 68.80499999999999 39.615 27.104999999999997
O 70.89 39.615 25.019999999999996
O 68.80499999999999 2.7318179660128058e-15 25.019999999999996
O 66.72 37.53 27.104999999999997
O 72.975 2.085 2.085
O 75.06 2.085 0.0
O 72.975 4.17 0.0
O 70.89 0.0 2.085
O 72.975 2.085 6.254999999999999
O 75.06 2.085 4.169999999999999
O 72.975 4.17 4.169999999999999
O 70.89 0.0 6.254999999999999
O 72.975 2.085 10.424999999999997
O 75.06 2.085 8.339999999999998
O 72.975 4.17 8.339999999999998
O 70.89 0.0 10.424999999999997
O 72.975 2.085 14.594999999999997
O 75.06 2.085 12.509999999999998
O 72.975 4.17 12.509999999999998
O 70.89 0.0 14.594999999999997
O 72.975 2.085 18.764999999999997
O 75.06 2.085 16.679999999999996
O 72.975 4.17 16.679999999999996
O 70.89 0.0 18.764999999999997
O 72.975 2.085 22.934999999999995
O 75.06 2.085 20.849999999999994
O 72.975 4.17 20.849999999999994
O 70.89 0.0 22.934999999999995
O 72.975 2.085 27.104999999999997
O 75.06 2.085 25.019999999999996
O 72.975 4.17 25.019999999999996
O 70.89 0.0 27.104999999999997
O 72.975 6.255000000000002 2.085
O 75.06 6.255000000000002 0.0
O 72.975 8.34 0.0
O 70.89 4.170000000000001 2.085
O 72.975 6.255000000000002 6.254999999999999
O 75.06 6.255000000000002 4.169999999999999
O 72.975 8.34 4.169999999999999
O 70.89 4.170000000000001 6.254999999999999
O 72.975 6.255000000000002 10.424999999999997
O 75.06 6.255000000000002 8.339999999999998
O 72.975 8.34 8.339999999999998
O 70.89 4.170000000000001 10.424999999999997
O 72.975 6.255000000000002 14.594999999999997
O 75.06 6.255000000000002 12.509999999999998
O 72.975 8.34 12.509999999999998
O 70.89 4.170000000000001 14.594999999999997
O 72.975 6.255000000000002 18.764999999999997
O 75.06 6.255000000000002 16.679999999999996
O 72.975 8.34 16.679999999999996
O 70.89 4.170000000000001 18.764999999999997
O 72.975 6.255000000000002 22.934999999999995
O 75.06 6.255000000000002 20.849999999999994
O 72.975 8.34 20.849999999999994
O 70.89 4.170000000000001 22.934999999999995
O 75.06 6.255000000000002 25.019999999999996
O 70.89 4.170000000000001 27.104999999999997
O 72.975 10.425 2.085
O 75.06 10.425 0.0
O 72.975 12.510000000000003 0.0
O 70.89 8.340000000000002 2.085
O 72.975 10.425 6.254999999999999
O 75.06 10.425 4.169999999999999
O 72.975 12.510000000000003 4.169999999999999
O 70.89 8.340000000000002 6.254999999999999
O 72.975 10.425 10.424999999999997
O 75.06 10.425 8.339999999999998
O 72.975 12.510000000000003 8.339999999999998
O 70.89 8.340000000000002 10.424999999999997
O 72.975 10.425 14.594999999999997
O 75.06 10.425 12.509999999999998
O 72.975 12.510000000000003 12.509999999999998
O 70.89 8.340000000000002 14.594999999999997
O 72.975 10.425 18.764999999999997
O 75.06 10.425 16.679999999999996
O 72.975 12.510000000000003 16.679999999999996
O 70.89 8.340000000000002 18.764999999999997
O 75.06 10.425 20.849999999999994
O 70.89 8.340000000000002 22.934999999999995
O 72.975 14.595000000000002 2.085
O 75.06 14.595000000000002 0.0
O 72.975 16.680000000000003 0.0
O 70.89 12.510000000000003 2.085
O 72.975 14.595000000000002 6.254999999999999
O 75.06 14.595000000000002 4.169999999999999
O 72.975 16.680000000000003 4.169999999999999
O 70.89 12.510000000000003 6.254999999999999
O 72.975 14.595000000000002 10.424999999999997
O 75.06 14.595000000000002 8.339999999999998
O 72.975 16.680000000000003 8.339999999999998
O 70.89 12.510000000000003 10.424999999999997
O 72.975 14.595000000000002 14.594999999999997
O 75.06 14.595000000000002 12.509999999999998
O 72.975 16.680000000000003 12.509999999999998
O 70.89 12.510000000000003 14.594999999999997
O 75.06 14.595000000000002 16.679999999999996
O 70.89 12.510000000000003 18.764999999999997
O 72.975 18.765000000000004 2.085
O 75.06 18.765000000000004 0.0
O 72.975 20.849999999999998 0.0
O 70.89 16.680000000000003 2.085
O 72.975 18.765000000000004 6.254999999999999
O 75.06 18.765000000000004 4.169999999999999
O 72.975 20.849999999999998 4.169999999999999
O 70.89 16.680000000000003 6.254999999999999
O 72.975 18.765000000000004 10.424999999999997
O 75.06 18.765000000000004 8.339999999999998
O 72.975 20.849999999999998 8.339999999999998
O 70.89 16.680000000000003 10.424999999999997
O 75.06 18.765000000000004 12.509999999999998
O 70.89 16.680000000000003 14.594999999999997
O 72.975 22.935000000000002 2.085
O 75.06 22.935000000000002 0.0
O 72.975 25.020000000000007 0.0
O 70.89 20.849999999999998 2.085
O 72.975 22.935000000000002 6.254999999999999
O 75.06 22.935000000000002 4.169999999999999
O 72.975 25.020000000000007 4.169999999999999
O 70.89 20.849999999999998 6.254999999999999
O 72.975 22.935000000000002 10.424999999999997
O 75.06 22.935000000000002 8.339999999999998
O 72.975 25.020000000000007 8.339999999999998
O 70.89 20.849999999999998 10.424999999999997
O 75.06 22.935000000000002 12.509999999999998
O 72.975 25.020000000000007 12.509999999999998
O 72.975 27.105000000000008 2.085
O 75.06 27.105000000000008 0.0
O 72.975 29.190000000000005 0.0
O 70.89 25.020000000000007 2.085
O 72.975 27.105000000000008 6.254999999999999
O 75.06 27.105000000000008 4.169999999999999
O 72.975 29.190000000000005 4.169999999999999
O 70.89 25.020000000000007 6.254999999999999
O 72.975 27.105000000000008 10.424999999999997
O 75.06 27.105000000000008 8.339999999999998
O 72.975 29.190000000000005 8.339999999999998
O 70.89 25.020000000000007 10.424999999999997
O 72.975 27.105000000000008 14.594999999999997
O 75.06 27.105000000000008 12.509999999999998
O 72.975 29.190000000000005 12.509999999999998
O 70.89 25.020000000000007 14.594999999999997
O 75.06 27.105000000000008 16.679999999999996
O 72.975 29.190000000000005 16.679999999999996
O 72.975 31.275000000000006 2.085
O 75.06 31.275000000000006 0.0
O 72.975 33.36000000000001 0.0
O 70.89 29.190000000000005 2.085
O 72.975 31.275000000000006 6.254999999999999
O 75.06 31.275000000000006 4.169999999999999
O 72.975 33.36000000000001 4.169999999999999
O 70.89 29.190000000000005 6.254999999999999
O 72.975 31.275000000000006 10.424999999999997
O 75.06 31.275000000000006 8.339999999999998
O 72.975 33.36000000000001 8.339999999999998
O 70.89 29.190000000000005 10.424999999999997
O 72.975 31.275000000000006 14.594999999999997
O 75.06 31.275000000000006 12.509999999999998
O 72.975 33.36000000000001 12.509999999999998
O 70.89 29.190000000000005 14.594999999999997
O 72.975 31.275000000000006 18.764999999999997
O 75.06 31.275000000000006 16.679999999999996
O 72.975 33.36000000000001 16.679999999999996
O 70.89 29.190000000000005 18.764999999999997
O 75.06 31.275000000000006 20.849999999999994
O 72.975 33.36000000000001 20.849999999999994
O 72.975 35.44500000000001 2.085
O 75.06 35.44500000000001 0.0
O 72.975 37.53000000000001 0.0
O 70.89 33.36000000000001 2.085
O 72.975 35.44500000000001 6.254999999999999
O 75.06 35.44500000000001 4.169999999999999
O 72.975 37.53000000000001 4.169999999999999
O 70.89 33.36000000000001 6.254999999999999
O 72.975 35.44500000000001 10.424999999999997
O 75.06 35.44500000000001 8.339999999999998
O 72.975 37.53000000000001 8.339999999999998
O 70.89 33.36000000000001 10.424999999999997
O 72.975 35.44500000000001 14.594999999999997
O 75.06 35.44500000000001 12.509999999999998
O 72.975 37.53000000000001 12.509999999999998
O 70.89 33.36000000000001 14.594999999999997
O 72.975 35.44500000000001 18.764999999999997
O 75.06 35.44500000000001 16.679999999999996
O 72.975 37.53000000000001 16.679999999999996
O 70.89 33.36000000000001 18.764999999999997
O 72.975 35.44500000000001 22.934999999999995
O 75.06 35.44500000000001 20.849999999999994
O 72.975 37.53000000000001 20.849999999999994
O 70.89 33.36000000000001 22.934999999999995
O 75.06 35.44500000000001 25.019999999999996
O 72.975 37.53000000000001 25.019999999999996
O 72.975 39.615 2.085
O 75.06 39.615 0.0
O 72.975 2.7318179660128058e-15 0.0
O 70.89 37.53 2.085
O 72.975 39.615 6.254999999999999
O 75.06 39.615 4.169999999999999
O 72.975 2.7318179660128058e-15 4.169999999999999
O 70.89 37.53 6.254999999999999
O 72.975 39.615 10.424999999999997
O 75.06 39.615 8.339999999999998
O 72.975 2.7318179660128058e-15 8.339999999999998
O 70.89 37.53 10.424999999999997
O 72.975 39.615 14.594999999999997
O 75.06 39.615 12.509999999999998
O 72.975 2.7318179660128058e-15 12.509999999999998
O 70.89 37.53 14.594999999999997
O 72.975 39.615 18.764999999999997
O 75.06 39.615 16.679999999999996
O 72.975 2.7318179660128058e-15 16.679999999999996
O 70.89 37.53 18.764999999999997
O 72.975 39.615 22.934999999999995
O 75.06 39.615 20.849999999999994
O 72.975 2.7318179660128058e-15 20.849999999999994
O 70.89 37.53 22.934999999999995
O 72.975 39.615 27.104999999999997
O 75.06 39.615 25.019999999999996
O 72.975 2.7318179660128058e-15 25.019999999999996
O 70.89 37.53 27.104999999999997
O 77.14499999999998 2.085 2.085
O 79.22999999999999 2.085 0.0
O 77.14499999999998 4.17 0.0
O 75.05999999999999 0.0 2.085
O 77.14499999999998 2.085 6.254999999999999
O 79.22999999999999 2.085 4.169999999999999
O 77.14499999999998 4.17 4.169999999999999
O 75.05999999999999 0.0 6.254999999999999
O 77.14499999999998 2.085 10.424999999999997
O 79.22999999999999 2.085 8.339999999999998
O 77.14499999999998 4.17 8.339999999999998
O 75.05999999999999 0.0 10.424999999999997
O 77.14499999999998 2.085 14.594999999999997
O 79.22999999999999 2.085 12.509999999999998
O 77.14499999999998 4.17 12.509999999999998
O 75.05999999999999 0.0 14.594999999999997
O 77.14499999999998 2.085 18.764999999999997
O 79.22999999999999 2.085 16.679999999999996
O 77.14499999999998 4.17 16.679999999999996
O 75.05999999999999 0.0 18.764999999999997
O 77.14499999999998 2.085 22.934999999999995
O 79.22999999999999 2.085 20.849999999999994
O 77.14499999999998 4.17 20.849999999999994
O 75.05999999999999 0.0 22.934999999999995
O 77.14499999999998 2.085 27.104999999999997
O 79.22999999999999 2.085 25.019999999999996
O 77.14499999999998 4.17 25.019999999999996
O 75.05999999999999 0.0 27.104999999999997
O 77.14499999999998 6.255000000000002 2.085
O 79.22999999999999 6.255000000000002 0.0
O 77.14499999999998 8.34 0.0
O 75.05999999999999 4.170000000000001 2.085
O 77.14499999999998 6.255000000000002 6.254999999999999
O 79.22999999999999 6.255000000000002 4.169999999999999
O 77.14499999999998 8.34 4.169999999999999
O 75.05999999999999 4.170000000000001 6.254999999999999
O 77.14499999999998 6.255000000000002 10.424999999999997
O 79.22999999999999 6.255000000000002 8.339999999999998
O 77.14499999999998 8.34 8.339999999999998
O 75.05999999999999 4.170000000000001 10.424999999999997
O 77.14499999999998 6.255000000000002 14.594999999999997
O 79.22999999999999 6.255000000000002 12.509999999999998
O 77.14499999999998 8.34 12.509999999999998
O 75.05999999999999 4.170000000000001 14.594999999999997
O 77.14499999999998 6.255000000000002 18.764999999999997
O 79.22999999999999 6.255000000000002 16.679999999999996
O 77.14499999999998 8.34 16.679999999999996
O 75.05999999999999 4.170000000000001 18.764999999999997
O 77.14499999999998 6.255000000000002 22.934999999999995
O 79.22999999999999 6.255000000000002 20.849999999999994
O 77.14499999999998 8.34 20.849999999999994
O 75.05999999999999 4.170000000000001 22.934999999999995
O 79.22999999999999 6.255000000000002 25.019999999999996
O 75.05999999999999 4.170000000000001 27.104999999999997
O 77.14499999999998 10.425 2.085
O 79.22999999999999 10.425 0.0
O 77.14499999999998 12.510000000000003 0.0
O 75.05999999999999 8.340000000000002 2.085
O 77.14499999999998 10.425 6.254999999999999
O 79.22999999999999 10.425 4.169999999999999
O 77.14499999999998 12.510000000000003 4.169999999999999
O 75.05999999999999 8.340000000000002 6.254999999999999
O 77.14499999999998 10.425 10.424999999999997
O 79.22999999999999 10.425 8.339999999999998
O 77.14499999999998 12.510000000000003 8.339999999999998
O 75.05999999999999 8.340000000000002 10.424999999999997
O 77.14499999999998 10.425 14.594999999999997
O 79.22999999999999 10.425 12.509999999999998
O 77.14499999999998 12.510000000000003 12.509999999999998
O 75.05999999999999 8.340000000000002 14.594999999999997
O 77.14499999999998 10.425 18.764999999999997
O 79.22999999999999 10.425 16.679999999999996
O 77.14499999999998 12.510000000000003 16.679999999999996
O 75.05999999999999 8.340000000000002 18.764999999999997
O 79.22999999999999 10.425 20.849999999999994
O 75.05999999999999 8.340000000000002 22.934999999999995
O 77.14499999999998 14.595000000000002 2.085
O 79.22999999999999 14.595000000000002 0.0
O 77.14499999999998 16.680000000000003 0.0
O 75.05999999999999 12.510000000000003 2.085
O 77.14499999999998 14.595000000000002 6.254999999999999
O 79.22999999999999 14.595000000000002 4.169999999999999
O 77.14499999999998 16.680000000000003 4.169999999999999
O 75.05999999999999 12.510000000000003 6.254999999999999
O 77.14499999999998 14.595000000000002 10.424999999999997
O 79.22999999999999 14.595000000000002 8.339999999999998
O 77.14499999999998 16.680000000000003 8.339999999999998
O 75.05999999999999 12.510000000000003 10.424999999999997
O 77.14499999999998 14.595000000000002 14.594999999999997
O 79.22999999999999 14.595000000000002 12.509999999999998
O 77.14499999999998 16.680000000000003 12.509999999999998
O 75.05999999999999 12.510000000000003 14.594999999999997
O 79.22999999999999 14.595000000000002 16.679999999999996
O 75.05999999999999 12.510000000000003 18.764999999999997
O 77.14499999999998 18.765000000000004 2.085
O 79.22999999999999 18.765000000000004 0.0
O 77.14499999999998 20.849999999999998 0.0
O 75.05999999999999 16.680000000000003 2.085
O 77.14499999999998 18.765000000000004 6.254999999999999
O 79.22999999999999 18.765000000000004 4.169999999999999
O 77.14499999999998 20.849999999999998 4.169999999999999
O 75.05999999999999 16.680000000000003 6.254999999999999
O 77.14499999999998 18.765000000000004 10.424999999999997
O 79.22999999999999 18.765000000000004 8.339999999999998
O 77.14499999999998 20.849999999999998 8.339999999999998
O 75.05999999999999 16.680000000000003 10.424999999999997
O 79.22999999999999 18.765000000000004 12.509999999999998
O 75.05999999999999 16.680000000000003 14.594999999999997
O 77.14499999999998 22.935000000000002 2.085
O 79.22999999999999 22.935000000000002 0.0
O 77.14499999999998 25.020000000000007 0.0
O 75.05999999999999 20.849999999999998 2.085
O 77.14499999999998 22.935000000000002 6.254999999999999
O 79.22999999999999 22.935000000000002 4.169999999999999
O 77.14499999999998 25.020000000000007 4.169999999999999
O 75.05999999999999 20.849999999999998 6.254999999999999
O 77.14499999999998 22.935000000000002 10.424999999999997
O 79.22999999999999 22.935000000000002 8.339999999999998
O 77.14499999999998 25.020000000000007 8.339999999999998
O 75.05999999999999 20.849999999999998 10.424999999999997
O 79.22999999999999 22.935000000000002 12.509999999999998
O 77.14499999999998 25.020000000000007 12.509999999999998
O 77.14499999999998 27.105000000000008 2.085
O 79.22999999999999 27.105000000000008 0.0
O 77.14499999999998 29.190000000000005 0.0
O 75.05999999999999 25.020000000000007 2.085
O 77.14499999999998 27.105000000000008 6.254999999999999
O 79.22999999999999 27.105000000000008 4.169999999999999
O 77.14499999999998 29.190000000000005 4.169999999999999
O 75.05999999999999 25.020000000000007 6.254999999999999
O 77.14499999999998 27.105000000000008 10.424999999999997
O 79.22999999999999 27.105000000000008 8.339999999999998
O 77.14499999999998 29.190000000000005 8.339999999999998
O 75.05999999999999 25.020000000000007 10.424999999999997
O 77.14499999999998 27.105000000000008 14.594999999999997
O 79.22999999999999 27.105000000000008 12.509999999999998
O 77.14499999999998 29.190000000000005 12.509999999999998
O 75.05999999999999 25.020000000000007 14.594999999999997
O 79.22999999999999 27.105000000000008 16.679999999999996
O 77.14499999999998 29.190000000000005 16.679999999999996
O 77.14499999999998 31.275000000000006 2.085
O 79.22999999999999 31.275000000000006 0.0
O 77.14499999999998 33.36000000000001 0.0
O 75.05999999999999 29.190000000000005 2.085
O 77.14499999999998 31.275000000000006 6.254999999999999
O 79.22999999999999 31.275000000000006 4.169999999999999
O 77.14499999999998 33.36000000000001 4.169999999999999
O 75.05999999999999 29.190000000000005 6.254999999999999
O 77.14499999999998 31.275000000000006 10.424999999999997
O 79.22999999999999 31.275000000000006 8.339999999999998
O 77.14499999999998 33.36000000000001 8.339999999999998
O 75.05999999999999 29.190000000000005 10.424999999999997
O 77.14499999999998 31.275000000000006 14.594999999999997
O 79.22999999999999 31.275000000000006 12.509999999999998
O 77.14499999999998 33.36000000000001 12.509999999999998
O 75.05999999999999 29.190000000000005 14.594999999999997
O 77.14499999999998 31.275000000000006 18.764999999999997
O 79.22999999999999 31.275000000000006 16.679999999999996
O 77.14499999999998 33.36000000000001 16.679999999999996
O 75.05999999999999 29.190000000000005 18.764999999999997
O 79.22999999999999 31.275000000000006 20.849999999999994
O 77.14499999999998 33.36000000000001 20.849999999999994
O 77.14499999999998 35.44500000000001 2.085
O 79.22999999999999 35.44500000000001 0.0
O 77.14499999999998 37.53000000000001 0.0
O 75.05999999999999 33.36000000000001 2.085
O 77.14499999999998 35.44500000000001 6.254999999999999
O 79.22999999999999 35.44500000000001 4.169999999999999
O 77.14499999999998 37.53000000000001 4.169999999999999
O 75.05999999999999 33.36000000000001 6.254999999999999
O 77.14499999999998 35.44500000000001 10.424999999999997
O 79.22999999999999 35.44500000000001 8.339999999999998
O 77.14499999999998 37.53000000000001 8.339999999999998
O 75.05999999999999 33.36000000000001 10.424999999999997
O 77.14499999999998 35.44500000000001 14.594999999999997
O 79.22999999999999 35.44500000000001 12.509999999999998
O 77.14499999999998 37.53000000000001 12.509999999999998
O 75.05999999999999 33.36000000000001 14.594999999999997
O 77.14499999999998 35.44500000000001 18.764999999999997
O 79.22999999999999 35.44500000000001 16.679999999999996
O 77.14499999999998 37.53000000000001 16.679999999999996
O 75.05999999999999 33.36000000000001 18.764999999999997
O 77.14499999999998 35.44500000000001 22.934999999999995
O 79.22999999999999 35.44500000000001 20.849999999999994
O 77.14499999999998 37.53000000000001 20.849999999999994
O 75.05999999999999 33.36000000000001 22.934999999999995
O 79.22999999999999 35.44500000000001 25.019999999999996
O 77.14499999999998 37.53000000000001 25.019999999999996
O 77.14499999999998 39.615 2.085
O 79.22999999999999 39.615 0.0
O 77.14499999999998 2.7318179660128058e-15 0.0
O 75.05999999999999 37.53 2.085
O 77.14499999999998 39.615 6.254999999999999
O 79.22999999999999 39.615 4.169999999999999
O 77.14499999999998 2.7318179660128058e-15 4.169999999999999
O 75.05999999999999 37.53 6.254999999999999
O 77.14499999999998 39.615 10.424999999999997
O 79.22999999999999 39.615 8.339999999999998
O 77.14499999999998 2.7318179660128058e-15 8.339999999999998
O 75.05999999999999 37.53 10.424999999999997
O 77.14499999999998 39.615 14.594999999999997
O 79.22999999999999 39.615 12.509999999999998
O 77.14499999999998 2.7318179660128058e-15 12.509999999999998
O 75.05999999999999 37.53 14.594999999999997
O 77.14499999999998 39.615 18.764999999999997
O 79.22999999999999 39.615 16.679999999999996
O 77.14499999999998 2.7318179660128058e-15 16.679999999999996
O 75.05999999999999 37.53 18.764999999999997
O 77.14499999999998 39.615 22.934999999999995
O 79.22999999999999 39.615 20.849999999999994
O 77.14499999999998 2.7318179660128058e-15 20.849999999999994
O 75.05999999999999 37.53 22.934999999999995
O 77.14499999999998 39.615 27.104999999999997
O 79.22999999999999 39.615 25.019999999999996
O 77.14499999999998 2.7318179660128058e-15 25.019999999999996
O 75.05999999999999 37.53 27.104999999999997
O 81.31499999999998 2.085 2.085
O 83.39999999999999 2.085 0.0
O 81.31499999999998 4.17 0.0
O 79.22999999999999 0.0 2.085
O 81.31499999999998 2.085 6.254999999999999
O 83.39999999999999 2.085 4.169999999999999
O 81.31499999999998 4.17 4.169999999999999
O 79.22999999999999 0.0 6.254999999999999
O 81.31499999999998 2.085 10.424999999999997
O 83.39999999999999 2.085 8.339999999999998
O 81.31499999999998 4.17 8.339999999999998
O 79.22999999999999 0.0 10.424999999999997
O 81.31499999999998 2.085 14.594999999999997
O 83.39999999999999 2.085 12.509999999999998
O 81.31499999999998 4.17 12.509999999999998
O 79.22999999999999 0.0 14.594999999999997
O 81.31499999999998 2.085 18.764999999999997
O 83.39999999999999 2.085 16.679999999999996
O 81.31499999999998 4.17 16.679999999999996
O 79.22999999999999 0.0 18.764999999999997
O 81.31499999999998 2.085 22.934999999999995
O 83.39999999999999 2.085 20.849999999999994
O 81.31499999999998 4.17 20.849999999999994
O 79.22999999999999 0.0 22.934999999999995
O 81.31499999999998 2.085 27.104999999999997
O 83.39999999999999 2.085 25.019999999999996
O 81.31499999999998 4.17 25.019999999999996
O 79.22999999999999 0.0 27.104999999999997
O 81.31499999999998 6.255000000000002 2.085
O 83.39999999999999 6.255000000000002 0.0
O 81.31499999999998 8.34 0.0
O 79.22999999999999 4.170000000000001 2.085
O 81.31499999999998 6.255000000000002 6.254999999999999
O 83.39999999999999 6.255000000000002 4.169999999999999
O 81.31499999999998 8.34 4.169999999999999
O 79.22999999999999 4.170000000000001 6.254999999999999
O 81.31499999999998 6.255000000000002 10.424999999999997
O 83.39999999999999 6.255000000000002 8.339999999999998
O 81.31499999999998 8.34 8.339999999999998
O 79.22999999999999 4.170000000000001 10.424999999999997
O 81.31499999999998 6.255000000000002 14.594999999999997
O 83.39999999999999 6.255000000000002 12.509999999999998
O 81.31499999999998 8.34 12.509999999999998
O 79.22999999999999 4.170000000000001 14.594999999999997
O 81.31499999999998 6.255000000000002 18.764999999999997
O 83.39999999999999 6.255000000000002 16.679999999999996
O 81.31499999999998 8.34 16.679999999999996
O 79.22999999999999 4.170000000000001 18.764999999999997
O 81.31499999999998 6.255000000000002 22.934999999999995
O 83.39999999999999 6.255000000000002 20.849999999999994
O 81.31499999999998 8.34 20.849999999999994
O 79.22999999999999 4.170000000000001 22.934999999999995
O 83.39999999999999 6.255000000000002 25.019999999999996
O 79.22999999999999 4.170000000000001 27.104999999999997
O 81.31499999999998 10.425 2.085
O 83.39999999999999 10.425 0.0
O 81.31499999999998 12.510000000000003 0.0
O 79.22999999999999 8.340000000000002 2.085
O 81.31499999999998 10.425 6.254999999999999
O 83.39999999999999 10.425 4.169999999999999
O 81.31499999999998 12.510000000000003 4.169999999999999
O 79.22999999999999 8.340000000000002 6.254999999999999
O 81.31499999999998 10.425 10.424999999999997
O 83.39999999999999 10.425 8.339999999999998
O 81.31499999999998 12.510000000000003 8.339999999999998
O 79.22999999999999 8.340000000000002 10.424999999999997
O 81.31499999999998 10.425 14.594999999999997
O 83.39999999999999 10.425 12.509999999999998
O 81.31499999999998 12.510000000000003 12.509999999999998
O 79.22999999999999 8.340000000000002 14.594999999999997
O 81.31499999999998 10.425 18.764999999999997
O 83.39999999999999 10.425 16.679999999999996
O 81.31499999999998 12.510000000000003 16.679999999999996
O 79.22999999999999 8.340000000000002 18.764999999999997
O 83.39999999999999 10.425 20.849999999999994
O 79.22999999999999 8.340000000000002 22.934999999999995
O 81.31499999999998 14.595000000000002 2.085
O 83.39999999999999 14.595000000000002 0.0
O 81.31499999999998 16.680000000000003 0.0
O 79.22999999999999 12.510000000000003 2.085
O 81.31499999999998 14.595000000000002 6.254999999999999
O 83.39999999999999 14.595000000000002 4.169999999999999
O 81.31499999999998 16.680000000000003 4.169999999999999
O 79.22999999999999 12.510000000000003 6.254999999999999
O 81.31499999999998 14.595000000000002 10.424999999999997
O 83.39999999999999 14.595000000000002 8.339999999999998
O 81.31499999999998 16.680000000000003 8.339999999999998
O 79.22999999999999 12.510000000000003 10.424999999999997
O 81.31499999999998 14.595000000000002 14.594999999999997
O 83.39999999999999 14.595000000000002 12.509999999999998
O 81.31499999999998 16.680000000000003 12.509999999999998
O 79.22999999999999 12.510000000000003 14.594999999999997
O 83.39999999999999 14.595000000000002 16.679999999999996
O 79.22999999999999 12.510000000000003 18.764999999999997
O 81.31499999999998 18.765000000000004 2.085
O 83.39999999999999 18.765000000000004 0.0
O 81.31499999999998 20.849999999999998 0.0
O 79.22999999999999 16.680000000000003 2.085
O 81.31499999999998 18.765000000000004 6.254999999999999
O 83.39999999999999 18.765000000000004 4.169999999999999
O 81.31499999999998 20.849999999999998 4.169999999999999
O 79.22999999999999 16.680000000000003 6.254999999999999
O 81.31499999999998 18.765000000000004 10.424999999999997
O 83.39999999999999 18.765000000000004 8.339999999999998
O 81.31499999999998 20.849999999999998 8.339999999999998
O 79.22999999999999 16.680000000000003 10.424999999999997
O 83.39999999999999 18.765000000000004 12.509999999999998
O 79.22999999999999 16.680000000000003 14.594999999999997
O 81.31499999999998 22.935000000000002 2.085
O 83.39999999999999 22.935000000000002 0.0
O 81.31499999999998 25.020000000000007 0.0
O 79.22999999999999 20.849999999999998 2.085
O 81.31499999999998 22.935000000000002 6.254999999999999
O 83.39999999999999 22.935000000000002 4.169999999999999
O 81.31499999999998 25.020000000000007 4.169999999999999
O 79.22999999999999 20.849999999999998 6.254999999999999
O 81.31499999999998 22.935000000000002 10.424999999999997
O 83.39999999999999 22.935000000000002 8.339999999999998
O 81.31499999999998 25.020000000000007 8.339999999999998
O 79.22999999999999 20.849999999999998 10.424999999999997
O 83.39999999999999 22.935000000000002 12.509999999999998
O 81.31499999999998 25.020000000000007 12.509999999999998
O 81.31499999999998 27.105000000000008 2.085
O 83.39999999999999 27.105000000000008 0.0
O 81.31499999999998 29.190000000000005 0.0
O 79.22999999999999 25.020000000000007 2.085
O 81.31499999999998 27.105000000000008 6.254999999999999
O 83.39999999999999 27.105000000000008 4.169999999999999
O 81.31499999999998 29.190000000000005 4.169999999999999
O 79.22999999999999 25.020000000000007 6.254999999999999
O 81.31499999999998 27.105000000000008 10.424999999999997
O 83.39999999999999 27.105000000000008 8.339999999999998
O 81.31499999999998 29.190000000000005 8.339999999999998
O 79.22999999999999 25.020000000000007 10.424999999999997
O 81.31499999999998 27.105000000000008 14.594999999999997
O 83.39999999999999 27.105000000000008 12.509999999999998
O 81.31499999999998 29.190000000000005 12.509999999999998
O 79.22999999999999 25.020000000000007 14.594999999999997
O 83.39999999999999 27.105000000000008 16.679999999999996
O 81.31499999999998 29.190000000000005 16.679999999999996
O 81.31499999999998 31.275000000000006 2.085
O 83.39999999999999 31.275000000000006 0.0
O 81.31499999999998 33.36000000000001 0.0
O 79.22999999999999 29.190000000000005 2.085
O 81.31499999999998 31.275000000000006 6.254999999999999
O 83.39999999999999 31.275000000000006 4.169999999999999
O 81.31499999999998 33.36000000000001 4.169999999999999
O 79.22999999999999 29.190000000000005 6.254999999999999
O 81.31499999999998 31.275000000000006 10.424999999999997
O 83.39999999999999 31.275000000000006 8.339999999999998
O 81.31499999999998 33.36000000000001 8.339999999999998
O 79.22999999999999 29.190000000000005 10.424999999999997
O 81.31499999999998 31.275000000000006 14.594999999999997
O 83.39999999999999 31.275000000000006 12.509999999999998
O 81.31499999999998 33.36000000000001 12.509999999999998
O 79.22999999999999 29.190000000000005 14.594999999999997
O 81.31499999999998 31.275000000000006 18.764999999999997
O 83.39999999999999 31.275000000000006 16.679999999999996
O 81.31499999999998 33.36000000000001 16.679999999999996
O 79.22999999999999 29.190000000000005 18.764999999999997
O 83.39999999999999 31.275000000000006 20.849999999999994
O 81.31499999999998 33.36000000000001 20.849999999999994
O 81.31499999999998 35.44500000000001 2.085
O 83.39999999999999 35.44500000000001 0.0
O 81.31499999999998 37.53000000000001 0.0
O 79.22999999999999 33.36000000000001 2.085
O 81.31499999999998 35.44500000000001 6.254999999999999
O 83.39999999999999 35.44500000000001 4.169999999999999
O 81.31499999999998 37.53000000000001 4.169999999999999
O 79.22999999999999 33.36000000000001 6.254999999999999
O 81.31499999999998 35.44500000000001 10.424999999999997
O 83.39999999999999 35.44500000000001 8.339999999999998
O 81.31499999999998 37.53000000000001 8.339999999999998
O 79.22999999999999 33.36000000000001 10.424999999999997
O 81.31499999999998 35.44500000000001 14.594999999999997
O 83.39999999999999 35.44500000000001 12.509999999999998
O 81.31499999999998 37.53000000000001 12.509999999999998
O 79.22999999999999 33.36000000000001 14.594999999999997
O 81.31499999999998 35.44500000000001 18.764999999999997
O 83.39999999999999 35.44500000000001 16.679999999999996
O 81.31499999999998 37.53000000000001 16.679999999999996
O 79.22999999999999 33.36000000000001 18.764999999999997
O 81.31499999999998 35.44500000000001 22.934999999999995
O 83.39999999999999 35.44500000000001 20.849999999999994
O 81.31499999999998 37.53000000000001 20.849999999999994
O 79.22999999999999 33.36000000000001 22.934999999999995
O 83.39999999999999 35.44500000000001 25.019999999999996
O 81.31499999999998 37.53000000000001 25.019999999999996
O 81.31499999999998 39.615 2.085
O 83.39999999999999 39.615 0.0
O 81.31499999999998 2.7318179660128058e-15 0.0
O 79.22999999999999 37.53 2.085
O 81.31499999999998 39.615 6.254999999999999
O 83.39999999999999 39.615 4.169999999999999
O 81.31499999999998 2.7318179660128058e-15 4.169999999999999
O 79.22999999999999 37.53 6.254999999999999
O 81.31499999999998 39.615 10.424999999999997
O 83.39999999999999 39.615 8.339999999999998
O 81.31499999999998 2.7318179660128058e-15 8.339999999999998
O 79.22999999999999 37.53 10.424999999999997
O 81.31499999999998 39.615 14.594999999999997
O 83.39999999999999 39.615 12.509999999999998
O 81.31499999999998 2.7318179660128058e-15 12.509999999999998
O 79.22999999999999 37.53 14.594999999999997
O 81.31499999999998 39.615 18.764999999999997
O 83.39999999999999 39.615 16.679999999999996
O 81.31499999999998 2.7318179660128058e-15 16.679999999999996
O 79.22999999999999 37.53 18.764999999999997
O 81.31499999999998 39.615 22.934999999999995
O 83.39999999999999 39.615 20.849999999999994
O 81.31499999999998 2.7318179660128058e-15 20.849999999999994
O 79.22999999999999 37.53 22.934999999999995
O 81.31499999999998 39.615 27.104999999999997
O 83.39999999999999 39.615 25.019999999999996
O 81.31499999999998 2.7318179660128058e-15 25.019999999999996
O 79.22999999999999 37.53 27.104999999999997
O 85.48499999999999 2.085 2.085
O 87.57 2.085 0.0
O 85.48499999999999 4.17 0.0
O 83.39999999999999 0.0 2.085
O 85.48499999999999 2.085 6.254999999999999
O 87.57 2.085 4.169999999999999
O 85.48499999999999 4.17 4.169999999999999
O 83.39999999999999 0.0 6.254999999999999
O 85.48499999999999 2.085 10.424999999999997
O 87.57 2.085 8.339999999999998
O 85.48499999999999 4.17 8.339999999999998
O 83.39999999999999 0.0 10.424999999999997
O 85.48499999999999 2.085 14.594999999999997
O 87.57 2.085 12.509999999999998
O 85.48499999999999 4.17 12.509999999999998
O 83.39999999999999 0.0 14.594999999999997
O 85.48499999999999 2.085 18.764999999999997
O 87.57 2.085 16.679999999999996
O 85.48499999999999 4.17 16.679999999999996
O 83.39999999999999 0.0 18.764999999999997
O 85.48499999999999 2.085 22.934999999999995
O 87.57 2.085 20.849999999999994
O 85.48499999999999 4.17 20.849999999999994
O 83.39999999999999 0.0 22.934999999999995
O 85.48499999999999 2.085 27.104999999999997
O 87.57 2.085 25.019999999999996
O 85.48499999999999 4.17 25.019999999999996
O 83.39999999999999 0.0 27.104999999999997
O 85.48499999999999 6.255000000000002 2.085
O 87.57 6.255000000000002 0.0
O 85.48499999999999 8.34 0.0
O 83.39999999999999 4.170000000000001 2.085
O 85.48499999999999 6.255000000000002 6.254999999999999
O 87.57 6.255000000000002 4.169999999999999
O 85.48499999999999 8.34 4.169999999999999
O 83.39999999999999 4.170000000000001 6.254999999999999
O 85.48499999999999 6.255000000000002 10.424999999999997
O 87.57 6.255000000000002 8.339999999999998
O 85.48499999999999 8.34 8.339999999999998
O 83.39999999999999 4.170000000000001 10.424999999999997
O 85.48499999999999 6.255000000000002 14.594999999999997
O 87.57 6.255000000000002 12.509999999999998
O 85.48499999999999 8.34 12.509999999999998
O 83.39999999999999 4.170000000000001 14.594999999999997
O 85.48499999999999 6.255000000000002 18.764999999999997
O 87.57 6.255000000000002 16.679999999999996
O 85.48499999999999 8.34 16.679999999999996
O 83.39999999999999 4.170000000000001 18.764999999999997
O 85.48499999999999 6.255000000000002 22.934999999999995
O 87.57 6.255000000000002 20.849999999999994
O 85.48499999999999 8.34 20.849999999999994
O 83.39999999999999 4.170000000000001 22.934999999999995
O 87.57 6.255000000000002 25.019999999999996
O 83.39999999999999 4.170000000000001 27.104999999999997
O 85.48499999999999 10.425 2.085
O 87.57 10.425 0.0
O 85.48499999999999 12.510000000000003 0.0
O 83.39999999999999 8.340000000000002 2.085
O 85.48499999999999 10.425 6.254999999999999
O 87.57 10.425 4.169999999999999
O 85.48499999999999 12.510000000000003 4.169999999999999
O 83.39999999999999 8.340000000000002 6.254999999999999
O 85.48499999999999 10.425 10.424999999999997
O 87.57 10.425 8.339999999999998
O 85.48499999999999 12.510000000000003 8.339999999999998
O 83.39999999999999 8.340000000000002 10.424999999999997
O 85.48499999999999 10.425 14.594999999999997
O 87.57 10.425 12.509999999999998
O 85.48499999999999 12.510000000000003 12.509999999999998
O 83.39999999999999 8.340000000000002 14.594999999999997
O 85.48499999999999 10.425 18.764999999999997
O 87.57 10.425 16.679999999999996
O 85.48499999999999 12.510000000000003 16.679999999999996
O 83.39999999999999 8.340000000000002 18.764999999999997
O 87.57 10.425 20.849999999999994
O 83.39999999999999 8.340000000000002 22.934999999999995
O 85.48499999999999 14.595000000000002 2.085
O 87.57 14.595000000000002 0.0
O 85.48499999999999 16.680000000000003 0.0
O 83.39999999999999 12.510000000000003 2.085
O 85.48499999999999 14.595000000000002 6.254999999999999
O 87.57 14.595000000000002 4.169999999999999
O 85.48499999999999 16.680000000000003 4.169999999999999
O 83.39999999999999 12.510000000000003 6.254999999999999
O 85.48499999999999 14.595000000000002 10.424999999999997
O 87.57 14.595000000000002 8.339999999999998
O 85.48499999999999 16.680000000000003 8.339999999999998
O 83.39999999999999 12.510000000000003 10.424999999999997
O 85.48499999999999 14.595000000000002 14.594999999999997
O 87.57 14.595000000000002 12.509999999999998
O 85.48499999999999 16.680000000000003 12.509999999999998
O 83.39999999999999 12.510000000000003 14.594999999999997
O 87.57 14.595000000000002 16.679999999999996
O 83.39999999999999 12.510000000000003 18.764999999999997
O 85.48499999999999 18.765000000000004 2.085
O 87.57 18.765000000000004 0.0
O 85.48499999999999 20.849999999999998 0.0
O 83.39999999999999 16.680000000000003 2.085
O 85.48499999999999 18.765000000000004 6.254999999999999
O 87.57 18.765000000000004 4.169999999999999
O 85.48499999999999 20.849999999999998 4.169999999999999
O 83.39999999999999 16.680000000000003 6.254999999999999
O 85.48499999999999 18.765000000000004 10.424999999999997
O 87.57 18.765000000000004 8.339999999999998
O 85.48499999999999 20.849999999999998 8.339999999999998
O 83.39999999999999 16.680000000000003 10.424999999999997
O 87.57 18.765000000000004 12.509999999999998
O 83.39999999999999 16.680000000000003 14.594999999999997
O 85.48499999999999 22.935000000000002 2.085
O 87.57 22.935000000000002 0.0
O 85.48499999999999 25.020000000000007 0.0
O 83.39999999999999 20.849999999999998 2.085
O 85.48499999999999 22.935000000000002 6.254999999999999
O 87.57 22.935000000000002 4.169999999999999
O 85.48499999999999 25.020000000000007 4.169999999999999
O 83.39999999999999 20.849999999999998 6.254999999999999
O 85.48499999999999 22.935000000000002 10.424999999999997
O 87.57 22.935000000000002 8.339999999999998
O 85.48499999999999 25.020000000000007 8.339999999999998
O 83.39999999999999 20.849999999999998 10.424999999999997
O 87.57 22.935000000000002 12.509999999999998
O 85.48499999999999 25.020000000000007 12.509999999999998
O 85.48499999999999 27.105000000000008 2.085
O 87.57 27.105000000000008 0.0
O 85.48499999999999 29.190000000000005 0.0
O 83.39999999999999 25.020000000000007 2.085
O 85.48499999999999 27.105000000000008 6.254999999999999
O 87.57 27.105000000000008 4.169999999999999
O 85.48499999999999 29.190000000000005 4.169999999999999
O 83.39999999999999 25.020000000000007 6.254999999999999
O 85.48499999999999 27.105000000000008 10.424999999999997
O 87.57 27.105000000000008 8.339999999999998
O 85.48499999999999 29.190000000000005 8.339999999999998
O 83.39999999999999 25.020000000000007 10.424999999999997
O 85.48499999999999 27.105000000000008 14.594999999999997
O 87.57 27.105000000000008 12.509999999999998
O 85.48499999999999 29.190000000000005 12.509999999999998
O 83.39999999999999 25.020000000000007 14.594999999999997
O 87.57 27.105000000000008 16.679999999999996
O 85.48499999999999 29.190000000000005 16.679999999999996
O 85.48499999999999 31.275000000000006 2.085
O 87.57 31.275000000000006 0.0
O 85.48499999999999 33.36000000000001 0.0
O 83.39999999999999 29.190000000000005 2.085
O 85.48499999999999 31.275000000000006 6.254999999999999
O 87.57 31.275000000000006 4.169999999999999
O 85.48499999999999 33.36000000000001 4.169999999999999
O 83.39999999999999 29.190000000000005 6.254999999999999
O 85.48499999999999 31.275000000000006 10.424999999999997
O 87.57 31.275000000000006 8.339999999999998
O 85.48499999999999 33.36000000000001 8.339999999999998
O 83.39999999999999 29.190000000000005 10.424999999999997
O 85.48499999999999 31.275000000000006 14.594999999999997
O 87.57 31.275000000000006 12.509999999999998
O 85.48499999999999 33.36000000000001 12.509999999999998
O 83.39999999999999 29.190000000000005 14.594999999999997
O 85.48499999999999 31.275000000000006 18.764999999999997
O 87.57 31.275000000000006 16.679999999999996
O 85.48499999999999 33.36000000000001 16.679999999999996
O 83.39999999999999 29.190000000000005 18.764999999999997
O 87.57 31.275000000000006 20.849999999999994
O 85.48499999999999 33.36000000000001 20.849999999999994
O 85.48499999999999 35.44500000000001 2.085
O 87.57 35.44500000000001 0.0
O 85.48499999999999 37.53000000000001 0.0
O 83.39999999999999 33.36000000000001 2.085
O 85.48499999999999 35.44500000000001 6.254999999999999
O 87.57 35.44500000000001 4.169999999999999
O 85.48499999999999 37.53000000000001 4.169999999999999
O 83.39999999999999 33.36000000000001 6.254999999999999
O 85.48499999999999 35.44500000000001 10.424999999999997
O 87.57 35.44500000000001 8.339999999999998
O 85.48499999999999 37.53000000000001 8.339999999999998
O 83.39999999999999 33.36000000000001 10.424999999999997
O 85.48499999999999 35.44500000000001 14.594999999999997
O 87.57 35.44500000000001 12.509999999999998
O 85.48499999999999 37.53000000000001 12.509999999999998
O 83.39999999999999 33.36000000000001 14.594999999999997
O 85.48499999999999 35.44500000000001 18.764999999999997
O 87.57 35.44500000000001 16.679999999999996
O 85.48499999999999 37.53000000000001 16.679999999999996
O 83.39999999999999 33.36000000000001 18.764999999999997
O 85.48499999999999 35.44500000000001 22.934999999999995
O 87.57 35.44500000000001 20.849999999999994
O 85.48499999999999 37.53000000000001 20.849999999999994
O 83.39999999999999 33.36000000000001 22.934999999999995
O 87.57 35.44500000000001 25.019999999999996
O 85.48499999999999 37.53000000000001 25.019999999999996
O 85.48499999999999 39.615 2.085
O 87.57 39.615 0.0
O 85.48499999999999 2.7318179660128058e-15 0.0
O 83.39999999999999 37.53 2.085
O 85.48499999999999 39.615 6.254999999999999
O 87.57 39.615 4.169999999999999
O 85.48499999999999 2.7318179660128058e-15 4.169999999999999
O 83.39999999999999 37.53 6.254999999999999
O 85.48499999999999 39.615 10.424999999999997
O 87.57 39.615 8.339999999999998
O 85.48499999999999 2.7318179660128058e-15 8.339999999999998
O 83.39999999999999 37.53 10.424999999999997
O 85.48499999999999 39.615 14.594999999999997
O 87.57 39.615 12.509999999999998
O 85.48499999999999 2.7318179660128058e-15 12.509999999999998
O 83.39999999999999 37.53 14.594999999999997
O 85.48499999999999 39.615 18.764999999999997
O 87.57 39.615 16.679999999999996
O 85.48499999999999 2.7318179660128058e-15 16.679999999999996
O 83.39999999999999 37.53 18.764999999999997
O 85.48499999999999 39.615 22.934999999999995
O 87.57 39.615 20.849999999999994
O 85.48499999999999 2.7318179660128058e-15 20.849999999999994
O 83.39999999999999 37.53 22.934999999999995
O 85.48499999999999 39.615 27.104999999999997
O 87.57 39.615 25.019999999999996
O 85.48499999999999 2.7318179660128058e-15 25.019999999999996
O 83.39999999999999 37.53 27.104999999999997
O 89.65499999999999 2.085 2.085
O 91.74 2.085 0.0
O 89.65499999999999 4.17 0.0
O 87.57 0.0 2.085
O 89.65499999999999 2.085 6.254999999999999
O 91.74 2.085 4.169999999999999
O 89.65499999999999 4.17 4.169999999999999
O 87.57 0.0 6.254999999999999
O 89.65499999999999 2.085 10.424999999999997
O 91.74 2.085 8.339999999999998
O 89.65499999999999 4.17 8.339999999999998
O 87.57 0.0 10.424999999999997
O 89.65499999999999 2.085 14.594999999999997
O 91.74 2.085 12.509999999999998
O 89.65499999999999 4.17 12.509999999999998
O 87.57 0.0 14.594999999999997
O 89.65499999999999 2.085 18.764999999999997
O 91.74 2.085 16.679999999999996
O 89.65499999999999 4.17 16.679999999999996
O 87.57 0.0 18.764999999999997
O 89.65499999999999 2.085 22.934999999999995
O 91.74 2.085 20.849999999999994
O 89.65499999999999 4.17 20.849999999999994
O 87.57 0.0 22.934999999999995
O 89.65499999999999 2.085 27.104999999999997
O 91.74 2.085 25.019999999999996
O 89.65499999999999 4.17 25.019999999999996
O 87.57 0.0 27.104999999999997
O 89.65499999999999 6.255000000000002 2.085
O 91.74 6.255000000000002 0.0
O 89.65499999999999 8.34 0.0
O 87.57 4.170000000000001 2.085
O 89.65499999999999 6.255000000000002 6.254999999999999
O 91.74 6.255000000000002 4.169999999999999
O 89.65499999999999 8.34 4.169999999999999
O 87.57 4.170000000000001 6.254999999999999
O 89.65499999999999 6.255000000000002 10.424999999999997
O 91.74 6.255000000000002 8.339999999999998
O 89.65499999999999 8.34 8.339999999999998
O 87.57 4.170000000000001 10.424999999999997
O 89.65499999999999 6.255000000000002 14.594999999999997
O 91.74 6.255000000000002 12.509999999999998
O 89.65499999999999 8.34 12.509999999999998
O 87.57 4.170000000000001 14.594999999999997
O 89.65499999999999 6.255000000000002 18.764999999999997
O 91.74 6.255000000000002 16.679999999999996
O 89.65499999999999 8.34 16.679999999999996
O 87.57 4.170000000000001 18.764999999999997
O 89.65499999999999 6.255000000000002 22.934999999999995
O 91.74 6.255000000000002 20.849999999999994
O 89.65499999999999 8.34 20.849999999999994
O 87.57 4.170000000000001 22.934999999999995
O 91.74 6.255000000000002 25.019999999999996
O 87.57 4.170000000000001 27.104999999999997
O 89.65499999999999 10.425 2.085
O 91.74 10.425 0.0
O 89.65499999999999 12.510000000000003 0.0
O 87.57 8.340000000000002 2.085
O 89.65499999999999 10.425 6.254999999999999
O 91.74 10.425 4.169999999999999
O 89.65499999999999 12.510000000000003 4.169999999999999
O 87.57 8.340000000000002 6.254999999999999
O 89.65499999999999 10.425 10.424999999999997
O 91.74 10.425 8.339999999999998
O 89.65499999999999 12.510000000000003 8.339999999999998
O 87.57 8.340000000000002 10.424999999999997
O 89.65499999999999 10.425 14.594999999999997
O 91.74 10.425 12.509999999999998
O 89.65499999999999 12.510000000000003 12.509999999999998
O 87.57 8.340000000000002 14.594999999999997
O 89.65499999999999 10.425 18.764999999999997
O 91.74 10.425 16.679999999999996
O 89.65499999999999 12.510000000000003 16.679999999999996
O 87.57 8.340000000000002 18.764999999999997
O 91.74 10.425 20.849999999999994
O 87.57 8.340000000000002 22.934999999999995
O 89.65499999999999 14.595000000000002 2.085
O 91.74 14.595000000000002 0.0
O 89.65499999999999 16.680000000000003 0.0
O 87.57 12.510000000000003 2.085
O 89.65499999999999 14.595000000000002 6.254999999999999
O 91.74 14.595000000000002 4.169999999999999
O 89.65499999999999 16.680000000000003 4.169999999999999
O 87.57 12.510000000000003 6.254999999999999
O 89.65499999999999 14.595000000000002 10.424999999999997
O 91.74 14.595000000000002 8.339999999999998
O 89.65499999999999 16.680000000000003 8.339999999999998
O 87.57 12.510000000000003 10.424999999999997
O 89.65499999999999 14.595000000000002 14.594999999999997
O 91.74 14.595000000000002 12.509999999999998
O 89.65499999999999 16.680000000000003 12.509999999999998
O 87.57 12.510000000000003 14.594999999999997
O 91.74 14.595000000000002 16.679999999999996
O 87.57 12.510000000000003 18.764999999999997
O 89.65499999999999 18.765000000000004 2.085
O 91.74 18.765000000000004 0.0
O 89.65499999999999 20.849999999999998 0.0
O 87.57 16.680000000000003 2.085
O 89.65499999999999 18.765000000000004 6.254999999999999
O 91.74 18.765000000000004 4.169999999999999
O 89.65499999999999 20.849999999999998 4.169999999999999
O 87.57 16.680000000000003 6.254999999999999
O 89.65499999999999 18.765000000000004 10.424999999999997
O 91.74 18.765000000000004 8.339999999999998
O 89.65499999999999 20.849999999999998 8.339999999999998
O 87.57 16.680000000000003 10.424999999999997
O 91.74 18.765000000000004 12.509999999999998
O 87.57 16.680000000000003 14.594999999999997
O 89.65499999999999 22.935000000000002 2.085
O 91.74 22.935000000000002 0.0
O 89.65499999999999 25.020000000000007 0.0
O 87.57 20.849999999999998 2.085
O 89.65499999999999 22.935000000000002 6.254999999999999
O 91.74 22.935000000000002 4.169999999999999
O 89.65499999999999 25.020000000000007 4.169999999999999
O 87.57 20.849999999999998 6.254999999999999
O 89.65499999999999 22.935000000000002 10.424999999999997
O 91.74 22.935000000000002 8.339999999999998
O 89.65499999999999 25.020000000000007 8.339999999999998
O 87.57 20.849999999999998 10.424999999999997
O 91.74 22.935000000000002 12.509999999999998
O 89.65499999999999 25.020000000000007 12.509999999999998
O 89.65499999999999 27.105000000000008 2.085
O 91.74 27.105000000000008 0.0
O 89.65499999999999 29.190000000000005 0.0
O 87.57 25.020000000000007 2.085
O 89.65499999999999 27.105000000000008 6.254999999999999
O 91.74 27.105000000000008 4.169999999999999
O 89.65499999999999 29.190000000000005 4.169999999999999
O 87.57 25.020000000000007 6.254999999999999
O 89.65499999999999 27.105000000000008 10.424999999999997
O 91.74 27.105000000000008 8.339999999999998
O 89.65499999999999 29.190000000000005 8.339999999999998
O 87.57 25.020000000000007 10.424999999999997
O 89.65499999999999 27.105000000000008 14.594999999999997
O 91.74 27.105000000000008 12.509999999999998
O 89.65499999999999 29.190000000000005 12.509999999999998
O 87.57 25.020000000000007 14.594999999999997
O 91.74 27.105000000000008 16.679999999999996
O 89.65499999999999 29.190000000000005 16.679999999999996
O 89.65499999999999 31.275000000000006 2.085
O 91.74 31.275000000000006 0.0
O 89.65499999999999 33.36000000000001 0.0
O 87.57 29.190000000000005 2.085
O 89.65499999999999 31.275000000000006 6.254999999999999
O 91.74 31.275000000000006 4.169999999999999
O 89.65499999999999 33.36000000000001 4.169999999999999
O 87.57 29.190000000000005 6.254999999999999
O 89.65499999999999 31.275000000000006 10.424999999999997
O 91.74 31.275000000000006 8.339999999999998
O 89.65499999999999 33.36000000000001 8.339999999999998
O 87.57 29.190000000000005 10.424999999999997
O 89.65499999999999 31.275000000000006 14.594999999999997
O 91.74 31.275000000000006 12.509999999999998
O 89.65499999999999 33.36000000000001 12.509999999999998
O 87.57 29.190000000000005 14.594999999999997
O 89.65499999999999 31.275000000000006 18.764999999999997
O 91.74 31.275000000000006 16.679999999999996
O 89.65499999999999 33.36000000000001 16.679999999999996
O 87.57 29.190000000000005 18.764999999999997
O 91.74 31.275000000000006 20.849999999999994
O 89.65499999999999 33.36000000000001 20.849999999999994
O 89.65499999999999 35.44500000000001 2.085
O 91.74 35.44500000000001 0.0
O 89.65499999999999 37.53000000000001 0.0
O 87.57 33.36000000000001 2.085
O 89.65499999999999 35.44500000000001 6.254999999999999
O 91.74 35.44500000000001 4.169999999999999
O 89.65499999999999 37.53000000000001 4.169999999999999
O 87.57 33.36000000000001 6.254999999999999
O 89.65499999999999 35.44500000000001 10.424999999999997
O 91.74 35.44500000000001 8.339999999999998
O 89.65499999999999 37.53000000000001 8.339999999999998
O 87.57 33.36000000000001 10.424999999999997
O 89.65499999999999 35.44500000000001 14.594999999999997
O 91.74 35.44500000000001 12.509999999999998
O 89.65499999999999 37.53000000000001 12.509999999999998
O 87.57 33.36000000000001 14.594999999999997
O 89.65499999999999 35.44500000000001 18.764999999999997
O 91.74 35.44500000000001 16.679999999999996
O 89.65499999999999 37.53000000000001 16.679999999999996
O 87.57 33.36000000000001 18.764999999999997
O 89.65499999999999 35.44500000000001 22.934999999999995
O 91.74 35.44500000000001 20.849999999999994
O 89.65499999999999 37.53000000000001 20.849999999999994
O 87.57 33.36000000000001 22.934999999999995
O 91.74 35.44500000000001 25.019999999999996
O 89.65499999999999 37.53000000000001 25.019999999999996
O 89.65499999999999 39.615 2.085
O 91.74 39.615 0.0
O 89.65499999999999 2.7318179660128058e-15 0.0
O 87.57 37.53 2.085
O 89.65499999999999 39.615 6.254999999999999
O 91.74 39.615 4.169999999999999
O 89.65499999999999 2.7318179660128058e-15 4.169999999999999
O 87.57 37.53 6.254999999999999
O 89.65499999999999 39.615 10.424999999999997
O 91.74 39.615 8.339999999999998
O 89.65499999999999 2.7318179660128058e-15 8.339999999999998
O 87.57 37.53 10.424999999999997
O 89.65499999999999 39.615 14.594999999999997
O 91.74 39.615 12.509999999999998
O 89.65499999999999 2.7318179660128058e-15 12.509999999999998
O 87.57 37.53 14.594999999999997
O 89.65499999999999 39.615 18.764999999999997
O 91.74 39.615 16.679999999999996
O 89.65499999999999 2.7318179660128058e-15 16.679999999999996
O 87.57 37.53 18.764999999999997
O 89.65499999999999 39.615 22.934999999999995
O 91.74 39.615 20.849999999999994
O 89.65499999999999 2.7318179660128058e-15 20.849999999999994
O 87.57 37.53 22.934999999999995
O 89.65499999999999 39.615 27.104999999999997
O 91.74 39.615 25.019999999999996
O 89.65499999999999 2.7318179660128058e-15 25.019999999999996
O 87.57 37.53 27.104999999999997
O 93.82499999999999 2.085 2.085
O 95.91 2.085 0.0
O 93.82499999999999 4.17 0.0
O 91.74 0.0 2.085
O 93.82499999999999 2.085 6.254999999999999
O 95.91 2.085 4.169999999999999
O 93.82499999999999 4.17 4.169999999999999
O 91.74 0.0 6.254999999999999
O 93.82499999999999 2.085 10.424999999999997
O 95.91 2.085 8.339999999999998
O 93.82499999999999 4.17 8.339999999999998
O 91.74 0.0 10.424999999999997
O 93.82499999999999 2.085 14.594999999999997
O 95.91 2.085 12.509999999999998
O 93.82499999999999 4.17 12.509999999999998
O 91.74 0.0 14.594999999999997
O 93.82499999999999 2.085 18.764999999999997
O 95.91 2.085 16.679999999999996
O 93.82499999999999 4.17 16.679999999999996
O 91.74 0.0 18.764999999999997
O 93.82499999999999 2.085 22.934999999999995
O 95.91 2.085 20.849999999999994
O 93.82499999999999 4.17 20.849999999999994
O 91.74 0.0 22.934999999999995
O 93.82499999999999 2.085 27.104999999999997
O 95.91 2.085 25.019999999999996
O 93.82499999999999 4.17 25.019999999999996
O 91.74 0.0 27.104999999999997
O 93.82499999999999 6.255000000000002 2.085
O 95.91 6.255000000000002 0.0
O 93.82499999999999 8.34 0.0
O 91.74 4.170000000000001 2.085
O 93.82499999999999 6.255000000000002 6.254999999999999
O 95.91 6.255000000000002 4.169999999999999
O 93.82499999999999 8.34 4.169999999999999
O 91.74 4.170000000000001 6.254999999999999
O 93.82499999999999 6.255000000000002 10.424999999999997
O 95.91 6.255000000000002 8.339999999999998
O 93.82499999999999 8.34 8.339999999999998
O 91.74 4.170000000000001 10.424999999999997
O 93.82499999999999 6.255000000000002 14.594999999999997
O 95.91 6.255000000000002 12.509999999999998
O 93.82499999999999 8.34 12.509999999999998
O 91.74 4.170000000000001 14.594999999999997
O 93.82499999999999 6.255000000000002 18.764999999999997
O 95.91 6.255000000000002 16.679999999999996
O 93.82499999999999 8.34 16.679999999999996
O 91.74 4.170000000000001 18.764999999999997
O 93.82499999999999 6.255000000000002 22.934999999999995
O 95.91 6.255000000000002 20.849999999999994
O 93.82499999999999 8.34 20.849999999999994
O 91.74 4.170000000000001 22.934999999999995
O 95.91 6.255000000000002 25.019999999999996
O 91.74 4.170000000000001 27.104999999999997
O 93.82499999999999 10.425 2.085
O 95.91 10.425 0.0
O 93.82499999999999 12.510000000000003 0.0
O 91.74 8.340000000000002 2.085
O 93.82499999999999 10.425 6.254999999999999
O 95.91 10.425 4.169999999999999
O 93.82499999999999 12.510000000000003 4.169999999999999
O 91.74 8.340000000000002 6.254999999999999
O 93.82499999999999 10.425 10.424999999999997
O 95.91 10.425 8.339999999999998
O 93.82499999999999 12.510000000000003 8.339999999999998
O 91.74 8.340000000000002 10.424999999999997
O 93.82499999999999 10.425 14.594999999999997
O 95.91 10.425 12.509999999999998
O 93.82499999999999 12.510000000000003 12.509999999999998
O 91.74 8.340000000000002 14.594999999999997
O 93.82499999999999 10.425 18.764999999999997
O 95.91 10.425 16.679999999999996
O 93.82499999999999 12.510000000000003 16.679999999999996
O 91.74 8.340000000000002 18.764999999999997
O 95.91 10.425 20.849999999999994
O 91.74 8.340000000000002 22.934999999999995
O 93.82499999999999 14.595000000000002 2.085
O 95.91 14.595000000000002 0.0
O 93.82499999999999 16.680000000000003 0.0
O 91.74 12.510000000000003 2.085
O 93.82499999999999 14.595000000000002 6.254999999999999
O 95.91 14.595000000000002 4.169999999999999
O 93.82499999999999 16.680000000000003 4.169999999999999
O 91.74 12.510000000000003 6.254999999999999
O 93.82499999999999 14.595000000000002 10.424999999999997
O 95.91 14.595000000000002 8.339999999999998
O 93.82499999999999 16.680000000000003 8.339999999999998
O 91.74 12.510000000000003 10.424999999999997
O 93.82499999999999 14.595000000000002 14.594999999999997
O 95.91 14.595000000000002 12.509999999999998
O 93.82499999999999 16.680000000000003 12.509999999999998
O 91.74 12.510000000000003 14.594999999999997
O 95.91 14.595000000000002 16.679999999999996
O 91.74 12.510000000000003 18.764999999999997
O 93.82499999999999 18.765000000000004 2.085
O 95.91 18.765000000000004 0.0
O 93.82499999999999 20.849999999999998 0.0
O 91.74 16.680000000000003 2.085
O 93.82499999999999 18.765000000000004 6.254999999999999
O 95.91 18.765000000000004 4.169999999999999
O 93.82499999999999 20.849999999999998 4.169999999999999
O 91.74 16.680000000000003 6.254999999999999
O 93.82499999999999 18.765000000000004 10.424999999999997
O 95.91 18.765000000000004 8.339999999999998
O 93.82499999999999 20.849999999999998 8.339999999999998
O 91.74 16.680000000000003 10.424999999999997
O 95.91 18.765000000000004 12.509999999999998
O 91.74 16.680000000000003 14.594999999999997
O 93.82499999999999 22.935000000000002 2.085
O 95.91 22.935000000000002 0.0
O 93.82499999999999 25.020000000000007 0.0
O 91.74 20.849999999999998 2.085
O 93.82499999999999 22.935000000000002 6.254999999999999
O 95.91 22.935000000000002 4.169999999999999
O 93.82499999999999 25.020000000000007 4.169999999999999
O 91.74 20.849999999999998 6.254999999999999
O 93.82499999999999 22.935000000000002 10.424999999999997
O 95.91 22.935000000000002 8.339999999999998
O 93.82499999999999 25.020000000000007 8.339999999999998
O 91.74 20.849999999999998 10.424999999999997
O 95.91 22.935000000000002 12.509999999999998
O 93.82499999999999 25.020000000000007 12.509999999999998
O 93.82499999999999 27.105000000000008 2.085
O 95.91 27.105000000000008 0.0
O 93.82499999999999 29.190000000000005 0.0
O 91.74 25.020000000000007 2.085
O 93.82499999999999 27.105000000000008 6.254999999999999
O 95.91 27.105000000000008 4.169999999999999
O 93.82499999999999 29.190000000000005 4.169999999999999
O 91.74 25.020000000000007 6.254999999999999
O 93.82499999999999 27.105000000000008 10.424999999999997
O 95.91 27.105000000000008 8.339999999999998
O 93.82499999999999 29.190000000000005 8.339999999999998
O 91.74 25.020000000000007 10.424999999999997
O 93.82499999999999 27.105000000000008 14.594999999999997
O 95.91 27.105000000000008 12.509999999999998
O 93.82499999999999 29.190000000000005 12.509999999999998
O 91.74 25.020000000000007 14.594999999999997
O 95.91 27.105000000000008 16.679999999999996
O 93.82499999999999 29.190000000000005 16.679999999999996
O 93.82499999999999 31.275000000000006 2.085
O 95.91 31.275000000000006 0.0
O 93.82499999999999 33.36000000000001 0.0
O 91.74 29.190000000000005 2.085
O 93.82499999999999 31.275000000000006 6.254999999999999
O 95.91 31.275000000000006 4.169999999999999
O 93.82499999999999 33.36000000000001 4.169999999999999
O 91.74 29.190000000000005 6.254999999999999
O 93.82499999999999 31.275000000000006 10.424999999999997
O 95.91 31.275000000000006 8.339999999999998
O 93.82499999999999 33.36000000000001 8.339999999999998
O 91.74 29.190000000000005 10.424999999999997
O 93.82499999999999 31.275000000000006 14.594999999999997
O 95.91 31.275000000000006 12.509999999999998
O 93.82499999999999 33.36000000000001 12.509999999999998
O 91.74 29.190000000000005 14.594999999999997
O 93.82499999999999 31.275000000000006 18.764999999999997
O 95.91 31.275000000000006 16.679999999999996
O 93.82499999999999 33.36000000000001 16.679999999999996
O 91.74 29.190000000000005 18.764999999999997
O 95.91 31.275000000000006 20.849999999999994
O 93.82499999999999 33.36000000000001 20.849999999999994
O 93.82499999999999 35.44500000000001 2.085
O 95.91 35.44500000000001 0.0
O 93.82499999999999 37.53000000000001 0.0
O 91.74 33.36000000000001 2.085
O 93.82499999999999 35.44500000000001 6.254999999999999
O 95.91 35.44500000000001 4.169999999999999
O 93.82499999999999 37.53000000000001 4.169999999999999
O 91.74 33.36000000000001 6.254999999999999
O 93.82499999999999 35.44500000000001 10.424999999999997
O 95.91 35.44500000000001 8.339999999999998
O 93.82499999999999 37.53000000000001 8.339999999999998
O 91.74 33.36000000000001 10.424999999999997
O 93.82499999999999 35.44500000000001 14.594999999999997
O 95.91 35.44500000000001 12.509999999999998
O 93.82499999999999 37.53000000000001 12.509999999999998
O 91.74 33.36000000000001 14.594999999999997
O 93.82499999999999 35.44500000000001 18.764999999999997
O 95.91 35.44500000000001 16.679999999999996
O 93.82499999999999 37.53000000000001 16.679999999999996
O 91.74 33.36000000000001 18.764999999999997
O 93.82499999999999 35.44500000000001 22.934999999999995
O 95.91 35.44500000000001 20.849999999999994
O 93.82499999999999 37.53000000000001 20.849999999999994
O 91.74 33.36000000000001 22.934999999999995
O 95.91 35.44500000000001 25.019999999999996
O 93.82499999999999 37.53000000000001 25.019999999999996
O 93.82499999999999 39.615 2.085
O 95.91 39.615 0.0
O 93.82499999999999 2.7318179660128058e-15 0.0
O 91.74 37.53 2.085
O 93.82499999999999 39.615 6.254999999999999
O 95.91 39.615 4.169999999999999
O 93.82499999999999 2.7318179660128058e-15 4.169999999999999
O 91.74 37.53 6.254999999999999
O 93.82499999999999 39.615 10.424999999999997
O 95.91 39.615 8.339999999999998
O 93.82499999999999 2.7318179660128058e-15 8.339999999999998
O 91.74 37.53 10.424999999999997
O 93.82499999999999 39.615 14.594999999999997
O 95.91 39.615 12.509999999999998
O 93.82499999999999 2.7318179660128058e-15 12.509999999999998
O 91.74 37.53 14.594999999999997
O 93.82499999999999 39.615 18.764999999999997
O 95.91 39.615 16.679999999999996
O 93.82499999999999 2.7318179660128058e-15 16.679999999999996
O 91.74 37.53 18.764999999999997
O 93.82499999999999 39.615 22.934999999999995
O 95.91 39.615 20.849999999999994
O 93.82499999999999 2.7318179660128058e-15 20.849999999999994
O 91.74 37.53 22.934999999999995
O 93.82499999999999 39.615 27.104999999999997
O 95.91 39.615 25.019999999999996
O 93.82499999999999 2.7318179660128058e-15 25.019999999999996
O 91.74 37.53 27.104999999999997
O 97.99499999999998 2.085 2.085
O 100.07999999999998 2.085 0.0
O 97.99499999999998 4.17 0.0
O 95.90999999999998 0.0 2.085
O 97.99499999999998 2.085 6.254999999999999
O 100.07999999999998 2.085 4.169999999999999
O 97.99499999999998 4.17 4.169999999999999
O 95.90999999999998 0.0 6.254999999999999
O 97.99499999999998 2.085 10.424999999999997
O 100.07999999999998 2.085 8.339999999999998
O 97.99499999999998 4.17 8.339999999999998
O 95.90999999999998 0.0 10.424999999999997
O 97.99499999999998 2.085 14.594999999999997
O 100.07999999999998 2.085 12.509999999999998
O 97.99499999999998 4.17 12.509999999999998
O 95.90999999999998 0.0 14.594999999999997
O 97.99499999999998 2.085 18.764999999999997
O 100.07999999999998 2.085 16.679999999999996
O 97.99499999999998 4.17 16.679999999999996
O 95.90999999999998 0.0 18.764999999999997
O 97.99499999999998 2.085 22.934999999999995
O 100.07999999999998 2.085 20.849999999999994
O 97.99499999999998 4.17 20.849999999999994
O 95.90999999999998 0.0 22.934999999999995
O 97.99499999999998 2.085 27.104999999999997
O 100.07999999999998 2.085 25.019999999999996
O 97.99499999999998 4.17 25.019999999999996
O 95.90999999999998 0.0 27.104999999999997
O 97.99499999999998 6.255000000000002 2.085
O 100.07999999999998 6.255000000000002 0.0
O 97.99499999999998 8.34 0.0
O 95.90999999999998 4.170000000000001 2.085
O 97.99499999999998 6.255000000000002 6.254999999999999
O 100.07999999999998 6.255000000000002 4.169999999999999
O 97.99499999999998 8.34 4.169999999999999
O 95.90999999999998 4.170000000000001 6.254999999999999
O 97.99499999999998 6.255000000000002 10.424999999999997
O 100.07999999999998 6.255000000000002 8.339999999999998
O 97.99499999999998 8.34 8.339999999999998
O 95.90999999999998 4.170000000000001 10.424999999999997
O 97.99499999999998 6.255000000000002 14.594999999999997
O 100.07999999999998 6.255000000000002 12.509999999999998
O 97.99499999999998 8.34 12.509999999999998
O 95.90999999999998 4.170000000000001 14.594999999999997
O 97.99499999999998 6.255000000000002 18.764999999999997
O 100.07999999999998 6.255000000000002 16.679999999999996
O 97.99499999999998 8.34 16.679999999999996
O 95.90999999999998 4.170000000000001 18.764999999999997
O 97.99499999999998 6.255000000000002 22.934999999999995
O 100.07999999999998 6.255000000000002 20.849999999999994
O 97.99499999999998 8.34 20.849999999999994
O 95.90999999999998 4.170000000000001 22.934999999999995
O 100.07999999999998 6.255000000000002 25.019999999999996
O 95.90999999999998 4.170000000000001 27.104999999999997
O 97.99499999999998 10.425 2.085
O 100.07999999999998 10.425 0.0
O 97.99499999999998 12.510000000000003 0.0
O 95.90999999999998 8.340000000000002 2.085
O 97.99499999999998 10.425 6.254999999999999
O 100.07999999999998 10.425 4.169999999999999
O 97.99499999999998 12.510000000000003 4.169999999999999
O 95.90999999999998 8.340000000000002 6.254999999999999
O 97.99499999999998 10.425 10.424999999999997
O 100.07999999999998 10.425 8.339999999999998
O 97.99499999999998 12.510000000000003 8.339999999999998
O 95.90999999999998 8.340000000000002 10.424999999999997
O 97.99499999999998 10.425 14.594999999999997
O 100.07999999999998 10.425 12.509999999999998
O 97.99499999999998 12.510000000000003 12.509999999999998
O 95.90999999999998 8.340000000000002 14.594999999999997
O 97.99499999999998 10.425 18.764999999999997
O 100.07999999999998 10.425 16.679999999999996
O 97.99499999999998 12.510000000000003 16.679999999999996
O 95.90999999999998 8.340000000000002 18.764999999999997
O 100.07999999999998 10.425 20.849999999999994
O 95.90999999999998 8.340000000000002 22.934999999999995
O 97.99499999999998 14.595000000000002 2.085
O 100.07999999999998 14.595000000000002 0.0
O 97.99499999999998 16.680000000000003 0.0
O 95.90999999999998 12.510000000000003 2.085
O 97.99499999999998 14.595000000000002 6.254999999999999
O 100.07999999999998 14.595000000000002 4.169999999999999
O 97.99499999999998 16.680000000000003 4.169999999999999
O 95.90999999999998 12.510000000000003 6.254999999999999
O 97.99499999999998 14.595000000000002 10.424999999999997
O 100.07999999999998 14.595000000000002 8.339999999999998
O 97.99499999999998 16.680000000000003 8.339999999999998
O 95.90999999999998 12.510000000000003 10.424999999999997
O 97.99499999999998 14.595000000000002 14.594999999999997
O 100.07999999999998 14.595000000000002 12.509999999999998
O 97.99499999999998 16.680000000000003 12.509999999999998
O 95.90999999999998 12.510000000000003 14.594999999999997
O 100.07999999999998 14.595000000000002 16.679999999999996
O 95.90999999999998 12.510000000000003 18.764999999999997
O 97.99499999999998 18.765000000000004 2.085
O 100.07999999999998 18.765000000000004 0.0
O 97.99499999999998 20.849999999999998 0.0
O 95.90999999999998 16.680000000000003 2.085
O 97.99499999999998 18.765000000000004 6.254999999999999
O 100.07999999999998 18.765000000000004 4.169999999999999
O 97.99499999999998 20.849999999999998 4.169999999999999
O 95.90999999999998 16.680000000000003 6.254999999999999
O 97.99499999999998 18.765000000000004 10.424999999999997
O 100.07999999999998 18.765000000000004 8.339999999999998
O 97.99499999999998 20.849999999999998 8.339999999999998
O 95.90999999999998 16.680000000000003 10.424999999999997
O 100.07999999999998 18.765000000000004 12.509999999999998
O 95.90999999999998 16.680000000000003 14.594999999999997
O 97.99499999999998 22.935000000000002 2.085
O 100.07999999999998 22.935000000000002 0.0
O 97.99499999999998 25.020000000000007 0.0
O 95.90999999999998 20.849999999999998 2.085
O 97.99499999999998 22.935000000000002 6.254999999999999
O 100.07999999999998 22.935000000000002 4.169999999999999
O 97.99499999999998 25.020000000000007 4.169999999999999
O 95.90999999999998 20.849999999999998 6.254999999999999
O 97.99499999999998 22.935000000000002 10.424999999999997
O 100.07999999999998 22.935000000000002 8.339999999999998
O 97.99499999999998 25.020000000000007 8.339999999999998
O 95.90999999999998 20.849999999999998 10.424999999999997
O 100.07999999999998 22.935000000000002 12.509999999999998
O 97.99499999999998 25.020000000000007 12.509999999999998
O 97.99499999999998 27.105000000000008 2.085
O 100.07999999999998 27.105000000000008 0.0
O 97.99499999999998 29.190000000000005 0.0
O 95.90999999999998 25.020000000000007 2.085
O 97.99499999999998 27.105000000000008 6.254999999999999
O 100.07999999999998 27.105000000000008 4.169999999999999
O 97.99499999999998 29.190000000000005 4.169999999999999
O 95.90999999999998 25.020000000000007 6.254999999999999
O 97.99499999999998 27.105000000000008 10.424999999999997
O 100.07999999999998 27.105000000000008 8.339999999999998
O 97.99499999999998 29.190000000000005 8.339999999999998
O 95.90999999999998 25.020000000000007 10.424999999999997
O 97.99499999999998 27.105000000000008 14.594999999999997
O 100.07999999999998 27.105000000000008 12.509999999999998
O 97.99499999999998 29.190000000000005 12.509999999999998
O 95.90999999999998 25.020000000000007 14.594999999999997
O 100.07999999999998 27.105000000000008 16.679999999999996
O 97.99499999999998 29.190000000000005 16.679999999999996
O 97.99499999999998 31.275000000000006 2.085
O 100.07999999999998 31.275000000000006 0.0
O 97.99499999999998 33.36000000000001 0.0
O 95.90999999999998 29.190000000000005 2.085
O 97.99499999999998 31.275000000000006 6.254999999999999
O 100.07999999999998 31.275000000000006 4.169999999999999
O 97.99499999999998 33.36000000000001 4.169999999999999
O 95.90999999999998 29.190000000000005 6.254999999999999
O 97.99499999999998 31.275000000000006 10.424999999999997
O 100.07999999999998 31.275000000000006 8.339999999999998
O 97.99499999999998 33.36000000000001 8.339999999999998
O 95.90999999999998 29.190000000000005 10.424999999999997
O 97.99499999999998 31.275000000000006 14.594999999999997
O 100.07999999999998 31.275000000000006 12.509999999999998
O 97.99499999999998 33.36000000000001 12.509999999999998
O 95.90999999999998 29.190000000000005 14.594999999999997
O 97.99499999999998 31.275000000000006 18.764999999999997
O 100.07999999999998 31.275000000000006 16.679999999999996
O 97.99499999999998 33.36000000000001 16.679999999999996
O 95.90999999999998 29.190000000000005 18.764999999999997
O 100.07999999999998 31.275000000000006 20.849999999999994
O 97.99499999999998 33.36000000000001 20.849999999999994
O 97.99499999999998 35.44500000000001 2.085
O 100.07999999999998 35.44500000000001 0.0
O 97.99499999999998 37.53000000000001 0.0
O 95.90999999999998 33.36000000000001 2.085
O 97.99499999999998 35.44500000000001 6.254999999999999
O 100.07999999999998 35.44500000000001 4.169999999999999
O 97.99499999999998 37.53000000000001 4.169999999999999
O 95.90999999999998 33.36000000000001 6.254999999999999
O 97.99499999999998 35.44500000000001 10.424999999999997
O 100.07999999999998 35.44500000000001 8.339999999999998
O 97.99499999999998 37.53000000000001 8.339999999999998
O 95.90999999999998 33.36000000000001 10.424999999999997
O 97.99499999999998 35.44500000000001 14.594999999999997
O 100.07999999999998 35.44500000000001 12.509999999999998
O 97.99499999999998 37.53000000000001 12.509999999999998
O 95.90999999999998 33.36000000000001 14.594999999999997
O 97.99499999999998 35.44500000000001 18.764999999999997
O 100.07999999999998 35.44500000000001 16.679999999999996
O 97.99499999999998 37.53000000000001 16.679999999999996
O 95.90999999999998 33.36000000000001 18.764999999999997
O 97.99499999999998 35.44500000000001 22.934999999999995
O 100.07999999999998 35.44500000000001 20.849999999999994
O 97.99499999999998 37.53000000000001 20.849999999999994
O 95.90999999999998 33.36000000000001 22.934999999999995
O 100.07999999999998 35.44500000000001 25.019999999999996
O 97.99499999999998 37.53000000000001 25.019999999999996
O 97.99499999999998 39.615 2.085
O 100.07999999999998 39.615 0.0
O 97.99499999999998 2.7318179660128058e-15 0.0
O 95.90999999999998 37.53 2.085
O 97.99499999999998 39.615 6.254999999999999
O 100.07999999999998 39.615 4.169999999999999
O 97.99499999999998 2.7318179660128058e-15 4.169999999999999
O 95.90999999999998 37.53 6.254999999999999
O 97.99499999999998 39.615 10.424999999999997
O 100.07999999999998 39.615 8.339999999999998
O 97.99499999999998 2.7318179660128058e-15 8.339999999999998
O 95.90999999999998 37.53 10.424999999999997
O 97.99499999999998 39.615 14.594999999999997
O 100.07999999999998 39.615 12.509999999999998
O 97.99499999999998 2.7318179660128058e-15 12.509999999999998
O 95.90999999999998 37.53 14.594999999999997
O 97.99499999999998 39.615 18.764999999999997
O 100.07999999999998 39.615 16.679999999999996
O 97.99499999999998 2.7318179660128058e-15 16.679999999999996
O 95.90999999999998 37.53 18.764999999999997
O 97.99499999999998 39.615 22.934999999999995
O 100.07999999999998 39.615 20.849999999999994
O 97.99499999999998 2.7318179660128058e-15 20.849999999999994
O 95.90999999999998 37.53 22.934999999999995
O 97.99499999999998 39.615 27.104999999999997
O 100.07999999999998 39.615 25.019999999999996
O 97.99499999999998 2.7318179660128058e-15 25.019999999999996
O 95.90999999999998 37.53 27.104999999999997
O 102.16499999999999 2.085 2.085
O 104.25 2.085 0.0
O 102.16499999999999 4.17 0.0
O 100.08 0.0 2.085
O 102.16499999999999 2.085 6.254999999999999
O 104.25 2.085 4.169999999999999
O 102.16499999999999 4.17 4.169999999999999
O 100.08 0.0 6.254999999999999
O 102.16499999999999 2.085 10.424999999999997
O 104.25 2.085 8.339999999999998
O 102.16499999999999 4.17 8.339999999999998
O 100.08 0.0 10.424999999999997
O 102.16499999999999 2.085 14.594999999999997
O 104.25 2.085 12.509999999999998
O 102.16499999999999 4.17 12.509999999999998
O 100.08 0.0 14.594999999999997
O 102.16499999999999 2.085 18.764999999999997
O 104.25 2.085 16.679999999999996
O 102.16499999999999 4.17 16.679999999999996
O 100.08 0.0 18.764999999999997
O 102.16499999999999 2.085 22.934999999999995
O 104.25 2.085 20.849999999999994
O 102.16499999999999 4.17 20.849999999999994
O 100.08 0.0 22.934999999999995
O 102.16499999999999 2.085 27.104999999999997
O 104.25 2.085 25.019999999999996
O 102.16499999999999 4.17 25.019999999999996
O 100.08 0.0 27.104999999999997
O 102.16499999999999 6.255000000000002 2.085
O 104.25 6.255000000000002 0.0
O 102.16499999999999 8.34 0.0
O 100.08 4.170000000000001 2.085
O 102.16499999999999 6.255000000000002 6.254999999999999
O 104.25 6.255000000000002 4.169999999999999
O 102.16499999999999 8.34 4.169999999999999
O 100.08 4.170000000000001 6.254999999999999
O 102.16499999999999 6.255000000000002 10.424999999999997
O 104.25 6.255000000000002 8.339999999999998
O 102.16499999999999 8.34 8.339999999999998
O 100.08 4.170000000000001 10.424999999999997
O 102.16499999999999 6.255000000000002 14.594999999999997
O 104.25 6.255000000000002 12.509999999999998
O 102.16499999999999 8.34 12.509999999999998
O 100.08 4.170000000000001 14.594999999999997
O 102.16499999999999 6.255000000000002 18.764999999999997
O 104.25 6.255000000000002 16.679999999999996
O 102.16499999999999 8.34 16.679999999999996
O 100.08 4.170000000000001 18.764999999999997
O 102.16499999999999 6.255000000000002 22.934999999999995
O 104.25 6.255000000000002 20.849999999999994
O 102.16499999999999 8.34 20.849999999999994
O 100.08 4.170000000000001 22.934999999999995
O 104.25 6.255000000000002 25.019999999999996
O 100.08 4.170000000000001 27.104999999999997
O 102.16499999999999 10.425 2.085
O 104.25 10.425 0.0
O 102.16499999999999 12.510000000000003 0.0
O 100.08 8.340000000000002 2.085
O 102.16499999999999 10.425 6.254999999999999
O 104.25 10.425 4.169999999999999
O 102.16499999999999 12.510000000000003 4.169999999999999
O 100.08 8.340000000000002 6.254999999999999
O 102.16499999999999 10.425 10.424999999999997
O 104.25 10.425 8.339999999999998
O 102.16499999999999 12.510000000000003 8.339999999999998
O 100.08 8.340000000000002 10.424999999999997
O 102.16499999999999 10.425 14.594999999999997
O 104.25 10.425 12.509999999999998
O 102.16499999999999 12.510000000000003 12.509999999999998
O 100.08 8.340000000000002 14.594999999999997
O 102.16499999999999 10.425 18.764999999999997
O 104.25 10.425 16.679999999999996
O 102.16499999999999 12.510000000000003 16.679999999999996
O 100.08 8.340000000000002 18.764999999999997
O 104.25 10.425 20.849999999999994
O 100.08 8.340000000000002 22.934999999999995
O 102.16499999999999 14.595000000000002 2.085
O 104.25 14.595000000000002 0.0
O 102.16499999999999 16.680000000000003 0.0
O 100.08 12.510000000000003 2.085
O 102.16499999999999 14.595000000000002 6.254999999999999
O 104.25 14.595000000000002 4.169999999999999
O 102.16499999999999 16.680000000000003 4.169999999999999
O 100.08 12.510000000000003 6.254999999999999
O 102.16499999999999 14.595000000000002 10.424999999999997
O 104.25 14.595000000000002 8.339999999999998
O 102.16499999999999 16.680000000000003 8.339999999999998
O 100.08 12.510000000000003 10.424999999999997
O 102.16499999999999 14.595000000000002 14.594999999999997
O 104.25 14.595000000000002 12.509999999999998
O 102.16499999999999 16.680000000000003 12.509999999999998
O 100.08 12.510000000000003 14.594999999999997
O 104.25 14.595000000000002 16.679999999999996
O 100.08 12.510000000000003 18.764999999999997
O 102.16499999999999 18.765000000000004 2.085
O 104.25 18.765000000000004 0.0
O 102.16499999999999 20.849999999999998 0.0
O 100.08 16.680000000000003 2.085
O 102.16499999999999 18.765000000000004 6.254999999999999
O 104.25 18.765000000000004 4.169999999999999
O 102.16499999999999 20.849999999999998 4.169999999999999
O 100.08 16.680000000000003 6.254999999999999
O 102.16499999999999 18.765000000000004 10.424999999999997
O 104.25 18.765000000000004 8.339999999999998
O 102.16499999999999 20.849999999999998 8.339999999999998
O 100.08 16.680000000000003 10.424999999999997
O 104.25 18.765000000000004 12.509999999999998
O 100.08 16.680000000000003 14.594999999999997
O 102.16499999999999 22.935000000000002 2.085
O 104.25 22.935000000000002 0.0
O 102.16499999999999 25.020000000000007 0.0
O 100.08 20.849999999999998 2.085
O 102.16499999999999 22.935000000000002 6.254999999999999
O 104.25 22.935000000000002 4.169999999999999
O 102.16499999999999 25.020000000000007 4.169999999999999
O 100.08 20.849999999999998 6.254999999999999
O 102.16499999999999 22.935000000000002 10.424999999999997
O 104.25 22.935000000000002 8.339999999999998
O 102.16499999999999 25.020000000000007 8.339999999999998
O 100.08 20.849999999999998 10.424999999999997
O 104.25 22.935000000000002 12.509999999999998
O 102.16499999999999 25.020000000000007 12.509999999999998
O 102.16499999999999 27.105000000000008 2.085
O 104.25 27.105000000000008 0.0
O 102.16499999999999 29.190000000000005 0.0
O 100.08 25.020000000000007 2.085
O 102.16499999999999 27.105000000000008 6.254999999999999
O 104.25 27.105000000000008 4.169999999999999
O 102.16499999999999 29.190000000000005 4.169999999999999
O 100.08 25.020000000000007 6.254999999999999
O 102.16499999999999 27.105000000000008 10.424999999999997
O 104.25 27.105000000000008 8.339999999999998
O 102.16499999999999 29.190000000000005 8.339999999999998
O 100.08 25.020000000000007 10.424999999999997
O 102.16499999999999 27.105000000000008 14.594999999999997
O 104.25 27.105000000000008 12.509999999999998
O 102.16499999999999 29.190000000000005 12.509999999999998
O 100.08 25.020000000000007 14.594999999999997
O 104.25 27.105000000000008 16.679999999999996
O 102.16499999999999 29.190000000000005 16.679999999999996
O 102.16499999999999 31.275000000000006 2.085
O 104.25 31.275000000000006 0.0
O 102.16499999999999 33.36000000000001 0.0
O 100.08 29.190000000000005 2.085
O 102.16499999999999 31.275000000000006 6.254999999999999
O 104.25 31.275000000000006 4.169999999999999
O 102.16499999999999 33.36000000000001 4.169999999999999
O 100.08 29.190000000000005 6.254999999999999
O 102.16499999999999 31.275000000000006 10.424999999999997
O 104.25 31.275000000000006 8.339999999999998
O 102.16499999999999 33.36000000000001 8.339999999999998
O 100.08 29.190000000000005 10.424999999999997
O 102.16499999999999 31.275000000000006 14.594999999999997
O 104.25 31.275000000000006 12.509999999999998
O 102.16499999999999 33.36000000000001 12.509999999999998
O 100.08 29.190000000000005 14.594999999999997
O 102.16499999999999 31.275000000000006 18.764999999999997
O 104.25 31.275000000000006 16.679999999999996
O 102.16499999999999 33.36000000000001 16.679999999999996
O 100.08 29.190000000000005 18.764999999999997
O 104.25 31.275000000000006 20.849999999999994
O 102.16499999999999 33.36000000000001 20.849999999999994
O 102.16499999999999 35.44500000000001 2.085
O 104.25 35.44500000000001 0.0
O 102.16499999999999 37.53000000000001 0.0
O 100.08 33.36000000000001 2.085
O 102.16499999999999 35.44500000000001 6.254999999999999
O 104.25 35.44500000000001 4.169999999999999
O 102.16499999999999 37.53000000000001 4.169999999999999
O 100.08 33.36000000000001 6.254999999999999
O 102.16499999999999 35.44500000000001 10.424999999999997
O 104.25 35.44500000000001 8.339999999999998
O 102.16499999999999 37.53000000000001 8.339999999999998
O 100.08 33.36000000000001 10.424999999999997
O 102.16499999999999 35.44500000000001 14.594999999999997
O 104.25 35.44500000000001 12.509999999999998
O 102.16499999999999 37.53000000000001 12.509999999999998
O 100.08 33.36000000000001 14.594999999999997
O 102.16499999999999 35.44500000000001 18.764999999999997
O 104.25 35.44500000000001 16.679999999999996
O 102.16499999999999 37.53000000000001 16.679999999999996
O 100.08 33.36000000000001 18.764999999999997
O 102.16499999999999 35.44500000000001 22.934999999999995
O 104.25 35.44500000000001 20.849999999999994
O 102.16499999999999 37.53000000000001 20.849999999999994
O 100.08 33.36000000000001 22.934999999999995
O 104.25 35.44500000000001 25.019999999999996
O 102.16499999999999 37.53000000000001 25.019999999999996
O 102.16499999999999 39.615 2.085
O 104.25 39.615 0.0
O 102.16499999999999 2.7318179660128058e-15 0.0
O 100.08 37.53 2.085
O 102.16499999999999 39.615 6.254999999999999
O 104.25 39.615 4.169999999999999
O 102.16499999999999 2.7318179660128058e-15 4.169999999999999
O 100.08 37.53 6.254999999999999
O 102.16499999999999 39.615 10.424999999999997
O 104.25 39.615 8.339999999999998
O 102.16499999999999 2.7318179660128058e-15 8.339999999999998
O 100.08 37.53 10.424999999999997
O 102.16499999999999 39.615 14.594999999999997
O 104.25 39.615 12.509999999999998
O 102.16499999999999 2.7318179660128058e-15 12.509999999999998
O 100.08 37.53 14.594999999999997
O 102.16499999999999 39.615 18.764999999999997
O 104.25 39.615 16.679999999999996
O 102.16499999999999 2.7318179660128058e-15 16.679999999999996
O 100.08 37.53 18.764999999999997
O 102.16499999999999 39.615 22.934999999999995
O 104.25 39.615 20.849999999999994
O 102.16499999999999 2.7318179660128058e-15 20.849999999999994
O 100.08 37.53 22.934999999999995
O 102.16499999999999 39.615 27.104999999999997
O 104.25 39.615 25.019999999999996
O 102.16499999999999 2.7318179660128058e-15 25.019999999999996
O 100.08 37.53 27.104999999999997
O 106.335 2.085 2.085
O 108.42 2.085 0.0
O 106.335 4.17 0.0
O 104.25 0.0 2.085
O 106.335 2.085 6.254999999999999
O 108.42 2.085 4.169999999999999
O 106.335 4.17 4.169999999999999
O 104.25 0.0 6.254999999999999
O 106.335 2.085 10.424999999999997
O 108.42 2.085 8.339999999999998
O 106.335 4.17 8.339999999999998
O 104.25 0.0 10.424999999999997
O 106.335 2.085 14.594999999999997
O 108.42 2.085 12.509999999999998
O 106.335 4.17 12.509999999999998
O 104.25 0.0 14.594999999999997
O 106.335 2.085 18.764999999999997
O 108.42 2.085 16.679999999999996
O 106.335 4.17 16.679999999999996
O 104.25 0.0 18.764999999999997
O 106.335 2.085 22.934999999999995
O 108.42 2.085 20.849999999999994
O 106.335 4.17 20.849999999999994
O 104.25 0.0 22.934999999999995
O 106.335 2.085 27.104999999999997
O 108.42 2.085 25.019999999999996
O 106.335 4.17 25.019999999999996
O 104.25 0.0 27.104999999999997
O 106.335 6.255000000000002 2.085
O 108.42 6.255000000000002 0.0
O 106.335 8.34 0.0
O 104.25 4.170000000000001 2.085
O 106.335 6.255000000000002 6.254999999999999
O 108.42 6.255000000000002 4.169999999999999
O 106.335 8.34 4.169999999999999
O 104.25 4.170000000000001 6.254999999999999
O 106.335 6.255000000000002 10.424999999999997
O 108.42 6.255000000000002 8.339999999999998
O 106.335 8.34 8.339999999999998
O 104.25 4.170000000000001 10.424999999999997
O 106.335 6.255000000000002 14.594999999999997
O 108.42 6.255000000000002 12.509999999999998
O 106.335 8.34 12.509999999999998
O 104.25 4.170000000000001 14.594999999999997
O 106.335 6.255000000000002 18.764999999999997
O 108.42 6.255000000000002 16.679999999999996
O 106.335 8.34 16.679999999999996
O 104.25 4.170000000000001 18.764999999999997
O 106.335 6.255000000000002 22.934999999999995
O 108.42 6.255000000000002 20.849999999999994
O 106.335 8.34 20.849999999999994
O 104.25 4.170000000000001 22.934999999999995
O 108.42 6.255000000000002 25.019999999999996
O 104.25 4.170000000000001 27.104999999999997
O 106.335 10.425 2.085
O 108.42 10.425 0.0
O 106.335 12.510000000000003 0.0
O 104.25 8.340000000000002 2.085
O 106.335 10.425 6.254999999999999
O 108.42 10.425 4.169999999999999
O 106.335 12.510000000000003 4.169999999999999
O 104.25 8.340000000000002 6.254999999999999
O 106.335 10.425 10.424999999999997
O 108.42 10.425 8.339999999999998
O 106.335 12.510000000000003 8.339999999999998
O 104.25 8.340000000000002 10.424999999999997
O 106.335 10.425 14.594999999999997
O 108.42 10.425 12.509999999999998
O 106.335 12.510000000000003 12.509999999999998
O 104.25 8.340000000000002 14.594999999999997
O 106.335 10.425 18.764999999999997
O 108.42 10.425 16.679999999999996
O 106.335 12.510000000000003 16.679999999999996
O 104.25 8.340000000000002 18.764999999999997
O 108.42 10.425 20.849999999999994
O 104.25 8.340000000000002 22.934999999999995
O 106.335 14.595000000000002 2.085
O 108.42 14.595000000000002 0.0
O 106.335 16.680000000000003 0.0
O 104.25 12.510000000000003 2.085
O 106.335 14.595000000000002 6.254999999999999
O 108.42 14.595000000000002 4.169999999999999
O 106.335 16.680000000000003 4.169999999999999
O 104.25 12.510000000000003 6.254999999999999
O 106.335 14.595000000000002 10.424999999999997
O 108.42 14.595000000000002 8.339999999999998
O 106.335 16.680000000000003 8.339999999999998
O 104.25 12.510000000000003 10.424999999999997
O 106.335 14.595000000000002 14.594999999999997
O 108.42 14.595000000000002 12.509999999999998
O 106.335 16.680000000000003 12.509999999999998
O 104.25 12.510000000000003 14.594999999999997
O 108.42 14.595000000000002 16.679999999999996
O 104.25 12.510000000000003 18.764999999999997
O 106.335 18.765000000000004 2.085
O 108.42 18.765000000000004 0.0
O 106.335 20.849999999999998 0.0
O 104.25 16.680000000000003 2.085
O 106.335 18.765000000000004 6.254999999999999
O 108.42 18.765000000000004 4.169999999999999
O 106.335 20.849999999999998 4.169999999999999
O 104.25 16.680000000000003 6.254999999999999
O 106.335 18.765000000000004 10.424999999999997
O 108.42 18.765000000000004 8.339999999999998
O 106.335 20.849999999999998 8.339999999999998
O 104.25 16.680000000000003 10.424999999999997
O 108.42 18.765000000000004 12.509999999999998
O 104.25 16.680000000000003 14.594999999999997
O 106.335 22.935000000000002 2.085
O 108.42 22.935000000000002 0.0
O 106.335 25.020000000000007 0.0
O 104.25 20.849999999999998 2.085
O 106.335 22.935000000000002 6.254999999999999
O 108.42 22.935000000000002 4.169999999999999
O 106.335 25.020000000000007 4.169999999999999
O 104.25 20.849999999999998 6.254999999999999
O 106.335 22.935000000000002 10.424999999999997
O 108.42 22.935000000000002 8.339999999999998
O 106.335 25.020000000000007 8.339999999999998
O 104.25 20.849999999999998 10.424999999999997
O 108.42 22.935000000000002 12.509999999999998
O 106.335 25.020000000000007 12.509999999999998
O 106.335 27.105000000000008 2.085
O 108.42 27.105000000000008 0.0
O 106.335 29.190000000000005 0.0
O 104.25 25.020000000000007 2.085
O 106.335 27.105000000000008 6.254999999999999
O 108.42 27.105000000000008 4.169999999999999
O 106.335 29.190000000000005 4.169999999999999
O 104.25 25.020000000000007 6.254999999999999
O 106.335 27.105000000000008 10.424999999999997
O 108.42 27.105000000000008 8.339999999999998
O 106.335 29.190000000000005 8.339999999999998
O 104.25 25.020000000000007 10.424999999999997
O 106.335 27.105000000000008 14.594999999999997
O 108.42 27.105000000000008 12.509999999999998
O 106.335 29.190000000000005 12.509999999999998
O 104.25 25.020000000000007 14.594999999999997
O 108.42 27.105000000000008 16.679999999999996
O 106.335 29.190000000000005 16.679999999999996
O 106.335 31.275000000000006 2.085
O 108.42 31.275000000000006 0.0
O 106.335 33.36000000000001 0.0
O 104.25 29.190000000000005 2.085
O 106.335 31.275000000000006 6.254999999999999
O 108.42 31.275000000000006 4.169999999999999
O 106.335 33.36000000000001 4.169999999999999
O 104.25 29.190000000000005 6.254999999999999
O 106.335 31.275000000000006 10.424999999999997
O 108.42 31.275000000000006 8.339999999999998
O 106.335 33.36000000000001 8.339999999999998
O 104.25 29.190000000000005 10.424999999999997
O 106.335 31.275000000000006 14.594999999999997
O 108.42 31.275000000000006 12.509999999999998
O 106.335 33.36000000000001 12.509999999999998
O 104.25 29.190000000000005 14.594999999999997
O 106.335 31.275000000000006 18.764999999999997
O 108.42 31.275000000000006 16.679999999999996
O 106.335 33.36000000000001 16.679999999999996
O 104.25 29.190000000000005 18.764999999999997
O 108.42 31.275000000000006 20.849999999999994
O 106.335 33.36000000000001 20.849999999999994
O 106.335 35.44500000000001 2.085
O 108.42 35.44500000000001 0.0
O 106.335 37.53000000000001 0.0
O 104.25 33.36000000000001 2.085
O 106.335 35.44500000000001 6.254999999999999
O 108.42 35.44500000000001 4.169999999999999
O 106.335 37.53000000000001 4.169999999999999
O 104.25 33.36000000000001 6.254999999999999
O 106.335 35.44500000000001 10.424999999999997
O 108.42 35.44500000000001 8.339999999999998
O 106.335 37.53000000000001 8.339999999999998
O 104.25 33.36000000000001 10.424999999999997
O 106.335 35.44500000000001 14.594999999999997
O 108.42 35.44500000000001 12.509999999999998
O 106.335 37.53000000000001 12.509999999999998
O 104.25 33.36000000000001 14.594999999999997
O 106.335 35.44500000000001 18.764999999999997
O 108.42 35.44500000000001 16.679999999999996
O 106.335 37.53000000000001 16.679999999999996
O 104.25 33.36000000000001 18.764999999999997
O 106.335 35.44500000000001 22.934999999999995
O 108.42 35.44500000000001 20.849999999999994
O 106.335 37.53000000000001 20.849999999999994
O 104.25 33.36000000000001 22.934999999999995
O 108.42 35.44500000000001 25.019999999999996
O 106.335 37.53000000000001 25.019999999999996
O 106.335 39.615 2.085
O 108.42 39.615 0.0
O 106.335 2.7318179660128058e-15 0.0
O 104.25 37.53 2.085
O 106.335 39.615 6.254999999999999
O 108.42 39.615 4.169999999999999
O 106.335 2.7318179660128058e-15 4.169999999999999
O 104.25 37.53 6.254999999999999
O 106.335 39.615 10.424999999999997
O 108.42 39.615 8.339999999999998
O 106.335 2.7318179660128058e-15 8.339999999999998
O 104.25 37.53 10.424999999999997
O 106.335 39.615 14.594999999999997
O 108.42 39.615 12.509999999999998
O 106.335 2.7318179660128058e-15 12.509999999999998
O 104.25 37.53 14.594999999999997
O 106.335 39.615 18.764999999999997
O 108.42 39.615 16.679999999999996
O 106.335 2.7318179660128058e-15 16.679999999999996
O 104.25 37.53 18.764999999999997
O 106.335 39.615 22.934999999999995
O 108.42 39.615 20.849999999999994
O 106.335 2.7318179660128058e-15 20.849999999999994
O 104.25 37.53 22.934999999999995
O 106.335 39.615 27.104999999999997
O 108.42 39.615 25.019999999999996
O 106.335 2.7318179660128058e-15 25.019999999999996
O 104.25 37.53 27.104999999999997
O 110.505 2.085 2.085
O 112.59 2.085 0.0
O 110.505 4.17 0.0
O 108.42 0.0 2.085
O 110.505 2.085 6.254999999999999
O 112.59 2.085 4.169999999999999
O 110.505 4.17 4.169999999999999
O 108.42 0.0 6.254999999999999
O 110.505 2.085 10.424999999999997
O 112.59 2.085 8.339999999999998
O 110.505 4.17 8.339999999999998
O 108.42 0.0 10.424999999999997
O 110.505 2.085 14.594999999999997
O 112.59 2.085 12.509999999999998
O 110.505 4.17 12.509999999999998
O 108.42 0.0 14.594999999999997
O 110.505 2.085 18.764999999999997
O 112.59 2.085 16.679999999999996
O 110.505 4.17 16.679999999999996
O 108.42 0.0 18.764999999999997
O 110.505 2.085 22.934999999999995
O 112.59 2.085 20.849999999999994
O 110.505 4.17 20.849999999999994
O 108.42 0.0 22.934999999999995
O 110.505 2.085 27.104999999999997
O 112.59 2.085 25.019999999999996
O 110.505 4.17 25.019999999999996
O 108.42 0.0 27.104999999999997
O 110.505 6.255000000000002 2.085
O 112.59 6.255000000000002 0.0
O 110.505 8.34 0.0
O 108.42 4.170000000000001 2.085
O 110.505 6.255000000000002 6.254999999999999
O 112.59 6.255000000000002 4.169999999999999
O 110.505 8.34 4.169999999999999
O 108.42 4.170000000000001 6.254999999999999
O 110.505 6.255000000000002 10.424999999999997
O 112.59 6.255000000000002 8.339999999999998
O 110.505 8.34 8.339999999999998
O 108.42 4.170000000000001 10.424999999999997
O 110.505 6.255000000000002 14.594999999999997
O 112.59 6.255000000000002 12.509999999999998
O 110.505 8.34 12.509999999999998
O 108.42 4.170000000000001 14.594999999999997
O 110.505 6.255000000000002 18.764999999999997
O 112.59 6.255000000000002 16.679999999999996
O 110.505 8.34 16.679999999999996
O 108.42 4.170000000000001 18.764999999999997
O 110.505 6.255000000000002 22.934999999999995
O 112.59 6.255000000000002 20.849999999999994
O 110.505 8.34 20.849999999999994
O 108.42 4.170000000000001 22.934999999999995
O 112.59 6.255000000000002 25.019999999999996
O 108.42 4.170000000000001 27.104999999999997
O 110.505 10.425 2.085
O 112.59 10.425 0.0
O 110.505 12.510000000000003 0.0
O 108.42 8.340000000000002 2.085
O 110.505 10.425 6.254999999999999
O 112.59 10.425 4.169999999999999
O 110.505 12.510000000000003 4.169999999999999
O 108.42 8.340000000000002 6.254999999999999
O 110.505 10.425 10.424999999999997
O 112.59 10.425 8.339999999999998
O 110.505 12.510000000000003 8.339999999999998
O 108.42 8.340000000000002 10.424999999999997
O 110.505 10.425 14.594999999999997
O 112.59 10.425 12.509999999999998
O 110.505 12.510000000000003 12.509999999999998
O 108.42 8.340000000000002 14.594999999999997
O 110.505 10.425 18.764999999999997
O 112.59 10.425 16.679999999999996
O 110.505 12.510000000000003 16.679999999999996
O 108.42 8.340000000000002 18.764999999999997
O 112.59 10.425 20.849999999999994
O 108.42 8.340000000000002 22.934999999999995
O 110.505 14.595000000000002 2.085
O 112.59 14.595000000000002 0.0
O 110.505 16.680000000000003 0.0
O 108.42 12.510000000000003 2.085
O 110.505 14.595000000000002 6.254999999999999
O 112.59 14.595000000000002 4.169999999999999
O 110.505 16.680000000000003 4.169999999999999
O 108.42 12.510000000000003 6.254999999999999
O 110.505 14.595000000000002 10.424999999999997
O 112.59 14.595000000000002 8.339999999999998
O 110.505 16.680000000000003 8.339999999999998
O 108.42 12.510000000000003 10.424999999999997
O 110.505 14.595000000000002 14.594999999999997
O 112.59 14.595000000000002 12.509999999999998
O 110.505 16.680000000000003 12.509999999999998
O 108.42 12.510000000000003 14.594999999999997
O 112.59 14.595000000000002 16.679999999999996
O 108.42 12.510000000000003 18.764999999999997
O 110.505 18.765000000000004 2.085
O 112.59 18.765000000000004 0.0
O 110.505 20.849999999999998 0.0
O 108.42 16.680000000000003 2.085
O 110.505 18.765000000000004 6.254999999999999
O 112.59 18.765000000000004 4.169999999999999
O 110.505 20.849999999999998 4.169999999999999
O 108.42 16.680000000000003 6.254999999999999
O 110.505 18.765000000000004 10.424999999999997
O 112.59 18.765000000000004 8.339999999999998
O 110.505 20.849999999999998 8.339999999999998
O 108.42 16.680000000000003 10.424999999999997
O 112.59 18.765000000000004 12.509999999999998
O 108.42 16.680000000000003 14.594999999999997
O 110.505 22.935000000000002 2.085
O 112.59 22.935000000000002 0.0
O 110.505 25.020000000000007 0.0
O 108.42 20.849999999999998 2.085
O 110.505 22.935000000000002 6.254999999999999
O 112.59 22.935000000000002 4.169999999999999
O 110.505 25.020000000000007 4.169999999999999
O 108.42 20.849999999999998 6.254999999999999
O 110.505 22.935000000000002 10.424999999999997
O 112.59 22.935000000000002 8.339999999999998
O 110.505 25.020000000000007 8.339999999999998
O 108.42 20.849999999999998 10.424999999999997
O 112.59 22.935000000000002 12.509999999999998
O 110.505 25.020000000000007 12.509999999999998
O 110.505 27.105000000000008 2.085
O 112.59 27.105000000000008 0.0
O 110.505 29.190000000000005 0.0
O 108.42 25.020000000000007 2.085
O 110.505 27.105000000000008 6.254999999999999
O 112.59 27.105000000000008 4.169999999999999
O 110.505 29.190000000000005 4.169999999999999
O 108.42 25.020000000000007 6.254999999999999
O 110.505 27.105000000000008 10.424999999999997
O 112.59 27.105000000000008 8.339999999999998
O 110.505 29.190000000000005 8.339999999999998
O 108.42 25.020000000000007 10.424999999999997
O 110.505 27.105000000000008 14.594999999999997
O 112.59 27.105000000000008 12.509999999999998
O 110.505 29.190000000000005 12.509999999999998
O 108.42 25.020000000000007 14.594999999999997
O 112.59 27.105000000000008 16.679999999999996
O 110.505 29.190000000000005 16.679999999999996
O 110.505 31.275000000000006 2.085
O 112.59 31.275000000000006 0.0
O 110.505 33.36000000000001 0.0
O 108.42 29.190000000000005 2.085
O 110.505 31.275000000000006 6.254999999999999
O 112.59 31.275000000000006 4.169999999999999
O 110.505 33.36000000000001 4.169999999999999
O 108.42 29.190000000000005 6.254999999999999
O 110.505 31.275000000000006 10.424999999999997
O 112.59 31.275000000000006 8.339999999999998
O 110.505 33.36000000000001 8.339999999999998
O 108.42 29.190000000000005 10.424999999999997
O 110.505 31.275000000000006 14.594999999999997
O 112.59 31.275000000000006 12.509999999999998
O 110.505 33.36000000000001 12.509999999999998
O 108.42 29.190000000000005 14.594999999999997
O 110.505 31.275000000000006 18.764999999999997
O 112.59 31.275000000000006 16.679999999999996
O 110.505 33.36000000000001 16.679999999999996
O 108.42 29.190000000000005 18.764999999999997
O 112.59 31.275000000000006 20.849999999999994
O 110.505 33.36000000000001 20.849999999999994
O 110.505 35.44500000000001 2.085
O 112.59 35.44500000000001 0.0
O 110.505 37.53000000000001 0.0
O 108.42 33.36000000000001 2.085
O 110.505 35.44500000000001 6.254999999999999
O 112.59 35.44500000000001 4.169999999999999
O 110.505 37.53000000000001 4.169999999999999
O 108.42 33.36000000000001 6.254999999999999
O 110.505 35.44500000000001 10.424999999999997
O 112.59 35.44500000000001 8.339999999999998
O 110.505 37.53000000000001 8.339999999999998
O 108.42 33.36000000000001 10.424999999999997
O 110.505 35.44500000000001 14.594999999999997
O 112.59 35.44500000000001 12.509999999999998
O 110.505 37.53000000000001 12.509999999999998
O 108.42 33.36000000000001 14.594999999999997
O 110.505 35.44500000000001 18.764999999999997
O 112.59 35.44500000000001 16.679999999999996
O 110.505 37.53000000000001 16.679999999999996
O 108.42 33.36000000000001 18.764999999999997
O 110.505 35.44500000000001 22.934999999999995
O 112.59 35.44500000000001 20.849999999999994
O 110.505 37.53000000000001 20.849999999999994
O 108.42 33.36000000000001 22.934999999999995
O 112.59 35.44500000000001 25.019999999999996
O 110.505 37.53000000000001 25.019999999999996
O 110.505 39.615 2.085
O 112.59 39.615 0.0
O 110.505 2.7318179660128058e-15 0.0
O 108.42 37.53 2.085
O 110.505 39.615 6.254999999999999
O 112.59 39.615 4.169999999999999
O 110.505 2.7318179660128058e-15 4.169999999999999
O 108.42 37.53 6.254999999999999
O 110.505 39.615 10.424999999999997
O 112.59 39.615 8.339999999999998
O 110.505 2.7318179660128058e-15 8.339999999999998
O 108.42 37.53 10.424999999999997
O 110.505 39.615 14.594999999999997
O 112.59 39.615 12.509999999999998
O 110.505 2.7318179660128058e-15 12.509999999999998
O 108.42 37.53 14.594999999999997
O 110.505 39.615 18.764999999999997
O 112.59 39.615 16.679999999999996
O 110.505 2.7318179660128058e-15 16.679999999999996
O 108.42 37.53 18.764999999999997
O 110.505 39.615 22.934999999999995
O 112.59 39.615 20.849999999999994
O 110.505 2.7318179660128058e-15 20.849999999999994
O 108.42 37.53 22.934999999999995
O 110.505 39.615 27.104999999999997
O 112.59 39.615 25.019999999999996
O 110.505 2.7318179660128058e-15 25.019999999999996
O 108.42 37.53 27.104999999999997
O 114.675 2.085 2.085
O 116.76 2.085 0.0
O 114.675 4.17 0.0
O 112.59 0.0 2.085
O 114.675 2.085 6.254999999999999
O 116.76 2.085 4.169999999999999
O 114.675 4.17 4.169999999999999
O 112.59 0.0 6.254999999999999
O 114.675 2.085 10.424999999999997
O 116.76 2.085 8.339999999999998
O 114.675 4.17 8.339999999999998
O 112.59 0.0 10.424999999999997
O 114.675 2.085 14.594999999999997
O 116.76 2.085 12.509999999999998
O 114.675 4.17 12.509999999999998
O 112.59 0.0 14.594999999999997
O 114.675 2.085 18.764999999999997
O 116.76 2.085 16.679999999999996
O 114.675 4.17 16.679999999999996
O 112.59 0.0 18.764999999999997
O 114.675 2.085 22.934999999999995
O 116.76 2.085 20.849999999999994
O 114.675 4.17 20.849999999999994
O 112.59 0.0 22.934999999999995
O 114.675 2.085 27.104999999999997
O 116.76 2.085 25.019999999999996
O 114.675 4.17 25.019999999999996
O 112.59 0.0 27.104999999999997
O 114.675 6.255000000000002 2.085
O 116.76 6.255000000000002 0.0
O 114.675 8.34 0.0
O 112.59 4.170000000000001 2.085
O 114.675 6.255000000000002 6.254999999999999
O 116.76 6.255000000000002 4.169999999999999
O 114.675 8.34 4.169999999999999
O 112.59 4.170000000000001 6.254999999999999
O 114.675 6.255000000000002 10.424999999999997
O 116.76 6.255000000000002 8.339999999999998
O 114.675 8.34 8.339999999999998
O 112.59 4.170000000000001 10.424999999999997
O 114.675 6.255000000000002 14.594999999999997
O 116.76 6.255000000000002 12.509999999999998
O 114.675 8.34 12.509999999999998
O 112.59 4.170000000000001 14.594999999999997
O 114.675 6.255000000000002 18.764999999999997
O 116.76 6.255000000000002 16.679999999999996
O 114.675 8.34 16.679999999999996
O 112.59 4.170000000000001 18.764999999999997
O 114.675 6.255000000000002 22.934999999999995
O 116.76 6.255000000000002 20.849999999999994
O 114.675 8.34 20.849999999999994
O 112.59 4.170000000000001 22.934999999999995
O 116.76 6.255000000000002 25.019999999999996
O 112.59 4.170000000000001 27.104999999999997
O 114.675 10.425 2.085
O 116.76 10.425 0.0
O 114.675 12.510000000000003 0.0
O 112.59 8.340000000000002 2.085
O 114.675 10.425 6.254999999999999
O 116.76 10.425 4.169999999999999
O 114.675 12.510000000000003 4.169999999999999
O 112.59 8.340000000000002 6.254999999999999
O 114.675 10.425 10.424999999999997
O 116.76 10.425 8.339999999999998
O 114.675 12.510000000000003 8.339999999999998
O 112.59 8.340000000000002 10.424999999999997
O 114.675 10.425 14.594999999999997
O 116.76 10.425 12.509999999999998
O 114.675 12.510000000000003 12.509999999999998
O 112.59 8.340000000000002 14.594999999999997
O 114.675 10.425 18.764999999999997
O 116.76 10.425 16.679999999999996
O 114.675 12.510000000000003 16.679999999999996
O 112.59 8.340000000000002 18.764999999999997
O 116.76 10.425 20.849999999999994
O 112.59 8.340000000000002 22.934999999999995
O 114.675 14.595000000000002 2.085
O 116.76 14.595000000000002 0.0
O 114.675 16.680000000000003 0.0
O 112.59 12.510000000000003 2.085
O 114.675 14.595000000000002 6.254999999999999
O 116.76 14.595000000000002 4.169999999999999
O 114.675 16.680000000000003 4.169999999999999
O 112.59 12.510000000000003 6.254999999999999
O 114.675 14.595000000000002 10.424999999999997
O 116.76 14.595000000000002 8.339999999999998
O 114.675 16.680000000000003 8.339999999999998
O 112.59 12.510000000000003 10.424999999999997
O 114.675 14.595000000000002 14.594999999999997
O 116.76 14.595000000000002 12.509999999999998
O 114.675 16.680000000000003 12.509999999999998
O 112.59 12.510000000000003 14.594999999999997
O 116.76 14.595000000000002 16.679999999999996
O 112.59 12.510000000000003 18.764999999999997
O 114.675 18.765000000000004 2.085
O 116.76 18.765000000000004 0.0
O 114.675 20.849999999999998 0.0
O 112.59 16.680000000000003 2.085
O 114.675 18.765000000000004 6.254999999999999
O 116.76 18.765000000000004 4.169999999999999
O 114.675 20.849999999999998 4.169999999999999
O 112.59 16.680000000000003 6.254999999999999
O 114.675 18.765000000000004 10.424999999999997
O 116.76 18.765000000000004 8.339999999999998
O 114.675 20.849999999999998 8.339999999999998
O 112.59 16.680000000000003 10.424999999999997
O 116.76 18.765000000000004 12.509999999999998
O 112.59 16.680000000000003 14.594999999999997
O 114.675 22.935000000000002 2.085
O 116.76 22.935000000000002 0.0
O 114.675 25.020000000000007 0.0
O 112.59 20.849999999999998 2.085
O 114.675 22.935000000000002 6.254999999999999
O 116.76 22.935000000000002 4.169999999999999
O 114.675 25.020000000000007 4.169999999999999
O 112.59 20.849999999999998 6.254999999999999
O 114.675 22.935000000000002 10.424999999999997
O 116.76 22.935000000000002 8.339999999999998
O 114.675 25.020000000000007 8.339999999999998
O 112.59 20.849999999999998 10.424999999999997
O 116.76 22.935000000000002 12.509999999999998
O 114.675 25.020000000000007 12.509999999999998
O 114.675 27.105000000000008 2.085
O 116.76 27.105000000000008 0.0
O 114.675 29.190000000000005 0.0
O 112.59 25.020000000000007 2.085
O 114.675 27.105000000000008 6.254999999999999
O 116.76 27.105000000000008 4.169999999999999
O 114.675 29.190000000000005 4.169999999999999
O 112.59 25.020000000000007 6.254999999999999
O 114.675 27.105000000000008 10.424999999999997
O 116.76 27.105000000000008 8.339999999999998
O 114.675 29.190000000000005 8.339999999999998
O 112.59 25.020000000000007 10.424999999999997
O 114.675 27.105000000000008 14.594999999999997
O 116.76 27.105000000000008 12.509999999999998
O 114.675 29.190000000000005 12.509999999999998
O 112.59 25.020000000000007 14.594999999999997
O 116.76 27.105000000000008 16.679999999999996
O 114.675 29.190000000000005 16.679999999999996
O 114.675 31.275000000000006 2.085
O 116.76 31.275000000000006 0.0
O 114.675 33.36000000000001 0.0
O 112.59 29.190000000000005 2.085
O 114.675 31.275000000000006 6.254999999999999
O 116.76 31.275000000000006 4.169999999999999
O 114.675 33.36000000000001 4.169999999999999
O 112.59 29.190000000000005 6.254999999999999
O 114.675 31.275000000000006 10.424999999999997
O 116.76 31.275000000000006 8.339999999999998
O 114.675 33.36000000000001 8.339999999999998
O 112.59 29.190000000000005 10.424999999999997
O 114.675 31.275000000000006 14.594999999999997
O 116.76 31.275000000000006 12.509999999999998
O 114.675 33.36000000000001 12.509999999999998
O 112.59 29.190000000000005 14.594999999999997
O 114.675 31.275000000000006 18.764999999999997
O 116.76 31.275000000000006 16.679999999999996
O 114.675 33.36000000000001 16.679999999999996
O 112.59 29.190000000000005 18.764999999999997
O 116.76 31.275000000000006 20.849999999999994
O 114.675 33.36000000000001 20.849999999999994
O 114.675 35.44500000000001 2.085
O 116.76 35.44500000000001 0.0
O 114.675 37.53000000000001 0.0
O 112.59 33.36000000000001 2.085
O 114.675 35.44500000000001 6.254999999999999
O 116.76 35.44500000000001 4.169999999999999
O 114.675 37.53000000000001 4.169999999999999
O 112.59 33.36000000000001 6.254999999999999
O 114.675 35.44500000000001 10.424999999999997
O 116.76 35.44500000000001 8.339999999999998
O 114.675 37.53000000000001 8.339999999999998
O 112.59 33.36000000000001 10.424999999999997
O 114.675 35.44500000000001 14.594999999999997
O 116.76 35.44500000000001 12.509999999999998
O 114.675 37.53000000000001 12.509999999999998
O 112.59 33.36000000000001 14.594999999999997
O 114.675 35.44500000000001 18.764999999999997
O 116.76 35.44500000000001 16.679999999999996
O 114.675 37.53000000000001 16.679999999999996
O 112.59 33.36000000000001 18.764999999999997
O 114.675 35.44500000000001 22.934999999999995
O 116.76 35.44500000000001 20.849999999999994
O 114.675 37.53000000000001 20.849999999999994
O 112.59 33.36000000000001 22.934999999999995
O 116.76 35.44500000000001 25.019999999999996
O 114.675 37.53000000000001 25.019999999999996
O 114.675 39.615 2.085
O 116.76 39.615 0.0
O 114.675 2.7318179660128058e-15 0.0
O 112.59 37.53 2.085
O 114.675 39.615 6.254999999999999
O 116.76 39.615 4.169999999999999
O 114.675 2.7318179660128058e-15 4.169999999999999
O 112.59 37.53 6.254999999999999
O 114.675 39.615 10.424999999999997
O 116.76 39.615 8.339999999999998
O 114.675 2.7318179660128058e-15 8.339999999999998
O 112.59 37.53 10.424999999999997
O 114.675 39.615 14.594999999999997
O 116.76 39.615 12.509999999999998
O 114.675 2.7318179660128058e-15 12.509999999999998
O 112.59 37.53 14.594999999999997
O 114.675 39.615 18.764999999999997
O 116.76 39.615 16.679999999999996
O 114.675 2.7318179660128058e-15 16.679999999999996
O 112.59 37.53 18.764999999999997
O 114.675 39.615 22.934999999999995
O 116.76 39.615 20.849999999999994
O 114.675 2.7318179660128058e-15 20.849999999999994
O 112.59 37.53 22.934999999999995
O 114.675 39.615 27.104999999999997
O 116.76 39.615 25.019999999999996
O 114.675 2.7318179660128058e-15 25.019999999999996
O 112.59 37.53 27.104999999999997
O 118.84499999999998 2.085 2.085
O 120.92999999999999 2.085 0.0
O 118.84499999999998 4.17 0.0
O 116.75999999999999 0.0 2.085
O 118.84499999999998 2.085 6.254999999999999
O 120.92999999999999 2.085 4.169999999999999
O 118.84499999999998 4.17 4.169999999999999
O 116.75999999999999 0.0 6.254999999999999
O 118.84499999999998 2.085 10.424999999999997
O 120.92999999999999 2.085 8.339999999999998
O 118.84499999999998 4.17 8.339999999999998
O 116.75999999999999 0.0 10.424999999999997
O 118.84499999999998 2.085 14.594999999999997
O 120.92999999999999 2.085 12.509999999999998
O 118.84499999999998 4.17 12.509999999999998
O 116.75999999999999 0.0 14.594999999999997
O 118.84499999999998 2.085 18.764999999999997
O 120.92999999999999 2.085 16.679999999999996
O 118.84499999999998 4.17 16.679999999999996
O 116.75999999999999 0.0 18.764999999999997
O 118.84499999999998 2.085 22.934999999999995
O 120.92999999999999 2.085 20.849999999999994
O 118.84499999999998 4.17 20.849999999999994
O 116.75999999999999 0.0 22.934999999999995
O 118.84499999999998 2.085 27.104999999999997
O 120.92999999999999 2.085 25.019999999999996
O 118.84499999999998 4.17 25.019999999999996
O 116.75999999999999 0.0 27.104999999999997
O 118.84499999999998 6.255000000000002 2.085
O 120.92999999999999 6.255000000000002 0.0
O 118.84499999999998 8.34 0.0
O 116.75999999999999 4.170000000000001 2.085
O 118.84499999999998 6.255000000000002 6.254999999999999
O 120.92999999999999 6.255000000000002 4.169999999999999
O 118.84499999999998 8.34 4.169999999999999
O 116.75999999999999 4.170000000000001 6.254999999999999
O 118.84499999999998 6.255000000000002 10.424999999999997
O 120.92999999999999 6.255000000000002 8.339999999999998
O 118.84499999999998 8.34 8.339999999999998
O 116.75999999999999 4.170000000000001 10.424999999999997
O 118.84499999999998 6.255000000000002 14.594999999999997
O 120.92999999999999 6.255000000000002 12.509999999999998
O 118.84499999999998 8.34 12.509999999999998
O 116.75999999999999 4.170000000000001 14.594999999999997
O 118.84499999999998 6.255000000000002 18.764999999999997
O 120.92999999999999 6.255000000000002 16.679999999999996
O 118.84499999999998 8.34 16.679999999999996
O 116.75999999999999 4.170000000000001 18.764999999999997
O 118.84499999999998 6.255000000000002 22.934999999999995
O 120.92999999999999 6.255000000000002 20.849999999999994
O 118.84499999999998 8.34 20.849999999999994
O 116.75999999999999 4.170000000000001 22.934999999999995
O 120.92999999999999 6.255000000000002 25.019999999999996
O 116.75999999999999 4.170000000000001 27.104999999999997
O 118.84499999999998 10.425 2.085
O 120.92999999999999 10.425 0.0
O 118.84499999999998 12.510000000000003 0.0
O 116.75999999999999 8.340000000000002 2.085
O 118.84499999999998 10.425 6.254999999999999
O 120.92999999999999 10.425 4.169999999999999
O 118.84499999999998 12.510000000000003 4.169999999999999
O 116.75999999999999 8.340000000000002 6.254999999999999
O 118.84499999999998 10.425 10.424999999999997
O 120.92999999999999 10.425 8.339999999999998
O 118.84499999999998 12.510000000000003 8.339999999999998
O 116.75999999999999 8.340000000000002 10.424999999999997
O 118.84499999999998 10.425 14.594999999999997
O 120.92999999999999 10.425 12.509999999999998
O 118.84499999999998 12.510000000000003 12.509999999999998
O 116.75999999999999 8.340000000000002 14.594999999999997
O 118.84499999999998 10.425 18.764999999999997
O 120.92999999999999 10.425 16.679999999999996
O 118.84499999999998 12.510000000000003 16.679999999999996
O 116.75999999999999 8.340000000000002 18.764999999999997
O 120.92999999999999 10.425 20.849999999999994
O 116.75999999999999 8.340000000000002 22.934999999999995
O 118.84499999999998 14.595000000000002 2.085
O 120.92999999999999 14.595000000000002 0.0
O 118.84499999999998 16.680000000000003 0.0
O 116.75999999999999 12.510000000000003 2.085
O 118.84499999999998 14.595000000000002 6.254999999999999
O 120.92999999999999 14.595000000000002 4.169999999999999
O 118.84499999999998 16.680000000000003 4.169999999999999
O 116.75999999999999 12.510000000000003 6.254999999999999
O 118.84499999999998 14.595000000000002 10.424999999999997
O 120.92999999999999 14.595000000000002 8.339999999999998
O 118.84499999999998 16.680000000000003 8.339999999999998
O 116.75999999999999 12.510000000000003 10.424999999999997
O 118.84499999999998 14.595000000000002 14.594999999999997
O 120.92999999999999 14.595000000000002 12.509999999999998
O 118.84499999999998 16.680000000000003 12.509999999999998
O 116.75999999999999 12.510000000000003 14.594999999999997
O 120.92999999999999 14.595000000000002 16.679999999999996
O 116.75999999999999 12.510000000000003 18.764999999999997
O 118.84499999999998 18.765000000000004 2.085
O 120.92999999999999 18.765000000000004 0.0
O 118.84499999999998 20.849999999999998 0.0
O 116.75999999999999 16.680000000000003 2.085
O 118.84499999999998 18.765000000000004 6.254999999999999
O 120.92999999999999 18.765000000000004 4.169999999999999
O 118.84499999999998 20.849999999999998 4.169999999999999
O 116.75999999999999 16.680000000000003 6.254999999999999
O 118.84499999999998 18.765000000000004 10.424999999999997
O 120.92999999999999 18.765000000000004 8.339999999999998
O 118.84499999999998 20.849999999999998 8.339999999999998
O 116.75999999999999 16.680000000000003 10.424999999999997
O 120.92999999999999 18.765000000000004 12.509999999999998
O 116.75999999999999 16.680000000000003 14.594999999999997
O 118.84499999999998 22.935000000000002 2.085
O 120.92999999999999 22.935000000000002 0.0
O 118.84499999999998 25.020000000000007 0.0
O 116.75999999999999 20.849999999999998 2.085
O 118.84499999999998 22.935000000000002 6.254999999999999
O 120.92999999999999 22.935000000000002 4.169999999999999
O 118.84499999999998 25.020000000000007 4.169999999999999
O 116.75999999999999 20.849999999999998 6.254999999999999
O 118.84499999999998 22.935000000000002 10.424999999999997
O 120.92999999999999 22.935000000000002 8.339999999999998
O 118.84499999999998 25.020000000000007 8.339999999999998
O 116.75999999999999 20.849999999999998 10.424999999999997
O 120.92999999999999 22.935000000000002 12.509999999999998
O 118.84499999999998 25.020000000000007 12.509999999999998
O 118.84499999999998 27.105000000000008 2.085
O 120.92999999999999 27.105000000000008 0.0
O 118.84499999999998 29.190000000000005 0.0
O 116.75999999999999 25.020000000000007 2.085
O 118.84499999999998 27.105000000000008 6.254999999999999
O 120.92999999999999 27.105000000000008 4.169999999999999
O 118.84499999999998 29.190000000000005 4.169999999999999
O 116.75999999999999 25.020000000000007 6.254999999999999
O 118.84499999999998 27.105000000000008 10.424999999999997
O 120.92999999999999 27.105000000000008 8.339999999999998
O 118.84499999999998 29.190000000000005 8.339999999999998
O 116.75999999999999 25.020000000000007 10.424999999999997
O 118.84499999999998 27.105000000000008 14.594999999999997
O 120.92999999999999 27.105000000000008 12.509999999999998
O 118.84499999999998 29.190000000000005 12.509999999999998
O 116.75999999999999 25.020000000000007 14.594999999999997
O 120.92999999999999 27.105000000000008 16.679999999999996
O 118.84499999999998 29.190000000000005 16.679999999999996
O 118.84499999999998 31.275000000000006 2.085
O 120.92999999999999 31.275000000000006 0.0
O 118.84499999999998 33.36000000000001 0.0
O 116.75999999999999 29.190000000000005 2.085
O 118.84499999999998 31.275000000000006 6.254999999999999
O 120.92999999999999 31.275000000000006 4.169999999999999
O 118.84499999999998 33.36000000000001 4.169999999999999
O 116.75999999999999 29.190000000000005 6.254999999999999
O 118.84499999999998 31.275000000000006 10.424999999999997
O 120.92999999999999 31.275000000000006 8.339999999999998
O 118.84499999999998 33.36000000000001 8.339999999999998
O 116.75999999999999 29.190000000000005 10.424999999999997
O 118.84499999999998 31.275000000000006 14.594999999999997
O 120.92999999999999 31.275000000000006 12.509999999999998
O 118.84499999999998 33.36000000000001 12.509999999999998
O 116.75999999999999 29.190000000000005 14.594999999999997
O 118.84499999999998 31.275000000000006 18.764999999999997
O 120.92999999999999 31.275000000000006 16.679999999999996
O 118.84499999999998 33.36000000000001 16.679999999999996
O 116.75999999999999 29.190000000000005 18.764999999999997
O 120.92999999999999 31.275000000000006 20.849999999999994
O 118.84499999999998 33.36000000000001 20.849999999999994
O 118.84499999999998 35.44500000000001 2.085
O 120.92999999999999 35.44500000000001 0.0
O 118.84499999999998 37.53000000000001 0.0
O 116.75999999999999 33.36000000000001 2.085
O 118.84499999999998 35.44500000000001 6.254999999999999
O 120.92999999999999 35.44500000000001 4.169999999999999
O 118.84499999999998 37.53000000000001 4.169999999999999
O 116.75999999999999 33.36000000000001 6.254999999999999
O 118.84499999999998 35.44500000000001 10.424999999999997
O 120.92999999999999 35.44500000000001 8.339999999999998
O 118.84499999999998 37.53000000000001 8.339999999999998
O 116.75999999999999 33.36000000000001 10.424999999999997
O 118.84499999999998 35.44500000000001 14.594999999999997
O 120.92999999999999 35.44500000000001 12.509999999999998
O 118.84499999999998 37.53000000000001 12.509999999999998
O 116.75999999999999 33.36000000000001 14.594999999999997
O 118.84499999999998 35.44500000000001 18.764999999999997
O 120.92999999999999 35.44500000000001 16.679999999999996
O 118.84499999999998 37.53000000000001 16.679999999999996
O 116.75999999999999 33.36000000000001 18.764999999999997
O 118.84499999999998 35.44500000000001 22.934999999999995
O 120.92999999999999 35.44500000000001 20.849999999999994
O 118.84499999999998 37.53000000000001 20.849999999999994
O 116.75999999999999 33.36000000000001 22.934999999999995
O 120.92999999999999 35.44500000000001 25.019999999999996
O 118.84499999999998 37.53000000000001 25.019999999999996
O 118.84499999999998 39.615 2.085
O 120.92999999999999 39.615 0.0
O 118.84499999999998 2.7318179660128058e-15 0.0
O 116.75999999999999 37.53 2.085
O 118.84499999999998 39.615 6.254999999999999
O 120.92999999999999 39.615 4.169999999999999
O 118.84499999999998 2.7318179660128058e-15 4.169999999999999
O 116.75999999999999 37.53 6.254999999999999
O 118.84499999999998 39.615 10.424999999999997
O 120.92999999999999 39.615 8.339999999999998
O 118.84499999999998 2.7318179660128058e-15 8.339999999999998
O 116.75999999999999 37.53 10.424999999999997
O 118.84499999999998 39.615 14.594999999999997
O 120.92999999999999 39.615 12.509999999999998
O 118.84499999999998 2.7318179660128058e-15 12.509999999999998
O 116.75999999999999 37.53 14.594999999999997
O 118.84499999999998 39.615 18.764999999999997
O 120.92999999999999 39.615 16.679999999999996
O 118.84499999999998 2.7318179660128058e-15 16.679999999999996
O 116.75999999999999 37.53 18.764999999999997
O 118.84499999999998 39.615 22.934999999999995
O 120.92999999999999 39.615 20.849999999999994
O 118.84499999999998 2.7318179660128058e-15 20.849999999999994
O 116.75999999999999 37.53 22.934999999999995
O 118.84499999999998 39.615 27.104999999999997
O 120.92999999999999 39.615 25.019999999999996
O 118.84499999999998 2.7318179660128058e-15 25.019999999999996
O 116.75999999999999 37.53 27.104999999999997
O 123.01499999999999 2.085 2.085
O 8.195453898038416e-15 2.085 0.0
O 123.01499999999999 4.17 0.0
O 120.92999999999999 0.0 2.085
O 123.01499999999999 2.085 6.254999999999999
O 8.195453898038416e-15 2.085 4.169999999999999
O 123.01499999999999 4.17 4.169999999999999
O 120.92999999999999 0.0 6.254999999999999
O 123.01499999999999 2.085 10.424999999999997
O 8.195453898038416e-15 2.085 8.339999999999998
O 123.01499999999999 4.17 8.339999999999998
O 120.92999999999999 0.0 10.424999999999997
O 123.01499999999999 2.085 14.594999999999997
O 8.195453898038416e-15 2.085 12.509999999999998
O 123.01499999999999 4.17 12.509999999999998
O 120.92999999999999 0.0 14.594999999999997
O 123.01499999999999 2.085 18.764999999999997
O 8.195453898038416e-15 2.085 16.679999999999996
O 123.01499999999999 4.17 16.679999999999996
O 120.92999999999999 0.0 18.764999999999997
O 123.01499999999999 2.085 22.934999999999995
O 8.195453898038416e-15 2.085 20.849999999999994
O 123.01499999999999 4.17 20.849999999999994
O 120.92999999999999 0.0 22.934999999999995
O 123.01499999999999 2.085 27.104999999999997
O 8.195453898038416e-15 2.085 25.019999999999996
O 123.01499999999999 4.17 25.019999999999996
O 120.92999999999999 0.0 27.104999999999997
O 123.01499999999999 6.255000000000002 2.085
O 8.195453898038416e-15 6.255000000000002 0.0
O 123.01499999999999 8.34 0.0
O 120.92999999999999 4.170000000000001 2.085
O 123.01499999999999 6.255000000000002 6.254999999999999
O 8.195453898038416e-15 6.255000000000002 4.169999999999999
O 123.01499999999999 8.34 4.169999999999999
O 120.92999999999999 4.170000000000001 6.254999999999999
O 123.01499999999999 6.255000000000002 10.424999999999997
O 8.195453898038416e-15 6.255000000000002 8.339999999999998
O 123.01499999999999 8.34 8.339999999999998
O 120.92999999999999 4.170000000000001 10.424999999999997
O 123.01499999999999 6.255000000000002 14.594999999999997
O 8.195453898038416e-15 6.255000000000002 12.509999999999998
O 123.01499999999999 8.34 12.509999999999998
O 120.92999999999999 4.170000000000001 14.594999999999997
O 123.01499999999999 6.255000000000002 18.764999999999997
O 8.195453898038416e-15 6.255000000000002 16.679999999999996
O 123.01499999999999 8.34 16.679999999999996
O 120.92999999999999 4.170000000000001 18.764999999999997
O 123.01499999999999 6.255000000000002 22.934999999999995
O 8.195453898038416e-15 6.255000000000002 20.849999999999994
O 123.01499999999999 8.34 20.849999999999994
O 120.92999999999999 4.170000000000001 22.934999999999995
O 8.195453898038416e-15 6.255000000000002 25.019999999999996
O 120.92999999999999 4.170000000000001 27.104999999999997
O 123.01499999999999 10.425 2.085
O 8.195453898038416e-15 10.425 0.0
O 123.01499999999999 12.510000000000003 0.0
O 120.92999999999999 8.340000000000002 2.085
O 123.01499999999999 10.425 6.254999999999999
O 8.195453898038416e-15 10.425 4.169999999999999
O 123.01499999999999 12.510000000000003 4.169999999999999
O 120.92999999999999 8.340000000000002 6.254999999999999
O 123.01499999999999 10.425 10.424999999999997
O 8.195453898038416e-15 10.425 8.339999999999998
O 123.01499999999999 12.510000000000003 8.339999999999998
O 120.92999999999999 8.340000000000002 10.424999999999997
O 123.01499999999999 10.425 14.594999999999997
O 8.195453898038416e-15 10.425 12.509999999999998
O 123.01499999999999 12.510000000000003 12.509999999999998
O 120.92999999999999 8.340000000000002 14.594999999999997
O 123.01499999999999 10.425 18.764999999999997
O 8.195453898038416e-15 10.425 16.679999999999996
O 123.01499999999999 12.510000000000003 16.679999999999996
O 120.92999999999999 8.340000000000002 18.764999999999997
O 8.195453898038416e-15 10.425 20.849999999999994
O 120.92999999999999 8.340000000000002 22.934999999999995
O 123.01499999999999 14.595000000000002 2.085
O 8.195453898038416e-15 14.595000000000002 0.0
O 123.01499999999999 16.680000000000003 0.0
O 120.92999999999999 12.510000000000003 2.085
O 123.01499999999999 14.595000000000002 6.254999999999999
O 8.195453898038416e-15 14.595000000000002 4.169999999999999
O 123.01499999999999 16.680000000000003 4.169999999999999
O 120.92999999999999 12.510000000000003 6.254999999999999
O 123.01499999999999 14.595000000000002 10.424999999999997
O 8.195453898038416e-15 14.595000000000002 8.339999999999998
O 123.01499999999999 16.680000000000003 8.339999999999998
O 120.92999999999999 12.510000000000003 10.424999999999997
O 123.01499999999999 14.595000000000002 14.594999999999997
O 8.195453898038416e-15 14.595000000000002 12.509999999999998
O 123.01499999999999 16.680000000000003 12.509999999999998
O 120.92999999999999 12.510000000000003 14.594999999999997
O 8.195453898038416e-15 14.595000000000002 16.679999999999996
O 120.92999999999999 12.510000000000003 18.764999999999997
O 123.01499999999999 18.765000000000004 2.085
O 8.195453898038416e-15 18.765000000000004 0.0
O 123.01499999999999 20.849999999999998 0.0
O 120.92999999999999 16.680000000000003 2.085
O 123.01499999999999 18.765000000000004 6.254999999999999
O 8.195453898038416e-15 18.765000000000004 4.169999999999999
O 123.01499999999999 20.849999999999998 4.169999999999999
O 120.92999999999999 16.680000000000003 6.254999999999999
O 123.01499999999999 18.765000000000004 10.424999999999997
O 8.195453898038416e-15 18.765000000000004 8.339999999999998
O 123.01499999999999 20.849999999999998 8.339999999999998
O 120.92999999999999 16.680000000000003 10.424999999999997
O 8.195453898038416e-15 18.765000000000004 12.509999999999998
O 120.92999999999999 16.680000000000003 14.594999999999997
O 123.01499999999999 22.935000000000002 2.085
O 8.195453898038416e-15 22.935000000000002 0.0
O 123.01499999999999 25.020000000000007 0.0
O 120.92999999999999 20.849999999999998 2.085
O 123.01499999999999 22.935000000000002 6.254999999999999
O 8.195453898038416e-15 22.935000000000002 4.169999999999999
O 123.01499999999999 25.020000000000007 4.169999999999999
O 120.92999999999999 20.849999999999998 6.254999999999999
O 123.01499999999999 22.935000000000002 10.424999999999997
O 8.195453898038416e-15 22.935000000000002 8.339999999999998
O 123.01499999999999 25.020000000000007 8.339999999999998
O 120.92999999999999 20.849999999999998 10.424999999999997
O 8.195453898038416e-15 22.935000000000002 12.509999999999998
O 123.01499999999999 25.020000000000007 12.509999999999998
O 123.01499999999999 27.105000000000008 2.085
O 8.195453898038416e-15 27.105000000000008 0.0
O 123.01499999999999 29.190000000000005 0.0
O 120.92999999999999 25.020000000000007 2.085
O 123.01499999999999 27.105000000000008 6.254999999999999
O 8.195453898038416e-15 27.105000000000008 4.169999999999999
O 123.01499999999999 29.190000000000005 4.169999999999999
O 120.92999999999999 25.020000000000007 6.254999999999999
O 123.01499999999999 27.105000000000008 10.424999999999997
O 8.195453898038416e-15 27.105000000000008 8.339999999999998
O 123.01499999999999 29.190000000000005 8.339999999999998
O 120.92999999999999 25.020000000000007 10.424999999999997
O 123.01499999999999 27.105000000000008 14.594999999999997
O 8.195453898038416e-15 27.105000000000008 12.509999999999998
O 123.01499999999999 29.190000000000005 12.509999999999998
O 120.92999999999999 25.020000000000007 14.594999999999997
O 8.195453898038416e-15 27.105000000000008 16.679999999999996
O 123.01499999999999 29.190000000000005 16.679999999999996
O 123.01499999999999 31.275000000000006 2.085
O 8.195453898038416e-15 31.275000000000006 0.0
O 123.01499999999999 33.36000000000001 0.0
O 120.92999999999999 29.190000000000005 2.085
O 123.01499999999999 31.275000000000006 6.254999999999999
O 8.195453898038416e-15 31.275000000000006 4.169999999999999
O 123.01499999999999 33.36000000000001 4.169999999999999
O 120.92999999999999 29.190000000000005 6.254999999999999
O 123.01499999999999 31.275000000000006 10.424999999999997
O 8.195453898038416e-15 31.275000000000006 8.339999999999998
O 123.01499999999999 33.36000000000001 8.339999999999998
O 120.92999999999999 29.190000000000005 10.424999999999997
O 123.01499999999999 31.275000000000006 14.594999999999997
O 8.195453898038416e-15 31.275000000000006 12.509999999999998
O 123.01499999999999 33.36000000000001 12.509999999999998
O 120.92999999999999 29.190000000000005 14.594999999999997
O 123.01499999999999 31.275000000000006 18.764999999999997
O 8.195453898038416e-15 31.275000000000006 16.679999999999996
O 123.01499999999999 33.36000000000001 16.679999999999996
O 120.92999999999999 29.190000000000005 18.764999999999997
O 8.195453898038416e-15 31.275000000000006 20.849999999999994
O 123.01499999999999 33.36000000000001 20.849999999999994
O 123.01499999999999 35.44500000000001 2.085
O 8.195453898038416e-15 35.44500000000001 0.0
O 123.01499999999999 37.53000000000001 0.0
O 120.92999999999999 33.36000000000001 2.085
O 123.01499999999999 35.44500000000001 6.254999999999999
O 8.195453898038416e-15 35.44500000000001 4.169999999999999
O 123.01499999999999 37.53000000000001 4.169999999999999
O 120.92999999999999 33.36000000000001 6.254999999999999
O 123.01499999999999 35.44500000000001 10.424999999999997
O 8.195453898038416e-15 35.44500000000001 8.339999999999998
O 123.01499999999999 37.53000000000001 8.339999999999998
O 120.92999999999999 33.36000000000001 10.424999999999997
O 123.01499999999999 35.44500000000001 14.594999999999997
O 8.195453898038416e-15 35.44500000000001 12.509999999999998
O 123.01499999999999 37.53000000000001 12.509999999999998
O 120.92999999999999 33.36000000000001 14.594999999999997
O 123.01499999999999 35.44500000000001 18.764999999999997
O 8.195453898038416e-15 35.44500000000001 16.679999999999996
O 123.01499999999999 37.53000000000001 16.679999999999996
O 120.92999999999999 33.36000000000001 18.764999999999997
O 123.01499999999999 35.44500000000001 22.934999999999995
O 8.195453898038416e-15 35.44500000000001 20.849999999999994
O 123.01499999999999 37.53000000000001 20.849999999999994
O 120.92999999999999 33.36000000000001 22.934999999999995
O 8.195453898038416e-15 35.44500000000001 25.019999999999996
O 123.01499999999999 37.53000000000001 25.019999999999996
O 123.01499999999999 39.615 2.085
O 8.195453898038416e-15 39.615 0.0
O 123.01499999999999 2.7318179660128058e-15 0.0
O 120.92999999999999 37.53 2.085
O 123.01499999999999 39.615 6.254999999999999
O 8.195453898038416e-15 39.615 4.169999999999999
O 123.01499999999999 2.7318179660128058e-15 4.169999999999999
O 120.92999999999999 37.53 6.254999999999999
O 123.01499999999999 39.615 10.424999999999997
O 8.195453898038416e-15 39.615 8.339999999999998
O 123.01499999999999 2.7318179660128058e-15 8.339999999999998
O 120.92999999999999 37.53 10.424999999999997
O 123.01499999999999 39.615 14.594999999999997
O 8.195453898038416e-15 39.615 12.509999999999998
O 123.01499999999999 2.7318179660128058e-15 12.509999999999998
O 120.92999999999999 37.53 14.594999999999997
O 123.01499999999999 39.615 18.764999999999997
O 8.195453898038416e-15 39.615 16.679999999999996
O 123.01499999999999 2.7318179660128058e-15 16.679999999999996
O 120.92999999999999 37.53 18.764999999999997
O 123.01499999999999 39.615 22.934999999999995
O 8.195453898038416e-15 39.615 20.849999999999994
O 123.01499999999999 2.7318179660128058e-15 20.849999999999994
O 120.92999999999999 37.53 22.934999999999995
O 123.01499999999999 39.615 27.104999999999997
O 8.195453898038416e-15 39.615 25.019999999999996
O 123.01499999999999 2.7318179660128058e-15 25.019999999999996
O 120.92999999999999 37.53 27.104999999999997
