Cao2025 corrugated NiO surface extracted from successful mixed-SAM topology

21060 atoms

2 atom types

0.00000000 125.10000000 xlo xhi
0.00000000 41.70000000 ylo yhi
-15.00000000 270.00000000 zlo zhi

Masses

1 58.6934 # Ni
2 15.999 # O

Atoms # full

1 0 1 2.000 0.000 0.000 0.000
2 0 1 2.000 2.085 2.085 0.000
3 0 1 2.000 2.085 0.000 2.085
4 0 1 2.000 0.000 2.085 2.085
5 0 1 2.000 0.000 0.000 4.170
6 0 1 2.000 2.085 2.085 4.170
7 0 1 2.000 2.085 0.000 6.255
8 0 1 2.000 0.000 2.085 6.255
9 0 1 2.000 0.000 0.000 8.340
10 0 1 2.000 2.085 2.085 8.340
11 0 1 2.000 2.085 0.000 10.425
12 0 1 2.000 0.000 2.085 10.425
13 0 1 2.000 0.000 0.000 12.510
14 0 1 2.000 2.085 2.085 12.510
15 0 1 2.000 2.085 0.000 14.595
16 0 1 2.000 0.000 2.085 14.595
17 0 1 2.000 0.000 0.000 16.680
18 0 1 2.000 2.085 2.085 16.680
19 0 1 2.000 2.085 0.000 18.765
20 0 1 2.000 0.000 2.085 18.765
21 0 1 2.000 0.000 0.000 20.850
22 0 1 2.000 2.085 2.085 20.850
23 0 1 2.000 2.085 0.000 22.935
24 0 1 2.000 0.000 2.085 22.935
25 0 1 2.000 0.000 0.000 25.020
26 0 1 2.000 2.085 2.085 25.020
27 0 1 2.000 2.085 0.000 27.105
28 0 1 2.000 0.000 2.085 27.105
29 0 1 2.000 0.000 0.000 29.190
30 0 1 2.000 2.085 2.085 29.190
31 0 1 2.000 2.085 0.000 31.275
32 0 1 2.000 0.000 2.085 31.275
33 0 1 2.000 0.000 0.000 33.360
34 0 1 2.000 2.085 2.085 33.360
35 0 1 2.000 2.085 0.000 35.445
36 0 1 2.000 0.000 2.085 35.445
37 0 1 2.000 0.000 0.000 37.530
38 0 1 2.000 2.085 2.085 37.530
39 0 1 2.000 2.085 0.000 39.615
40 0 1 2.000 0.000 2.085 39.615
41 0 1 2.000 0.000 4.170 0.000
42 0 1 2.000 2.085 6.255 0.000
43 0 1 2.000 2.085 4.170 2.085
44 0 1 2.000 0.000 6.255 2.085
45 0 1 2.000 0.000 4.170 4.170
46 0 1 2.000 2.085 6.255 4.170
47 0 1 2.000 2.085 4.170 6.255
48 0 1 2.000 0.000 6.255 6.255
49 0 1 2.000 0.000 4.170 8.340
50 0 1 2.000 2.085 6.255 8.340
51 0 1 2.000 2.085 4.170 10.425
52 0 1 2.000 0.000 6.255 10.425
53 0 1 2.000 0.000 4.170 12.510
54 0 1 2.000 2.085 6.255 12.510
55 0 1 2.000 2.085 4.170 14.595
56 0 1 2.000 0.000 6.255 14.595
57 0 1 2.000 0.000 4.170 16.680
58 0 1 2.000 2.085 6.255 16.680
59 0 1 2.000 2.085 4.170 18.765
60 0 1 2.000 0.000 6.255 18.765
61 0 1 2.000 0.000 4.170 20.850
62 0 1 2.000 2.085 6.255 20.850
63 0 1 2.000 2.085 4.170 22.935
64 0 1 2.000 0.000 6.255 22.935
65 0 1 2.000 0.000 4.170 25.020
66 0 1 2.000 2.085 6.255 25.020
67 0 1 2.000 2.085 4.170 27.105
68 0 1 2.000 0.000 6.255 27.105
69 0 1 2.000 0.000 4.170 29.190
70 0 1 2.000 2.085 6.255 29.190
71 0 1 2.000 2.085 4.170 31.275
72 0 1 2.000 0.000 6.255 31.275
73 0 1 2.000 0.000 4.170 33.360
74 0 1 2.000 2.085 6.255 33.360
75 0 1 2.000 2.085 4.170 35.445
76 0 1 2.000 0.000 6.255 35.445
77 0 1 2.000 0.000 4.170 37.530
78 0 1 2.000 2.085 6.255 37.530
79 0 1 2.000 2.085 4.170 39.615
80 0 1 2.000 0.000 6.255 39.615
81 0 1 2.000 0.000 8.340 0.000
82 0 1 2.000 2.085 10.425 0.000
83 0 1 2.000 2.085 8.340 2.085
84 0 1 2.000 0.000 10.425 2.085
85 0 1 2.000 0.000 8.340 4.170
86 0 1 2.000 2.085 10.425 4.170
87 0 1 2.000 2.085 8.340 6.255
88 0 1 2.000 0.000 10.425 6.255
89 0 1 2.000 0.000 8.340 8.340
90 0 1 2.000 2.085 10.425 8.340
91 0 1 2.000 2.085 8.340 10.425
92 0 1 2.000 0.000 10.425 10.425
93 0 1 2.000 0.000 8.340 12.510
94 0 1 2.000 2.085 10.425 12.510
95 0 1 2.000 2.085 8.340 14.595
96 0 1 2.000 0.000 10.425 14.595
97 0 1 2.000 0.000 8.340 16.680
98 0 1 2.000 2.085 10.425 16.680
99 0 1 2.000 2.085 8.340 18.765
100 0 1 2.000 0.000 10.425 18.765
101 0 1 2.000 0.000 8.340 20.850
102 0 1 2.000 2.085 10.425 20.850
103 0 1 2.000 2.085 8.340 22.935
104 0 1 2.000 0.000 10.425 22.935
105 0 1 2.000 0.000 8.340 25.020
106 0 1 2.000 2.085 10.425 25.020
107 0 1 2.000 2.085 8.340 27.105
108 0 1 2.000 0.000 10.425 27.105
109 0 1 2.000 0.000 8.340 29.190
110 0 1 2.000 2.085 10.425 29.190
111 0 1 2.000 2.085 8.340 31.275
112 0 1 2.000 0.000 10.425 31.275
113 0 1 2.000 0.000 8.340 33.360
114 0 1 2.000 2.085 10.425 33.360
115 0 1 2.000 2.085 8.340 35.445
116 0 1 2.000 0.000 10.425 35.445
117 0 1 2.000 0.000 8.340 37.530
118 0 1 2.000 0.000 12.510 0.000
119 0 1 2.000 2.085 14.595 0.000
120 0 1 2.000 2.085 12.510 2.085
121 0 1 2.000 0.000 14.595 2.085
122 0 1 2.000 0.000 12.510 4.170
123 0 1 2.000 2.085 14.595 4.170
124 0 1 2.000 2.085 12.510 6.255
125 0 1 2.000 0.000 14.595 6.255
126 0 1 2.000 0.000 12.510 8.340
127 0 1 2.000 2.085 14.595 8.340
128 0 1 2.000 2.085 12.510 10.425
129 0 1 2.000 0.000 14.595 10.425
130 0 1 2.000 0.000 12.510 12.510
131 0 1 2.000 2.085 14.595 12.510
132 0 1 2.000 2.085 12.510 14.595
133 0 1 2.000 0.000 14.595 14.595
134 0 1 2.000 0.000 12.510 16.680
135 0 1 2.000 2.085 14.595 16.680
136 0 1 2.000 2.085 12.510 18.765
137 0 1 2.000 0.000 14.595 18.765
138 0 1 2.000 0.000 12.510 20.850
139 0 1 2.000 2.085 14.595 20.850
140 0 1 2.000 2.085 12.510 22.935
141 0 1 2.000 0.000 14.595 22.935
142 0 1 2.000 0.000 12.510 25.020
143 0 1 2.000 2.085 14.595 25.020
144 0 1 2.000 2.085 12.510 27.105
145 0 1 2.000 0.000 14.595 27.105
146 0 1 2.000 0.000 12.510 29.190
147 0 1 2.000 2.085 14.595 29.190
148 0 1 2.000 2.085 12.510 31.275
149 0 1 2.000 0.000 14.595 31.275
150 0 1 2.000 0.000 12.510 33.360
151 0 1 2.000 0.000 16.680 0.000
152 0 1 2.000 2.085 18.765 0.000
153 0 1 2.000 2.085 16.680 2.085
154 0 1 2.000 0.000 18.765 2.085
155 0 1 2.000 0.000 16.680 4.170
156 0 1 2.000 2.085 18.765 4.170
157 0 1 2.000 2.085 16.680 6.255
158 0 1 2.000 0.000 18.765 6.255
159 0 1 2.000 0.000 16.680 8.340
160 0 1 2.000 2.085 18.765 8.340
161 0 1 2.000 2.085 16.680 10.425
162 0 1 2.000 0.000 18.765 10.425
163 0 1 2.000 0.000 16.680 12.510
164 0 1 2.000 2.085 18.765 12.510
165 0 1 2.000 2.085 16.680 14.595
166 0 1 2.000 0.000 18.765 14.595
167 0 1 2.000 0.000 16.680 16.680
168 0 1 2.000 2.085 18.765 16.680
169 0 1 2.000 2.085 16.680 18.765
170 0 1 2.000 0.000 18.765 18.765
171 0 1 2.000 0.000 16.680 20.850
172 0 1 2.000 2.085 18.765 20.850
173 0 1 2.000 2.085 16.680 22.935
174 0 1 2.000 0.000 18.765 22.935
175 0 1 2.000 0.000 16.680 25.020
176 0 1 2.000 2.085 18.765 25.020
177 0 1 2.000 2.085 16.680 27.105
178 0 1 2.000 0.000 18.765 27.105
179 0 1 2.000 0.000 16.680 29.190
180 0 1 2.000 0.000 20.850 0.000
181 0 1 2.000 2.085 22.935 0.000
182 0 1 2.000 2.085 20.850 2.085
183 0 1 2.000 0.000 22.935 2.085
184 0 1 2.000 0.000 20.850 4.170
185 0 1 2.000 2.085 22.935 4.170
186 0 1 2.000 2.085 20.850 6.255
187 0 1 2.000 0.000 22.935 6.255
188 0 1 2.000 0.000 20.850 8.340
189 0 1 2.000 2.085 22.935 8.340
190 0 1 2.000 2.085 20.850 10.425
191 0 1 2.000 0.000 22.935 10.425
192 0 1 2.000 0.000 20.850 12.510
193 0 1 2.000 2.085 22.935 12.510
194 0 1 2.000 2.085 20.850 14.595
195 0 1 2.000 0.000 22.935 14.595
196 0 1 2.000 0.000 20.850 16.680
197 0 1 2.000 2.085 22.935 16.680
198 0 1 2.000 2.085 20.850 18.765
199 0 1 2.000 0.000 22.935 18.765
200 0 1 2.000 0.000 20.850 20.850
201 0 1 2.000 2.085 22.935 20.850
202 0 1 2.000 2.085 20.850 22.935
203 0 1 2.000 0.000 22.935 22.935
204 0 1 2.000 0.000 20.850 25.020
205 0 1 2.000 2.085 22.935 25.020
206 0 1 2.000 0.000 22.935 27.105
207 0 1 2.000 0.000 25.020 0.000
208 0 1 2.000 2.085 27.105 0.000
209 0 1 2.000 2.085 25.020 2.085
210 0 1 2.000 0.000 27.105 2.085
211 0 1 2.000 0.000 25.020 4.170
212 0 1 2.000 2.085 27.105 4.170
213 0 1 2.000 2.085 25.020 6.255
214 0 1 2.000 0.000 27.105 6.255
215 0 1 2.000 0.000 25.020 8.340
216 0 1 2.000 2.085 27.105 8.340
217 0 1 2.000 2.085 25.020 10.425
218 0 1 2.000 0.000 27.105 10.425
219 0 1 2.000 0.000 25.020 12.510
220 0 1 2.000 2.085 27.105 12.510
221 0 1 2.000 2.085 25.020 14.595
222 0 1 2.000 0.000 27.105 14.595
223 0 1 2.000 0.000 25.020 16.680
224 0 1 2.000 2.085 27.105 16.680
225 0 1 2.000 2.085 25.020 18.765
226 0 1 2.000 0.000 27.105 18.765
227 0 1 2.000 0.000 25.020 20.850
228 0 1 2.000 2.085 27.105 20.850
229 0 1 2.000 2.085 25.020 22.935
230 0 1 2.000 0.000 27.105 22.935
231 0 1 2.000 0.000 25.020 25.020
232 0 1 2.000 2.085 27.105 25.020
233 0 1 2.000 2.085 25.020 27.105
234 0 1 2.000 0.000 27.105 27.105
235 0 1 2.000 0.000 25.020 29.190
236 0 1 2.000 2.085 27.105 29.190
237 0 1 2.000 0.000 27.105 31.275
238 0 1 2.000 0.000 29.190 0.000
239 0 1 2.000 2.085 31.275 0.000
240 0 1 2.000 2.085 29.190 2.085
241 0 1 2.000 0.000 31.275 2.085
242 0 1 2.000 0.000 29.190 4.170
243 0 1 2.000 2.085 31.275 4.170
244 0 1 2.000 2.085 29.190 6.255
245 0 1 2.000 0.000 31.275 6.255
246 0 1 2.000 0.000 29.190 8.340
247 0 1 2.000 2.085 31.275 8.340
248 0 1 2.000 2.085 29.190 10.425
249 0 1 2.000 0.000 31.275 10.425
250 0 1 2.000 0.000 29.190 12.510
251 0 1 2.000 2.085 31.275 12.510
252 0 1 2.000 2.085 29.190 14.595
253 0 1 2.000 0.000 31.275 14.595
254 0 1 2.000 0.000 29.190 16.680
255 0 1 2.000 2.085 31.275 16.680
256 0 1 2.000 2.085 29.190 18.765
257 0 1 2.000 0.000 31.275 18.765
258 0 1 2.000 0.000 29.190 20.850
259 0 1 2.000 2.085 31.275 20.850
260 0 1 2.000 2.085 29.190 22.935
261 0 1 2.000 0.000 31.275 22.935
262 0 1 2.000 0.000 29.190 25.020
263 0 1 2.000 2.085 31.275 25.020
264 0 1 2.000 2.085 29.190 27.105
265 0 1 2.000 0.000 31.275 27.105
266 0 1 2.000 0.000 29.190 29.190
267 0 1 2.000 2.085 31.275 29.190
268 0 1 2.000 2.085 29.190 31.275
269 0 1 2.000 0.000 31.275 31.275
270 0 1 2.000 0.000 29.190 33.360
271 0 1 2.000 2.085 31.275 33.360
272 0 1 2.000 0.000 31.275 35.445
273 0 1 2.000 0.000 33.360 0.000
274 0 1 2.000 2.085 35.445 0.000
275 0 1 2.000 2.085 33.360 2.085
276 0 1 2.000 0.000 35.445 2.085
277 0 1 2.000 0.000 33.360 4.170
278 0 1 2.000 2.085 35.445 4.170
279 0 1 2.000 2.085 33.360 6.255
280 0 1 2.000 0.000 35.445 6.255
281 0 1 2.000 0.000 33.360 8.340
282 0 1 2.000 2.085 35.445 8.340
283 0 1 2.000 2.085 33.360 10.425
284 0 1 2.000 0.000 35.445 10.425
285 0 1 2.000 0.000 33.360 12.510
286 0 1 2.000 2.085 35.445 12.510
287 0 1 2.000 2.085 33.360 14.595
288 0 1 2.000 0.000 35.445 14.595
289 0 1 2.000 0.000 33.360 16.680
290 0 1 2.000 2.085 35.445 16.680
291 0 1 2.000 2.085 33.360 18.765
292 0 1 2.000 0.000 35.445 18.765
293 0 1 2.000 0.000 33.360 20.850
294 0 1 2.000 2.085 35.445 20.850
295 0 1 2.000 2.085 33.360 22.935
296 0 1 2.000 0.000 35.445 22.935
297 0 1 2.000 0.000 33.360 25.020
298 0 1 2.000 2.085 35.445 25.020
299 0 1 2.000 2.085 33.360 27.105
300 0 1 2.000 0.000 35.445 27.105
301 0 1 2.000 0.000 33.360 29.190
302 0 1 2.000 2.085 35.445 29.190
303 0 1 2.000 2.085 33.360 31.275
304 0 1 2.000 0.000 35.445 31.275
305 0 1 2.000 0.000 33.360 33.360
306 0 1 2.000 2.085 35.445 33.360
307 0 1 2.000 2.085 33.360 35.445
308 0 1 2.000 0.000 35.445 35.445
309 0 1 2.000 0.000 33.360 37.530
310 0 1 2.000 2.085 35.445 37.530
311 0 1 2.000 0.000 35.445 39.615
312 0 1 2.000 0.000 37.530 0.000
313 0 1 2.000 2.085 39.615 0.000
314 0 1 2.000 2.085 37.530 2.085
315 0 1 2.000 0.000 39.615 2.085
316 0 1 2.000 0.000 37.530 4.170
317 0 1 2.000 2.085 39.615 4.170
318 0 1 2.000 2.085 37.530 6.255
319 0 1 2.000 0.000 39.615 6.255
320 0 1 2.000 0.000 37.530 8.340
321 0 1 2.000 2.085 39.615 8.340
322 0 1 2.000 2.085 37.530 10.425
323 0 1 2.000 0.000 39.615 10.425
324 0 1 2.000 0.000 37.530 12.510
325 0 1 2.000 2.085 39.615 12.510
326 0 1 2.000 2.085 37.530 14.595
327 0 1 2.000 0.000 39.615 14.595
328 0 1 2.000 0.000 37.530 16.680
329 0 1 2.000 2.085 39.615 16.680
330 0 1 2.000 2.085 37.530 18.765
331 0 1 2.000 0.000 39.615 18.765
332 0 1 2.000 0.000 37.530 20.850
333 0 1 2.000 2.085 39.615 20.850
334 0 1 2.000 2.085 37.530 22.935
335 0 1 2.000 0.000 39.615 22.935
336 0 1 2.000 0.000 37.530 25.020
337 0 1 2.000 2.085 39.615 25.020
338 0 1 2.000 2.085 37.530 27.105
339 0 1 2.000 0.000 39.615 27.105
340 0 1 2.000 0.000 37.530 29.190
341 0 1 2.000 2.085 39.615 29.190
342 0 1 2.000 2.085 37.530 31.275
343 0 1 2.000 0.000 39.615 31.275
344 0 1 2.000 0.000 37.530 33.360
345 0 1 2.000 2.085 39.615 33.360
346 0 1 2.000 2.085 37.530 35.445
347 0 1 2.000 0.000 39.615 35.445
348 0 1 2.000 0.000 37.530 37.530
349 0 1 2.000 2.085 39.615 37.530
350 0 1 2.000 2.085 37.530 39.615
351 0 1 2.000 0.000 39.615 39.615
352 0 1 2.000 4.170 0.000 0.000
353 0 1 2.000 6.255 2.085 0.000
354 0 1 2.000 6.255 0.000 2.085
355 0 1 2.000 4.170 2.085 2.085
356 0 1 2.000 4.170 0.000 4.170
357 0 1 2.000 6.255 2.085 4.170
358 0 1 2.000 6.255 0.000 6.255
359 0 1 2.000 4.170 2.085 6.255
360 0 1 2.000 4.170 0.000 8.340
361 0 1 2.000 6.255 2.085 8.340
362 0 1 2.000 6.255 0.000 10.425
363 0 1 2.000 4.170 2.085 10.425
364 0 1 2.000 4.170 0.000 12.510
365 0 1 2.000 6.255 2.085 12.510
366 0 1 2.000 6.255 0.000 14.595
367 0 1 2.000 4.170 2.085 14.595
368 0 1 2.000 4.170 0.000 16.680
369 0 1 2.000 6.255 2.085 16.680
370 0 1 2.000 6.255 0.000 18.765
371 0 1 2.000 4.170 2.085 18.765
372 0 1 2.000 4.170 0.000 20.850
373 0 1 2.000 6.255 2.085 20.850
374 0 1 2.000 6.255 0.000 22.935
375 0 1 2.000 4.170 2.085 22.935
376 0 1 2.000 4.170 0.000 25.020
377 0 1 2.000 6.255 2.085 25.020
378 0 1 2.000 6.255 0.000 27.105
379 0 1 2.000 4.170 2.085 27.105
380 0 1 2.000 4.170 0.000 29.190
381 0 1 2.000 6.255 2.085 29.190
382 0 1 2.000 6.255 0.000 31.275
383 0 1 2.000 4.170 2.085 31.275
384 0 1 2.000 4.170 0.000 33.360
385 0 1 2.000 6.255 2.085 33.360
386 0 1 2.000 6.255 0.000 35.445
387 0 1 2.000 4.170 2.085 35.445
388 0 1 2.000 4.170 0.000 37.530
389 0 1 2.000 6.255 2.085 37.530
390 0 1 2.000 6.255 0.000 39.615
391 0 1 2.000 4.170 2.085 39.615
392 0 1 2.000 4.170 4.170 0.000
393 0 1 2.000 6.255 6.255 0.000
394 0 1 2.000 6.255 4.170 2.085
395 0 1 2.000 4.170 6.255 2.085
396 0 1 2.000 4.170 4.170 4.170
397 0 1 2.000 6.255 6.255 4.170
398 0 1 2.000 6.255 4.170 6.255
399 0 1 2.000 4.170 6.255 6.255
400 0 1 2.000 4.170 4.170 8.340
401 0 1 2.000 6.255 6.255 8.340
402 0 1 2.000 6.255 4.170 10.425
403 0 1 2.000 4.170 6.255 10.425
404 0 1 2.000 4.170 4.170 12.510
405 0 1 2.000 6.255 6.255 12.510
406 0 1 2.000 6.255 4.170 14.595
407 0 1 2.000 4.170 6.255 14.595
408 0 1 2.000 4.170 4.170 16.680
409 0 1 2.000 6.255 6.255 16.680
410 0 1 2.000 6.255 4.170 18.765
411 0 1 2.000 4.170 6.255 18.765
412 0 1 2.000 4.170 4.170 20.850
413 0 1 2.000 6.255 6.255 20.850
414 0 1 2.000 6.255 4.170 22.935
415 0 1 2.000 4.170 6.255 22.935
416 0 1 2.000 4.170 4.170 25.020
417 0 1 2.000 6.255 6.255 25.020
418 0 1 2.000 6.255 4.170 27.105
419 0 1 2.000 4.170 6.255 27.105
420 0 1 2.000 4.170 4.170 29.190
421 0 1 2.000 6.255 6.255 29.190
422 0 1 2.000 6.255 4.170 31.275
423 0 1 2.000 4.170 6.255 31.275
424 0 1 2.000 4.170 4.170 33.360
425 0 1 2.000 6.255 6.255 33.360
426 0 1 2.000 6.255 4.170 35.445
427 0 1 2.000 4.170 6.255 35.445
428 0 1 2.000 4.170 4.170 37.530
429 0 1 2.000 6.255 6.255 37.530
430 0 1 2.000 6.255 4.170 39.615
431 0 1 2.000 4.170 6.255 39.615
432 0 1 2.000 4.170 8.340 0.000
433 0 1 2.000 6.255 10.425 0.000
434 0 1 2.000 6.255 8.340 2.085
435 0 1 2.000 4.170 10.425 2.085
436 0 1 2.000 4.170 8.340 4.170
437 0 1 2.000 6.255 10.425 4.170
438 0 1 2.000 6.255 8.340 6.255
439 0 1 2.000 4.170 10.425 6.255
440 0 1 2.000 4.170 8.340 8.340
441 0 1 2.000 6.255 10.425 8.340
442 0 1 2.000 6.255 8.340 10.425
443 0 1 2.000 4.170 10.425 10.425
444 0 1 2.000 4.170 8.340 12.510
445 0 1 2.000 6.255 10.425 12.510
446 0 1 2.000 6.255 8.340 14.595
447 0 1 2.000 4.170 10.425 14.595
448 0 1 2.000 4.170 8.340 16.680
449 0 1 2.000 6.255 10.425 16.680
450 0 1 2.000 6.255 8.340 18.765
451 0 1 2.000 4.170 10.425 18.765
452 0 1 2.000 4.170 8.340 20.850
453 0 1 2.000 6.255 10.425 20.850
454 0 1 2.000 6.255 8.340 22.935
455 0 1 2.000 4.170 10.425 22.935
456 0 1 2.000 4.170 8.340 25.020
457 0 1 2.000 6.255 10.425 25.020
458 0 1 2.000 6.255 8.340 27.105
459 0 1 2.000 4.170 10.425 27.105
460 0 1 2.000 4.170 8.340 29.190
461 0 1 2.000 6.255 10.425 29.190
462 0 1 2.000 6.255 8.340 31.275
463 0 1 2.000 4.170 10.425 31.275
464 0 1 2.000 4.170 8.340 33.360
465 0 1 2.000 6.255 10.425 33.360
466 0 1 2.000 6.255 8.340 35.445
467 0 1 2.000 4.170 10.425 35.445
468 0 1 2.000 4.170 8.340 37.530
469 0 1 2.000 4.170 12.510 0.000
470 0 1 2.000 6.255 14.595 0.000
471 0 1 2.000 6.255 12.510 2.085
472 0 1 2.000 4.170 14.595 2.085
473 0 1 2.000 4.170 12.510 4.170
474 0 1 2.000 6.255 14.595 4.170
475 0 1 2.000 6.255 12.510 6.255
476 0 1 2.000 4.170 14.595 6.255
477 0 1 2.000 4.170 12.510 8.340
478 0 1 2.000 6.255 14.595 8.340
479 0 1 2.000 6.255 12.510 10.425
480 0 1 2.000 4.170 14.595 10.425
481 0 1 2.000 4.170 12.510 12.510
482 0 1 2.000 6.255 14.595 12.510
483 0 1 2.000 6.255 12.510 14.595
484 0 1 2.000 4.170 14.595 14.595
485 0 1 2.000 4.170 12.510 16.680
486 0 1 2.000 6.255 14.595 16.680
487 0 1 2.000 6.255 12.510 18.765
488 0 1 2.000 4.170 14.595 18.765
489 0 1 2.000 4.170 12.510 20.850
490 0 1 2.000 6.255 14.595 20.850
491 0 1 2.000 6.255 12.510 22.935
492 0 1 2.000 4.170 14.595 22.935
493 0 1 2.000 4.170 12.510 25.020
494 0 1 2.000 6.255 14.595 25.020
495 0 1 2.000 6.255 12.510 27.105
496 0 1 2.000 4.170 14.595 27.105
497 0 1 2.000 4.170 12.510 29.190
498 0 1 2.000 6.255 14.595 29.190
499 0 1 2.000 6.255 12.510 31.275
500 0 1 2.000 4.170 14.595 31.275
501 0 1 2.000 4.170 12.510 33.360
502 0 1 2.000 4.170 16.680 0.000
503 0 1 2.000 6.255 18.765 0.000
504 0 1 2.000 6.255 16.680 2.085
505 0 1 2.000 4.170 18.765 2.085
506 0 1 2.000 4.170 16.680 4.170
507 0 1 2.000 6.255 18.765 4.170
508 0 1 2.000 6.255 16.680 6.255
509 0 1 2.000 4.170 18.765 6.255
510 0 1 2.000 4.170 16.680 8.340
511 0 1 2.000 6.255 18.765 8.340
512 0 1 2.000 6.255 16.680 10.425
513 0 1 2.000 4.170 18.765 10.425
514 0 1 2.000 4.170 16.680 12.510
515 0 1 2.000 6.255 18.765 12.510
516 0 1 2.000 6.255 16.680 14.595
517 0 1 2.000 4.170 18.765 14.595
518 0 1 2.000 4.170 16.680 16.680
519 0 1 2.000 6.255 18.765 16.680
520 0 1 2.000 6.255 16.680 18.765
521 0 1 2.000 4.170 18.765 18.765
522 0 1 2.000 4.170 16.680 20.850
523 0 1 2.000 6.255 18.765 20.850
524 0 1 2.000 6.255 16.680 22.935
525 0 1 2.000 4.170 18.765 22.935
526 0 1 2.000 4.170 16.680 25.020
527 0 1 2.000 6.255 18.765 25.020
528 0 1 2.000 6.255 16.680 27.105
529 0 1 2.000 4.170 18.765 27.105
530 0 1 2.000 4.170 16.680 29.190
531 0 1 2.000 4.170 20.850 0.000
532 0 1 2.000 6.255 22.935 0.000
533 0 1 2.000 6.255 20.850 2.085
534 0 1 2.000 4.170 22.935 2.085
535 0 1 2.000 4.170 20.850 4.170
536 0 1 2.000 6.255 22.935 4.170
537 0 1 2.000 6.255 20.850 6.255
538 0 1 2.000 4.170 22.935 6.255
539 0 1 2.000 4.170 20.850 8.340
540 0 1 2.000 6.255 22.935 8.340
541 0 1 2.000 6.255 20.850 10.425
542 0 1 2.000 4.170 22.935 10.425
543 0 1 2.000 4.170 20.850 12.510
544 0 1 2.000 6.255 22.935 12.510
545 0 1 2.000 6.255 20.850 14.595
546 0 1 2.000 4.170 22.935 14.595
547 0 1 2.000 4.170 20.850 16.680
548 0 1 2.000 6.255 22.935 16.680
549 0 1 2.000 6.255 20.850 18.765
550 0 1 2.000 4.170 22.935 18.765
551 0 1 2.000 4.170 20.850 20.850
552 0 1 2.000 6.255 22.935 20.850
553 0 1 2.000 6.255 20.850 22.935
554 0 1 2.000 4.170 22.935 22.935
555 0 1 2.000 4.170 20.850 25.020
556 0 1 2.000 6.255 22.935 25.020
557 0 1 2.000 4.170 22.935 27.105
558 0 1 2.000 4.170 25.020 0.000
559 0 1 2.000 6.255 27.105 0.000
560 0 1 2.000 6.255 25.020 2.085
561 0 1 2.000 4.170 27.105 2.085
562 0 1 2.000 4.170 25.020 4.170
563 0 1 2.000 6.255 27.105 4.170
564 0 1 2.000 6.255 25.020 6.255
565 0 1 2.000 4.170 27.105 6.255
566 0 1 2.000 4.170 25.020 8.340
567 0 1 2.000 6.255 27.105 8.340
568 0 1 2.000 6.255 25.020 10.425
569 0 1 2.000 4.170 27.105 10.425
570 0 1 2.000 4.170 25.020 12.510
571 0 1 2.000 6.255 27.105 12.510
572 0 1 2.000 6.255 25.020 14.595
573 0 1 2.000 4.170 27.105 14.595
574 0 1 2.000 4.170 25.020 16.680
575 0 1 2.000 6.255 27.105 16.680
576 0 1 2.000 6.255 25.020 18.765
577 0 1 2.000 4.170 27.105 18.765
578 0 1 2.000 4.170 25.020 20.850
579 0 1 2.000 6.255 27.105 20.850
580 0 1 2.000 6.255 25.020 22.935
581 0 1 2.000 4.170 27.105 22.935
582 0 1 2.000 4.170 25.020 25.020
583 0 1 2.000 6.255 27.105 25.020
584 0 1 2.000 6.255 25.020 27.105
585 0 1 2.000 4.170 27.105 27.105
586 0 1 2.000 4.170 25.020 29.190
587 0 1 2.000 6.255 27.105 29.190
588 0 1 2.000 4.170 27.105 31.275
589 0 1 2.000 4.170 29.190 0.000
590 0 1 2.000 6.255 31.275 0.000
591 0 1 2.000 6.255 29.190 2.085
592 0 1 2.000 4.170 31.275 2.085
593 0 1 2.000 4.170 29.190 4.170
594 0 1 2.000 6.255 31.275 4.170
595 0 1 2.000 6.255 29.190 6.255
596 0 1 2.000 4.170 31.275 6.255
597 0 1 2.000 4.170 29.190 8.340
598 0 1 2.000 6.255 31.275 8.340
599 0 1 2.000 6.255 29.190 10.425
600 0 1 2.000 4.170 31.275 10.425
601 0 1 2.000 4.170 29.190 12.510
602 0 1 2.000 6.255 31.275 12.510
603 0 1 2.000 6.255 29.190 14.595
604 0 1 2.000 4.170 31.275 14.595
605 0 1 2.000 4.170 29.190 16.680
606 0 1 2.000 6.255 31.275 16.680
607 0 1 2.000 6.255 29.190 18.765
608 0 1 2.000 4.170 31.275 18.765
609 0 1 2.000 4.170 29.190 20.850
610 0 1 2.000 6.255 31.275 20.850
611 0 1 2.000 6.255 29.190 22.935
612 0 1 2.000 4.170 31.275 22.935
613 0 1 2.000 4.170 29.190 25.020
614 0 1 2.000 6.255 31.275 25.020
615 0 1 2.000 6.255 29.190 27.105
616 0 1 2.000 4.170 31.275 27.105
617 0 1 2.000 4.170 29.190 29.190
618 0 1 2.000 6.255 31.275 29.190
619 0 1 2.000 6.255 29.190 31.275
620 0 1 2.000 4.170 31.275 31.275
621 0 1 2.000 4.170 29.190 33.360
622 0 1 2.000 6.255 31.275 33.360
623 0 1 2.000 4.170 31.275 35.445
624 0 1 2.000 4.170 33.360 0.000
625 0 1 2.000 6.255 35.445 0.000
626 0 1 2.000 6.255 33.360 2.085
627 0 1 2.000 4.170 35.445 2.085
628 0 1 2.000 4.170 33.360 4.170
629 0 1 2.000 6.255 35.445 4.170
630 0 1 2.000 6.255 33.360 6.255
631 0 1 2.000 4.170 35.445 6.255
632 0 1 2.000 4.170 33.360 8.340
633 0 1 2.000 6.255 35.445 8.340
634 0 1 2.000 6.255 33.360 10.425
635 0 1 2.000 4.170 35.445 10.425
636 0 1 2.000 4.170 33.360 12.510
637 0 1 2.000 6.255 35.445 12.510
638 0 1 2.000 6.255 33.360 14.595
639 0 1 2.000 4.170 35.445 14.595
640 0 1 2.000 4.170 33.360 16.680
641 0 1 2.000 6.255 35.445 16.680
642 0 1 2.000 6.255 33.360 18.765
643 0 1 2.000 4.170 35.445 18.765
644 0 1 2.000 4.170 33.360 20.850
645 0 1 2.000 6.255 35.445 20.850
646 0 1 2.000 6.255 33.360 22.935
647 0 1 2.000 4.170 35.445 22.935
648 0 1 2.000 4.170 33.360 25.020
649 0 1 2.000 6.255 35.445 25.020
650 0 1 2.000 6.255 33.360 27.105
651 0 1 2.000 4.170 35.445 27.105
652 0 1 2.000 4.170 33.360 29.190
653 0 1 2.000 6.255 35.445 29.190
654 0 1 2.000 6.255 33.360 31.275
655 0 1 2.000 4.170 35.445 31.275
656 0 1 2.000 4.170 33.360 33.360
657 0 1 2.000 6.255 35.445 33.360
658 0 1 2.000 6.255 33.360 35.445
659 0 1 2.000 4.170 35.445 35.445
660 0 1 2.000 4.170 33.360 37.530
661 0 1 2.000 6.255 35.445 37.530
662 0 1 2.000 4.170 35.445 39.615
663 0 1 2.000 4.170 37.530 0.000
664 0 1 2.000 6.255 39.615 0.000
665 0 1 2.000 6.255 37.530 2.085
666 0 1 2.000 4.170 39.615 2.085
667 0 1 2.000 4.170 37.530 4.170
668 0 1 2.000 6.255 39.615 4.170
669 0 1 2.000 6.255 37.530 6.255
670 0 1 2.000 4.170 39.615 6.255
671 0 1 2.000 4.170 37.530 8.340
672 0 1 2.000 6.255 39.615 8.340
673 0 1 2.000 6.255 37.530 10.425
674 0 1 2.000 4.170 39.615 10.425
675 0 1 2.000 4.170 37.530 12.510
676 0 1 2.000 6.255 39.615 12.510
677 0 1 2.000 6.255 37.530 14.595
678 0 1 2.000 4.170 39.615 14.595
679 0 1 2.000 4.170 37.530 16.680
680 0 1 2.000 6.255 39.615 16.680
681 0 1 2.000 6.255 37.530 18.765
682 0 1 2.000 4.170 39.615 18.765
683 0 1 2.000 4.170 37.530 20.850
684 0 1 2.000 6.255 39.615 20.850
685 0 1 2.000 6.255 37.530 22.935
686 0 1 2.000 4.170 39.615 22.935
687 0 1 2.000 4.170 37.530 25.020
688 0 1 2.000 6.255 39.615 25.020
689 0 1 2.000 6.255 37.530 27.105
690 0 1 2.000 4.170 39.615 27.105
691 0 1 2.000 4.170 37.530 29.190
692 0 1 2.000 6.255 39.615 29.190
693 0 1 2.000 6.255 37.530 31.275
694 0 1 2.000 4.170 39.615 31.275
695 0 1 2.000 4.170 37.530 33.360
696 0 1 2.000 6.255 39.615 33.360
697 0 1 2.000 6.255 37.530 35.445
698 0 1 2.000 4.170 39.615 35.445
699 0 1 2.000 4.170 37.530 37.530
700 0 1 2.000 6.255 39.615 37.530
701 0 1 2.000 6.255 37.530 39.615
702 0 1 2.000 4.170 39.615 39.615
703 0 1 2.000 8.340 0.000 0.000
704 0 1 2.000 10.425 2.085 0.000
705 0 1 2.000 10.425 0.000 2.085
706 0 1 2.000 8.340 2.085 2.085
707 0 1 2.000 8.340 0.000 4.170
708 0 1 2.000 10.425 2.085 4.170
709 0 1 2.000 10.425 0.000 6.255
710 0 1 2.000 8.340 2.085 6.255
711 0 1 2.000 8.340 0.000 8.340
712 0 1 2.000 10.425 2.085 8.340
713 0 1 2.000 10.425 0.000 10.425
714 0 1 2.000 8.340 2.085 10.425
715 0 1 2.000 8.340 0.000 12.510
716 0 1 2.000 10.425 2.085 12.510
717 0 1 2.000 10.425 0.000 14.595
718 0 1 2.000 8.340 2.085 14.595
719 0 1 2.000 8.340 0.000 16.680
720 0 1 2.000 10.425 2.085 16.680
721 0 1 2.000 10.425 0.000 18.765
722 0 1 2.000 8.340 2.085 18.765
723 0 1 2.000 8.340 0.000 20.850
724 0 1 2.000 10.425 2.085 20.850
725 0 1 2.000 10.425 0.000 22.935
726 0 1 2.000 8.340 2.085 22.935
727 0 1 2.000 8.340 0.000 25.020
728 0 1 2.000 10.425 2.085 25.020
729 0 1 2.000 10.425 0.000 27.105
730 0 1 2.000 8.340 2.085 27.105
731 0 1 2.000 8.340 0.000 29.190
732 0 1 2.000 10.425 2.085 29.190
733 0 1 2.000 10.425 0.000 31.275
734 0 1 2.000 8.340 2.085 31.275
735 0 1 2.000 8.340 0.000 33.360
736 0 1 2.000 10.425 2.085 33.360
737 0 1 2.000 10.425 0.000 35.445
738 0 1 2.000 8.340 2.085 35.445
739 0 1 2.000 8.340 0.000 37.530
740 0 1 2.000 10.425 2.085 37.530
741 0 1 2.000 10.425 0.000 39.615
742 0 1 2.000 8.340 2.085 39.615
743 0 1 2.000 8.340 4.170 0.000
744 0 1 2.000 10.425 6.255 0.000
745 0 1 2.000 10.425 4.170 2.085
746 0 1 2.000 8.340 6.255 2.085
747 0 1 2.000 8.340 4.170 4.170
748 0 1 2.000 10.425 6.255 4.170
749 0 1 2.000 10.425 4.170 6.255
750 0 1 2.000 8.340 6.255 6.255
751 0 1 2.000 8.340 4.170 8.340
752 0 1 2.000 10.425 6.255 8.340
753 0 1 2.000 10.425 4.170 10.425
754 0 1 2.000 8.340 6.255 10.425
755 0 1 2.000 8.340 4.170 12.510
756 0 1 2.000 10.425 6.255 12.510
757 0 1 2.000 10.425 4.170 14.595
758 0 1 2.000 8.340 6.255 14.595
759 0 1 2.000 8.340 4.170 16.680
760 0 1 2.000 10.425 6.255 16.680
761 0 1 2.000 10.425 4.170 18.765
762 0 1 2.000 8.340 6.255 18.765
763 0 1 2.000 8.340 4.170 20.850
764 0 1 2.000 10.425 6.255 20.850
765 0 1 2.000 10.425 4.170 22.935
766 0 1 2.000 8.340 6.255 22.935
767 0 1 2.000 8.340 4.170 25.020
768 0 1 2.000 10.425 6.255 25.020
769 0 1 2.000 10.425 4.170 27.105
770 0 1 2.000 8.340 6.255 27.105
771 0 1 2.000 8.340 4.170 29.190
772 0 1 2.000 10.425 6.255 29.190
773 0 1 2.000 10.425 4.170 31.275
774 0 1 2.000 8.340 6.255 31.275
775 0 1 2.000 8.340 4.170 33.360
776 0 1 2.000 10.425 6.255 33.360
777 0 1 2.000 10.425 4.170 35.445
778 0 1 2.000 8.340 6.255 35.445
779 0 1 2.000 8.340 4.170 37.530
780 0 1 2.000 10.425 6.255 37.530
781 0 1 2.000 10.425 4.170 39.615
782 0 1 2.000 8.340 6.255 39.615
783 0 1 2.000 8.340 8.340 0.000
784 0 1 2.000 10.425 10.425 0.000
785 0 1 2.000 10.425 8.340 2.085
786 0 1 2.000 8.340 10.425 2.085
787 0 1 2.000 8.340 8.340 4.170
788 0 1 2.000 10.425 10.425 4.170
789 0 1 2.000 10.425 8.340 6.255
790 0 1 2.000 8.340 10.425 6.255
791 0 1 2.000 8.340 8.340 8.340
792 0 1 2.000 10.425 10.425 8.340
793 0 1 2.000 10.425 8.340 10.425
794 0 1 2.000 8.340 10.425 10.425
795 0 1 2.000 8.340 8.340 12.510
796 0 1 2.000 10.425 10.425 12.510
797 0 1 2.000 10.425 8.340 14.595
798 0 1 2.000 8.340 10.425 14.595
799 0 1 2.000 8.340 8.340 16.680
800 0 1 2.000 10.425 10.425 16.680
801 0 1 2.000 10.425 8.340 18.765
802 0 1 2.000 8.340 10.425 18.765
803 0 1 2.000 8.340 8.340 20.850
804 0 1 2.000 10.425 10.425 20.850
805 0 1 2.000 10.425 8.340 22.935
806 0 1 2.000 8.340 10.425 22.935
807 0 1 2.000 8.340 8.340 25.020
808 0 1 2.000 10.425 10.425 25.020
809 0 1 2.000 10.425 8.340 27.105
810 0 1 2.000 8.340 10.425 27.105
811 0 1 2.000 8.340 8.340 29.190
812 0 1 2.000 10.425 10.425 29.190
813 0 1 2.000 10.425 8.340 31.275
814 0 1 2.000 8.340 10.425 31.275
815 0 1 2.000 8.340 8.340 33.360
816 0 1 2.000 10.425 10.425 33.360
817 0 1 2.000 10.425 8.340 35.445
818 0 1 2.000 8.340 10.425 35.445
819 0 1 2.000 8.340 8.340 37.530
820 0 1 2.000 8.340 12.510 0.000
821 0 1 2.000 10.425 14.595 0.000
822 0 1 2.000 10.425 12.510 2.085
823 0 1 2.000 8.340 14.595 2.085
824 0 1 2.000 8.340 12.510 4.170
825 0 1 2.000 10.425 14.595 4.170
826 0 1 2.000 10.425 12.510 6.255
827 0 1 2.000 8.340 14.595 6.255
828 0 1 2.000 8.340 12.510 8.340
829 0 1 2.000 10.425 14.595 8.340
830 0 1 2.000 10.425 12.510 10.425
831 0 1 2.000 8.340 14.595 10.425
832 0 1 2.000 8.340 12.510 12.510
833 0 1 2.000 10.425 14.595 12.510
834 0 1 2.000 10.425 12.510 14.595
835 0 1 2.000 8.340 14.595 14.595
836 0 1 2.000 8.340 12.510 16.680
837 0 1 2.000 10.425 14.595 16.680
838 0 1 2.000 10.425 12.510 18.765
839 0 1 2.000 8.340 14.595 18.765
840 0 1 2.000 8.340 12.510 20.850
841 0 1 2.000 10.425 14.595 20.850
842 0 1 2.000 10.425 12.510 22.935
843 0 1 2.000 8.340 14.595 22.935
844 0 1 2.000 8.340 12.510 25.020
845 0 1 2.000 10.425 14.595 25.020
846 0 1 2.000 10.425 12.510 27.105
847 0 1 2.000 8.340 14.595 27.105
848 0 1 2.000 8.340 12.510 29.190
849 0 1 2.000 10.425 14.595 29.190
850 0 1 2.000 10.425 12.510 31.275
851 0 1 2.000 8.340 14.595 31.275
852 0 1 2.000 8.340 12.510 33.360
853 0 1 2.000 8.340 16.680 0.000
854 0 1 2.000 10.425 18.765 0.000
855 0 1 2.000 10.425 16.680 2.085
856 0 1 2.000 8.340 18.765 2.085
857 0 1 2.000 8.340 16.680 4.170
858 0 1 2.000 10.425 18.765 4.170
859 0 1 2.000 10.425 16.680 6.255
860 0 1 2.000 8.340 18.765 6.255
861 0 1 2.000 8.340 16.680 8.340
862 0 1 2.000 10.425 18.765 8.340
863 0 1 2.000 10.425 16.680 10.425
864 0 1 2.000 8.340 18.765 10.425
865 0 1 2.000 8.340 16.680 12.510
866 0 1 2.000 10.425 18.765 12.510
867 0 1 2.000 10.425 16.680 14.595
868 0 1 2.000 8.340 18.765 14.595
869 0 1 2.000 8.340 16.680 16.680
870 0 1 2.000 10.425 18.765 16.680
871 0 1 2.000 10.425 16.680 18.765
872 0 1 2.000 8.340 18.765 18.765
873 0 1 2.000 8.340 16.680 20.850
874 0 1 2.000 10.425 18.765 20.850
875 0 1 2.000 10.425 16.680 22.935
876 0 1 2.000 8.340 18.765 22.935
877 0 1 2.000 8.340 16.680 25.020
878 0 1 2.000 10.425 18.765 25.020
879 0 1 2.000 10.425 16.680 27.105
880 0 1 2.000 8.340 18.765 27.105
881 0 1 2.000 8.340 16.680 29.190
882 0 1 2.000 8.340 20.850 0.000
883 0 1 2.000 10.425 22.935 0.000
884 0 1 2.000 10.425 20.850 2.085
885 0 1 2.000 8.340 22.935 2.085
886 0 1 2.000 8.340 20.850 4.170
887 0 1 2.000 10.425 22.935 4.170
888 0 1 2.000 10.425 20.850 6.255
889 0 1 2.000 8.340 22.935 6.255
890 0 1 2.000 8.340 20.850 8.340
891 0 1 2.000 10.425 22.935 8.340
892 0 1 2.000 10.425 20.850 10.425
893 0 1 2.000 8.340 22.935 10.425
894 0 1 2.000 8.340 20.850 12.510
895 0 1 2.000 10.425 22.935 12.510
896 0 1 2.000 10.425 20.850 14.595
897 0 1 2.000 8.340 22.935 14.595
898 0 1 2.000 8.340 20.850 16.680
899 0 1 2.000 10.425 22.935 16.680
900 0 1 2.000 10.425 20.850 18.765
901 0 1 2.000 8.340 22.935 18.765
902 0 1 2.000 8.340 20.850 20.850
903 0 1 2.000 10.425 22.935 20.850
904 0 1 2.000 10.425 20.850 22.935
905 0 1 2.000 8.340 22.935 22.935
906 0 1 2.000 8.340 20.850 25.020
907 0 1 2.000 10.425 22.935 25.020
908 0 1 2.000 8.340 22.935 27.105
909 0 1 2.000 8.340 25.020 0.000
910 0 1 2.000 10.425 27.105 0.000
911 0 1 2.000 10.425 25.020 2.085
912 0 1 2.000 8.340 27.105 2.085
913 0 1 2.000 8.340 25.020 4.170
914 0 1 2.000 10.425 27.105 4.170
915 0 1 2.000 10.425 25.020 6.255
916 0 1 2.000 8.340 27.105 6.255
917 0 1 2.000 8.340 25.020 8.340
918 0 1 2.000 10.425 27.105 8.340
919 0 1 2.000 10.425 25.020 10.425
920 0 1 2.000 8.340 27.105 10.425
921 0 1 2.000 8.340 25.020 12.510
922 0 1 2.000 10.425 27.105 12.510
923 0 1 2.000 10.425 25.020 14.595
924 0 1 2.000 8.340 27.105 14.595
925 0 1 2.000 8.340 25.020 16.680
926 0 1 2.000 10.425 27.105 16.680
927 0 1 2.000 10.425 25.020 18.765
928 0 1 2.000 8.340 27.105 18.765
929 0 1 2.000 8.340 25.020 20.850
930 0 1 2.000 10.425 27.105 20.850
931 0 1 2.000 10.425 25.020 22.935
932 0 1 2.000 8.340 27.105 22.935
933 0 1 2.000 8.340 25.020 25.020
934 0 1 2.000 10.425 27.105 25.020
935 0 1 2.000 10.425 25.020 27.105
936 0 1 2.000 8.340 27.105 27.105
937 0 1 2.000 8.340 25.020 29.190
938 0 1 2.000 10.425 27.105 29.190
939 0 1 2.000 8.340 27.105 31.275
940 0 1 2.000 8.340 29.190 0.000
941 0 1 2.000 10.425 31.275 0.000
942 0 1 2.000 10.425 29.190 2.085
943 0 1 2.000 8.340 31.275 2.085
944 0 1 2.000 8.340 29.190 4.170
945 0 1 2.000 10.425 31.275 4.170
946 0 1 2.000 10.425 29.190 6.255
947 0 1 2.000 8.340 31.275 6.255
948 0 1 2.000 8.340 29.190 8.340
949 0 1 2.000 10.425 31.275 8.340
950 0 1 2.000 10.425 29.190 10.425
951 0 1 2.000 8.340 31.275 10.425
952 0 1 2.000 8.340 29.190 12.510
953 0 1 2.000 10.425 31.275 12.510
954 0 1 2.000 10.425 29.190 14.595
955 0 1 2.000 8.340 31.275 14.595
956 0 1 2.000 8.340 29.190 16.680
957 0 1 2.000 10.425 31.275 16.680
958 0 1 2.000 10.425 29.190 18.765
959 0 1 2.000 8.340 31.275 18.765
960 0 1 2.000 8.340 29.190 20.850
961 0 1 2.000 10.425 31.275 20.850
962 0 1 2.000 10.425 29.190 22.935
963 0 1 2.000 8.340 31.275 22.935
964 0 1 2.000 8.340 29.190 25.020
965 0 1 2.000 10.425 31.275 25.020
966 0 1 2.000 10.425 29.190 27.105
967 0 1 2.000 8.340 31.275 27.105
968 0 1 2.000 8.340 29.190 29.190
969 0 1 2.000 10.425 31.275 29.190
970 0 1 2.000 10.425 29.190 31.275
971 0 1 2.000 8.340 31.275 31.275
972 0 1 2.000 8.340 29.190 33.360
973 0 1 2.000 10.425 31.275 33.360
974 0 1 2.000 8.340 31.275 35.445
975 0 1 2.000 8.340 33.360 0.000
976 0 1 2.000 10.425 35.445 0.000
977 0 1 2.000 10.425 33.360 2.085
978 0 1 2.000 8.340 35.445 2.085
979 0 1 2.000 8.340 33.360 4.170
980 0 1 2.000 10.425 35.445 4.170
981 0 1 2.000 10.425 33.360 6.255
982 0 1 2.000 8.340 35.445 6.255
983 0 1 2.000 8.340 33.360 8.340
984 0 1 2.000 10.425 35.445 8.340
985 0 1 2.000 10.425 33.360 10.425
986 0 1 2.000 8.340 35.445 10.425
987 0 1 2.000 8.340 33.360 12.510
988 0 1 2.000 10.425 35.445 12.510
989 0 1 2.000 10.425 33.360 14.595
990 0 1 2.000 8.340 35.445 14.595
991 0 1 2.000 8.340 33.360 16.680
992 0 1 2.000 10.425 35.445 16.680
993 0 1 2.000 10.425 33.360 18.765
994 0 1 2.000 8.340 35.445 18.765
995 0 1 2.000 8.340 33.360 20.850
996 0 1 2.000 10.425 35.445 20.850
997 0 1 2.000 10.425 33.360 22.935
998 0 1 2.000 8.340 35.445 22.935
999 0 1 2.000 8.340 33.360 25.020
1000 0 1 2.000 10.425 35.445 25.020
1001 0 1 2.000 10.425 33.360 27.105
1002 0 1 2.000 8.340 35.445 27.105
1003 0 1 2.000 8.340 33.360 29.190
1004 0 1 2.000 10.425 35.445 29.190
1005 0 1 2.000 10.425 33.360 31.275
1006 0 1 2.000 8.340 35.445 31.275
1007 0 1 2.000 8.340 33.360 33.360
1008 0 1 2.000 10.425 35.445 33.360
1009 0 1 2.000 10.425 33.360 35.445
1010 0 1 2.000 8.340 35.445 35.445
1011 0 1 2.000 8.340 33.360 37.530
1012 0 1 2.000 10.425 35.445 37.530
1013 0 1 2.000 8.340 35.445 39.615
1014 0 1 2.000 8.340 37.530 0.000
1015 0 1 2.000 10.425 39.615 0.000
1016 0 1 2.000 10.425 37.530 2.085
1017 0 1 2.000 8.340 39.615 2.085
1018 0 1 2.000 8.340 37.530 4.170
1019 0 1 2.000 10.425 39.615 4.170
1020 0 1 2.000 10.425 37.530 6.255
1021 0 1 2.000 8.340 39.615 6.255
1022 0 1 2.000 8.340 37.530 8.340
1023 0 1 2.000 10.425 39.615 8.340
1024 0 1 2.000 10.425 37.530 10.425
1025 0 1 2.000 8.340 39.615 10.425
1026 0 1 2.000 8.340 37.530 12.510
1027 0 1 2.000 10.425 39.615 12.510
1028 0 1 2.000 10.425 37.530 14.595
1029 0 1 2.000 8.340 39.615 14.595
1030 0 1 2.000 8.340 37.530 16.680
1031 0 1 2.000 10.425 39.615 16.680
1032 0 1 2.000 10.425 37.530 18.765
1033 0 1 2.000 8.340 39.615 18.765
1034 0 1 2.000 8.340 37.530 20.850
1035 0 1 2.000 10.425 39.615 20.850
1036 0 1 2.000 10.425 37.530 22.935
1037 0 1 2.000 8.340 39.615 22.935
1038 0 1 2.000 8.340 37.530 25.020
1039 0 1 2.000 10.425 39.615 25.020
1040 0 1 2.000 10.425 37.530 27.105
1041 0 1 2.000 8.340 39.615 27.105
1042 0 1 2.000 8.340 37.530 29.190
1043 0 1 2.000 10.425 39.615 29.190
1044 0 1 2.000 10.425 37.530 31.275
1045 0 1 2.000 8.340 39.615 31.275
1046 0 1 2.000 8.340 37.530 33.360
1047 0 1 2.000 10.425 39.615 33.360
1048 0 1 2.000 10.425 37.530 35.445
1049 0 1 2.000 8.340 39.615 35.445
1050 0 1 2.000 8.340 37.530 37.530
1051 0 1 2.000 10.425 39.615 37.530
1052 0 1 2.000 10.425 37.530 39.615
1053 0 1 2.000 8.340 39.615 39.615
1054 0 1 2.000 12.510 0.000 0.000
1055 0 1 2.000 14.595 2.085 0.000
1056 0 1 2.000 14.595 0.000 2.085
1057 0 1 2.000 12.510 2.085 2.085
1058 0 1 2.000 12.510 0.000 4.170
1059 0 1 2.000 14.595 2.085 4.170
1060 0 1 2.000 14.595 0.000 6.255
1061 0 1 2.000 12.510 2.085 6.255
1062 0 1 2.000 12.510 0.000 8.340
1063 0 1 2.000 14.595 2.085 8.340
1064 0 1 2.000 14.595 0.000 10.425
1065 0 1 2.000 12.510 2.085 10.425
1066 0 1 2.000 12.510 0.000 12.510
1067 0 1 2.000 14.595 2.085 12.510
1068 0 1 2.000 14.595 0.000 14.595
1069 0 1 2.000 12.510 2.085 14.595
1070 0 1 2.000 12.510 0.000 16.680
1071 0 1 2.000 14.595 2.085 16.680
1072 0 1 2.000 14.595 0.000 18.765
1073 0 1 2.000 12.510 2.085 18.765
1074 0 1 2.000 12.510 0.000 20.850
1075 0 1 2.000 14.595 2.085 20.850
1076 0 1 2.000 14.595 0.000 22.935
1077 0 1 2.000 12.510 2.085 22.935
1078 0 1 2.000 12.510 0.000 25.020
1079 0 1 2.000 14.595 2.085 25.020
1080 0 1 2.000 14.595 0.000 27.105
1081 0 1 2.000 12.510 2.085 27.105
1082 0 1 2.000 12.510 0.000 29.190
1083 0 1 2.000 14.595 2.085 29.190
1084 0 1 2.000 14.595 0.000 31.275
1085 0 1 2.000 12.510 2.085 31.275
1086 0 1 2.000 12.510 0.000 33.360
1087 0 1 2.000 14.595 2.085 33.360
1088 0 1 2.000 14.595 0.000 35.445
1089 0 1 2.000 12.510 2.085 35.445
1090 0 1 2.000 12.510 0.000 37.530
1091 0 1 2.000 14.595 2.085 37.530
1092 0 1 2.000 14.595 0.000 39.615
1093 0 1 2.000 12.510 2.085 39.615
1094 0 1 2.000 12.510 4.170 0.000
1095 0 1 2.000 14.595 6.255 0.000
1096 0 1 2.000 14.595 4.170 2.085
1097 0 1 2.000 12.510 6.255 2.085
1098 0 1 2.000 12.510 4.170 4.170
1099 0 1 2.000 14.595 6.255 4.170
1100 0 1 2.000 14.595 4.170 6.255
1101 0 1 2.000 12.510 6.255 6.255
1102 0 1 2.000 12.510 4.170 8.340
1103 0 1 2.000 14.595 6.255 8.340
1104 0 1 2.000 14.595 4.170 10.425
1105 0 1 2.000 12.510 6.255 10.425
1106 0 1 2.000 12.510 4.170 12.510
1107 0 1 2.000 14.595 6.255 12.510
1108 0 1 2.000 14.595 4.170 14.595
1109 0 1 2.000 12.510 6.255 14.595
1110 0 1 2.000 12.510 4.170 16.680
1111 0 1 2.000 14.595 6.255 16.680
1112 0 1 2.000 14.595 4.170 18.765
1113 0 1 2.000 12.510 6.255 18.765
1114 0 1 2.000 12.510 4.170 20.850
1115 0 1 2.000 14.595 6.255 20.850
1116 0 1 2.000 14.595 4.170 22.935
1117 0 1 2.000 12.510 6.255 22.935
1118 0 1 2.000 12.510 4.170 25.020
1119 0 1 2.000 14.595 6.255 25.020
1120 0 1 2.000 14.595 4.170 27.105
1121 0 1 2.000 12.510 6.255 27.105
1122 0 1 2.000 12.510 4.170 29.190
1123 0 1 2.000 14.595 6.255 29.190
1124 0 1 2.000 14.595 4.170 31.275
1125 0 1 2.000 12.510 6.255 31.275
1126 0 1 2.000 12.510 4.170 33.360
1127 0 1 2.000 14.595 6.255 33.360
1128 0 1 2.000 14.595 4.170 35.445
1129 0 1 2.000 12.510 6.255 35.445
1130 0 1 2.000 12.510 4.170 37.530
1131 0 1 2.000 14.595 6.255 37.530
1132 0 1 2.000 14.595 4.170 39.615
1133 0 1 2.000 12.510 6.255 39.615
1134 0 1 2.000 12.510 8.340 0.000
1135 0 1 2.000 14.595 10.425 0.000
1136 0 1 2.000 14.595 8.340 2.085
1137 0 1 2.000 12.510 10.425 2.085
1138 0 1 2.000 12.510 8.340 4.170
1139 0 1 2.000 14.595 10.425 4.170
1140 0 1 2.000 14.595 8.340 6.255
1141 0 1 2.000 12.510 10.425 6.255
1142 0 1 2.000 12.510 8.340 8.340
1143 0 1 2.000 14.595 10.425 8.340
1144 0 1 2.000 14.595 8.340 10.425
1145 0 1 2.000 12.510 10.425 10.425
1146 0 1 2.000 12.510 8.340 12.510
1147 0 1 2.000 14.595 10.425 12.510
1148 0 1 2.000 14.595 8.340 14.595
1149 0 1 2.000 12.510 10.425 14.595
1150 0 1 2.000 12.510 8.340 16.680
1151 0 1 2.000 14.595 10.425 16.680
1152 0 1 2.000 14.595 8.340 18.765
1153 0 1 2.000 12.510 10.425 18.765
1154 0 1 2.000 12.510 8.340 20.850
1155 0 1 2.000 14.595 10.425 20.850
1156 0 1 2.000 14.595 8.340 22.935
1157 0 1 2.000 12.510 10.425 22.935
1158 0 1 2.000 12.510 8.340 25.020
1159 0 1 2.000 14.595 10.425 25.020
1160 0 1 2.000 14.595 8.340 27.105
1161 0 1 2.000 12.510 10.425 27.105
1162 0 1 2.000 12.510 8.340 29.190
1163 0 1 2.000 14.595 10.425 29.190
1164 0 1 2.000 14.595 8.340 31.275
1165 0 1 2.000 12.510 10.425 31.275
1166 0 1 2.000 12.510 8.340 33.360
1167 0 1 2.000 14.595 10.425 33.360
1168 0 1 2.000 14.595 8.340 35.445
1169 0 1 2.000 12.510 10.425 35.445
1170 0 1 2.000 12.510 8.340 37.530
1171 0 1 2.000 12.510 12.510 0.000
1172 0 1 2.000 14.595 14.595 0.000
1173 0 1 2.000 14.595 12.510 2.085
1174 0 1 2.000 12.510 14.595 2.085
1175 0 1 2.000 12.510 12.510 4.170
1176 0 1 2.000 14.595 14.595 4.170
1177 0 1 2.000 14.595 12.510 6.255
1178 0 1 2.000 12.510 14.595 6.255
1179 0 1 2.000 12.510 12.510 8.340
1180 0 1 2.000 14.595 14.595 8.340
1181 0 1 2.000 14.595 12.510 10.425
1182 0 1 2.000 12.510 14.595 10.425
1183 0 1 2.000 12.510 12.510 12.510
1184 0 1 2.000 14.595 14.595 12.510
1185 0 1 2.000 14.595 12.510 14.595
1186 0 1 2.000 12.510 14.595 14.595
1187 0 1 2.000 12.510 12.510 16.680
1188 0 1 2.000 14.595 14.595 16.680
1189 0 1 2.000 14.595 12.510 18.765
1190 0 1 2.000 12.510 14.595 18.765
1191 0 1 2.000 12.510 12.510 20.850
1192 0 1 2.000 14.595 14.595 20.850
1193 0 1 2.000 14.595 12.510 22.935
1194 0 1 2.000 12.510 14.595 22.935
1195 0 1 2.000 12.510 12.510 25.020
1196 0 1 2.000 14.595 14.595 25.020
1197 0 1 2.000 14.595 12.510 27.105
1198 0 1 2.000 12.510 14.595 27.105
1199 0 1 2.000 12.510 12.510 29.190
1200 0 1 2.000 14.595 14.595 29.190
1201 0 1 2.000 14.595 12.510 31.275
1202 0 1 2.000 12.510 14.595 31.275
1203 0 1 2.000 12.510 12.510 33.360
1204 0 1 2.000 12.510 16.680 0.000
1205 0 1 2.000 14.595 18.765 0.000
1206 0 1 2.000 14.595 16.680 2.085
1207 0 1 2.000 12.510 18.765 2.085
1208 0 1 2.000 12.510 16.680 4.170
1209 0 1 2.000 14.595 18.765 4.170
1210 0 1 2.000 14.595 16.680 6.255
1211 0 1 2.000 12.510 18.765 6.255
1212 0 1 2.000 12.510 16.680 8.340
1213 0 1 2.000 14.595 18.765 8.340
1214 0 1 2.000 14.595 16.680 10.425
1215 0 1 2.000 12.510 18.765 10.425
1216 0 1 2.000 12.510 16.680 12.510
1217 0 1 2.000 14.595 18.765 12.510
1218 0 1 2.000 14.595 16.680 14.595
1219 0 1 2.000 12.510 18.765 14.595
1220 0 1 2.000 12.510 16.680 16.680
1221 0 1 2.000 14.595 18.765 16.680
1222 0 1 2.000 14.595 16.680 18.765
1223 0 1 2.000 12.510 18.765 18.765
1224 0 1 2.000 12.510 16.680 20.850
1225 0 1 2.000 14.595 18.765 20.850
1226 0 1 2.000 14.595 16.680 22.935
1227 0 1 2.000 12.510 18.765 22.935
1228 0 1 2.000 12.510 16.680 25.020
1229 0 1 2.000 14.595 18.765 25.020
1230 0 1 2.000 14.595 16.680 27.105
1231 0 1 2.000 12.510 18.765 27.105
1232 0 1 2.000 12.510 16.680 29.190
1233 0 1 2.000 12.510 20.850 0.000
1234 0 1 2.000 14.595 22.935 0.000
1235 0 1 2.000 14.595 20.850 2.085
1236 0 1 2.000 12.510 22.935 2.085
1237 0 1 2.000 12.510 20.850 4.170
1238 0 1 2.000 14.595 22.935 4.170
1239 0 1 2.000 14.595 20.850 6.255
1240 0 1 2.000 12.510 22.935 6.255
1241 0 1 2.000 12.510 20.850 8.340
1242 0 1 2.000 14.595 22.935 8.340
1243 0 1 2.000 14.595 20.850 10.425
1244 0 1 2.000 12.510 22.935 10.425
1245 0 1 2.000 12.510 20.850 12.510
1246 0 1 2.000 14.595 22.935 12.510
1247 0 1 2.000 14.595 20.850 14.595
1248 0 1 2.000 12.510 22.935 14.595
1249 0 1 2.000 12.510 20.850 16.680
1250 0 1 2.000 14.595 22.935 16.680
1251 0 1 2.000 14.595 20.850 18.765
1252 0 1 2.000 12.510 22.935 18.765
1253 0 1 2.000 12.510 20.850 20.850
1254 0 1 2.000 14.595 22.935 20.850
1255 0 1 2.000 14.595 20.850 22.935
1256 0 1 2.000 12.510 22.935 22.935
1257 0 1 2.000 12.510 20.850 25.020
1258 0 1 2.000 14.595 22.935 25.020
1259 0 1 2.000 12.510 22.935 27.105
1260 0 1 2.000 12.510 25.020 0.000
1261 0 1 2.000 14.595 27.105 0.000
1262 0 1 2.000 14.595 25.020 2.085
1263 0 1 2.000 12.510 27.105 2.085
1264 0 1 2.000 12.510 25.020 4.170
1265 0 1 2.000 14.595 27.105 4.170
1266 0 1 2.000 14.595 25.020 6.255
1267 0 1 2.000 12.510 27.105 6.255
1268 0 1 2.000 12.510 25.020 8.340
1269 0 1 2.000 14.595 27.105 8.340
1270 0 1 2.000 14.595 25.020 10.425
1271 0 1 2.000 12.510 27.105 10.425
1272 0 1 2.000 12.510 25.020 12.510
1273 0 1 2.000 14.595 27.105 12.510
1274 0 1 2.000 14.595 25.020 14.595
1275 0 1 2.000 12.510 27.105 14.595
1276 0 1 2.000 12.510 25.020 16.680
1277 0 1 2.000 14.595 27.105 16.680
1278 0 1 2.000 14.595 25.020 18.765
1279 0 1 2.000 12.510 27.105 18.765
1280 0 1 2.000 12.510 25.020 20.850
1281 0 1 2.000 14.595 27.105 20.850
1282 0 1 2.000 14.595 25.020 22.935
1283 0 1 2.000 12.510 27.105 22.935
1284 0 1 2.000 12.510 25.020 25.020
1285 0 1 2.000 14.595 27.105 25.020
1286 0 1 2.000 14.595 25.020 27.105
1287 0 1 2.000 12.510 27.105 27.105
1288 0 1 2.000 12.510 25.020 29.190
1289 0 1 2.000 14.595 27.105 29.190
1290 0 1 2.000 12.510 27.105 31.275
1291 0 1 2.000 12.510 29.190 0.000
1292 0 1 2.000 14.595 31.275 0.000
1293 0 1 2.000 14.595 29.190 2.085
1294 0 1 2.000 12.510 31.275 2.085
1295 0 1 2.000 12.510 29.190 4.170
1296 0 1 2.000 14.595 31.275 4.170
1297 0 1 2.000 14.595 29.190 6.255
1298 0 1 2.000 12.510 31.275 6.255
1299 0 1 2.000 12.510 29.190 8.340
1300 0 1 2.000 14.595 31.275 8.340
1301 0 1 2.000 14.595 29.190 10.425
1302 0 1 2.000 12.510 31.275 10.425
1303 0 1 2.000 12.510 29.190 12.510
1304 0 1 2.000 14.595 31.275 12.510
1305 0 1 2.000 14.595 29.190 14.595
1306 0 1 2.000 12.510 31.275 14.595
1307 0 1 2.000 12.510 29.190 16.680
1308 0 1 2.000 14.595 31.275 16.680
1309 0 1 2.000 14.595 29.190 18.765
1310 0 1 2.000 12.510 31.275 18.765
1311 0 1 2.000 12.510 29.190 20.850
1312 0 1 2.000 14.595 31.275 20.850
1313 0 1 2.000 14.595 29.190 22.935
1314 0 1 2.000 12.510 31.275 22.935
1315 0 1 2.000 12.510 29.190 25.020
1316 0 1 2.000 14.595 31.275 25.020
1317 0 1 2.000 14.595 29.190 27.105
1318 0 1 2.000 12.510 31.275 27.105
1319 0 1 2.000 12.510 29.190 29.190
1320 0 1 2.000 14.595 31.275 29.190
1321 0 1 2.000 14.595 29.190 31.275
1322 0 1 2.000 12.510 31.275 31.275
1323 0 1 2.000 12.510 29.190 33.360
1324 0 1 2.000 14.595 31.275 33.360
1325 0 1 2.000 12.510 31.275 35.445
1326 0 1 2.000 12.510 33.360 0.000
1327 0 1 2.000 14.595 35.445 0.000
1328 0 1 2.000 14.595 33.360 2.085
1329 0 1 2.000 12.510 35.445 2.085
1330 0 1 2.000 12.510 33.360 4.170
1331 0 1 2.000 14.595 35.445 4.170
1332 0 1 2.000 14.595 33.360 6.255
1333 0 1 2.000 12.510 35.445 6.255
1334 0 1 2.000 12.510 33.360 8.340
1335 0 1 2.000 14.595 35.445 8.340
1336 0 1 2.000 14.595 33.360 10.425
1337 0 1 2.000 12.510 35.445 10.425
1338 0 1 2.000 12.510 33.360 12.510
1339 0 1 2.000 14.595 35.445 12.510
1340 0 1 2.000 14.595 33.360 14.595
1341 0 1 2.000 12.510 35.445 14.595
1342 0 1 2.000 12.510 33.360 16.680
1343 0 1 2.000 14.595 35.445 16.680
1344 0 1 2.000 14.595 33.360 18.765
1345 0 1 2.000 12.510 35.445 18.765
1346 0 1 2.000 12.510 33.360 20.850
1347 0 1 2.000 14.595 35.445 20.850
1348 0 1 2.000 14.595 33.360 22.935
1349 0 1 2.000 12.510 35.445 22.935
1350 0 1 2.000 12.510 33.360 25.020
1351 0 1 2.000 14.595 35.445 25.020
1352 0 1 2.000 14.595 33.360 27.105
1353 0 1 2.000 12.510 35.445 27.105
1354 0 1 2.000 12.510 33.360 29.190
1355 0 1 2.000 14.595 35.445 29.190
1356 0 1 2.000 14.595 33.360 31.275
1357 0 1 2.000 12.510 35.445 31.275
1358 0 1 2.000 12.510 33.360 33.360
1359 0 1 2.000 14.595 35.445 33.360
1360 0 1 2.000 14.595 33.360 35.445
1361 0 1 2.000 12.510 35.445 35.445
1362 0 1 2.000 12.510 33.360 37.530
1363 0 1 2.000 14.595 35.445 37.530
1364 0 1 2.000 12.510 35.445 39.615
1365 0 1 2.000 12.510 37.530 0.000
1366 0 1 2.000 14.595 39.615 0.000
1367 0 1 2.000 14.595 37.530 2.085
1368 0 1 2.000 12.510 39.615 2.085
1369 0 1 2.000 12.510 37.530 4.170
1370 0 1 2.000 14.595 39.615 4.170
1371 0 1 2.000 14.595 37.530 6.255
1372 0 1 2.000 12.510 39.615 6.255
1373 0 1 2.000 12.510 37.530 8.340
1374 0 1 2.000 14.595 39.615 8.340
1375 0 1 2.000 14.595 37.530 10.425
1376 0 1 2.000 12.510 39.615 10.425
1377 0 1 2.000 12.510 37.530 12.510
1378 0 1 2.000 14.595 39.615 12.510
1379 0 1 2.000 14.595 37.530 14.595
1380 0 1 2.000 12.510 39.615 14.595
1381 0 1 2.000 12.510 37.530 16.680
1382 0 1 2.000 14.595 39.615 16.680
1383 0 1 2.000 14.595 37.530 18.765
1384 0 1 2.000 12.510 39.615 18.765
1385 0 1 2.000 12.510 37.530 20.850
1386 0 1 2.000 14.595 39.615 20.850
1387 0 1 2.000 14.595 37.530 22.935
1388 0 1 2.000 12.510 39.615 22.935
1389 0 1 2.000 12.510 37.530 25.020
1390 0 1 2.000 14.595 39.615 25.020
1391 0 1 2.000 14.595 37.530 27.105
1392 0 1 2.000 12.510 39.615 27.105
1393 0 1 2.000 12.510 37.530 29.190
1394 0 1 2.000 14.595 39.615 29.190
1395 0 1 2.000 14.595 37.530 31.275
1396 0 1 2.000 12.510 39.615 31.275
1397 0 1 2.000 12.510 37.530 33.360
1398 0 1 2.000 14.595 39.615 33.360
1399 0 1 2.000 14.595 37.530 35.445
1400 0 1 2.000 12.510 39.615 35.445
1401 0 1 2.000 12.510 37.530 37.530
1402 0 1 2.000 14.595 39.615 37.530
1403 0 1 2.000 14.595 37.530 39.615
1404 0 1 2.000 12.510 39.615 39.615
1405 0 1 2.000 16.680 0.000 0.000
1406 0 1 2.000 18.765 2.085 0.000
1407 0 1 2.000 18.765 0.000 2.085
1408 0 1 2.000 16.680 2.085 2.085
1409 0 1 2.000 16.680 0.000 4.170
1410 0 1 2.000 18.765 2.085 4.170
1411 0 1 2.000 18.765 0.000 6.255
1412 0 1 2.000 16.680 2.085 6.255
1413 0 1 2.000 16.680 0.000 8.340
1414 0 1 2.000 18.765 2.085 8.340
1415 0 1 2.000 18.765 0.000 10.425
1416 0 1 2.000 16.680 2.085 10.425
1417 0 1 2.000 16.680 0.000 12.510
1418 0 1 2.000 18.765 2.085 12.510
1419 0 1 2.000 18.765 0.000 14.595
1420 0 1 2.000 16.680 2.085 14.595
1421 0 1 2.000 16.680 0.000 16.680
1422 0 1 2.000 18.765 2.085 16.680
1423 0 1 2.000 18.765 0.000 18.765
1424 0 1 2.000 16.680 2.085 18.765
1425 0 1 2.000 16.680 0.000 20.850
1426 0 1 2.000 18.765 2.085 20.850
1427 0 1 2.000 18.765 0.000 22.935
1428 0 1 2.000 16.680 2.085 22.935
1429 0 1 2.000 16.680 0.000 25.020
1430 0 1 2.000 18.765 2.085 25.020
1431 0 1 2.000 18.765 0.000 27.105
1432 0 1 2.000 16.680 2.085 27.105
1433 0 1 2.000 16.680 0.000 29.190
1434 0 1 2.000 18.765 2.085 29.190
1435 0 1 2.000 18.765 0.000 31.275
1436 0 1 2.000 16.680 2.085 31.275
1437 0 1 2.000 16.680 0.000 33.360
1438 0 1 2.000 18.765 2.085 33.360
1439 0 1 2.000 18.765 0.000 35.445
1440 0 1 2.000 16.680 2.085 35.445
1441 0 1 2.000 16.680 0.000 37.530
1442 0 1 2.000 18.765 2.085 37.530
1443 0 1 2.000 18.765 0.000 39.615
1444 0 1 2.000 16.680 2.085 39.615
1445 0 1 2.000 16.680 4.170 0.000
1446 0 1 2.000 18.765 6.255 0.000
1447 0 1 2.000 18.765 4.170 2.085
1448 0 1 2.000 16.680 6.255 2.085
1449 0 1 2.000 16.680 4.170 4.170
1450 0 1 2.000 18.765 6.255 4.170
1451 0 1 2.000 18.765 4.170 6.255
1452 0 1 2.000 16.680 6.255 6.255
1453 0 1 2.000 16.680 4.170 8.340
1454 0 1 2.000 18.765 6.255 8.340
1455 0 1 2.000 18.765 4.170 10.425
1456 0 1 2.000 16.680 6.255 10.425
1457 0 1 2.000 16.680 4.170 12.510
1458 0 1 2.000 18.765 6.255 12.510
1459 0 1 2.000 18.765 4.170 14.595
1460 0 1 2.000 16.680 6.255 14.595
1461 0 1 2.000 16.680 4.170 16.680
1462 0 1 2.000 18.765 6.255 16.680
1463 0 1 2.000 18.765 4.170 18.765
1464 0 1 2.000 16.680 6.255 18.765
1465 0 1 2.000 16.680 4.170 20.850
1466 0 1 2.000 18.765 6.255 20.850
1467 0 1 2.000 18.765 4.170 22.935
1468 0 1 2.000 16.680 6.255 22.935
1469 0 1 2.000 16.680 4.170 25.020
1470 0 1 2.000 18.765 6.255 25.020
1471 0 1 2.000 18.765 4.170 27.105
1472 0 1 2.000 16.680 6.255 27.105
1473 0 1 2.000 16.680 4.170 29.190
1474 0 1 2.000 18.765 6.255 29.190
1475 0 1 2.000 18.765 4.170 31.275
1476 0 1 2.000 16.680 6.255 31.275
1477 0 1 2.000 16.680 4.170 33.360
1478 0 1 2.000 18.765 6.255 33.360
1479 0 1 2.000 18.765 4.170 35.445
1480 0 1 2.000 16.680 6.255 35.445
1481 0 1 2.000 16.680 4.170 37.530
1482 0 1 2.000 18.765 6.255 37.530
1483 0 1 2.000 18.765 4.170 39.615
1484 0 1 2.000 16.680 6.255 39.615
1485 0 1 2.000 16.680 8.340 0.000
1486 0 1 2.000 18.765 10.425 0.000
1487 0 1 2.000 18.765 8.340 2.085
1488 0 1 2.000 16.680 10.425 2.085
1489 0 1 2.000 16.680 8.340 4.170
1490 0 1 2.000 18.765 10.425 4.170
1491 0 1 2.000 18.765 8.340 6.255
1492 0 1 2.000 16.680 10.425 6.255
1493 0 1 2.000 16.680 8.340 8.340
1494 0 1 2.000 18.765 10.425 8.340
1495 0 1 2.000 18.765 8.340 10.425
1496 0 1 2.000 16.680 10.425 10.425
1497 0 1 2.000 16.680 8.340 12.510
1498 0 1 2.000 18.765 10.425 12.510
1499 0 1 2.000 18.765 8.340 14.595
1500 0 1 2.000 16.680 10.425 14.595
1501 0 1 2.000 16.680 8.340 16.680
1502 0 1 2.000 18.765 10.425 16.680
1503 0 1 2.000 18.765 8.340 18.765
1504 0 1 2.000 16.680 10.425 18.765
1505 0 1 2.000 16.680 8.340 20.850
1506 0 1 2.000 18.765 10.425 20.850
1507 0 1 2.000 18.765 8.340 22.935
1508 0 1 2.000 16.680 10.425 22.935
1509 0 1 2.000 16.680 8.340 25.020
1510 0 1 2.000 18.765 10.425 25.020
1511 0 1 2.000 18.765 8.340 27.105
1512 0 1 2.000 16.680 10.425 27.105
1513 0 1 2.000 16.680 8.340 29.190
1514 0 1 2.000 18.765 10.425 29.190
1515 0 1 2.000 18.765 8.340 31.275
1516 0 1 2.000 16.680 10.425 31.275
1517 0 1 2.000 16.680 8.340 33.360
1518 0 1 2.000 18.765 10.425 33.360
1519 0 1 2.000 18.765 8.340 35.445
1520 0 1 2.000 16.680 10.425 35.445
1521 0 1 2.000 16.680 8.340 37.530
1522 0 1 2.000 16.680 12.510 0.000
1523 0 1 2.000 18.765 14.595 0.000
1524 0 1 2.000 18.765 12.510 2.085
1525 0 1 2.000 16.680 14.595 2.085
1526 0 1 2.000 16.680 12.510 4.170
1527 0 1 2.000 18.765 14.595 4.170
1528 0 1 2.000 18.765 12.510 6.255
1529 0 1 2.000 16.680 14.595 6.255
1530 0 1 2.000 16.680 12.510 8.340
1531 0 1 2.000 18.765 14.595 8.340
1532 0 1 2.000 18.765 12.510 10.425
1533 0 1 2.000 16.680 14.595 10.425
1534 0 1 2.000 16.680 12.510 12.510
1535 0 1 2.000 18.765 14.595 12.510
1536 0 1 2.000 18.765 12.510 14.595
1537 0 1 2.000 16.680 14.595 14.595
1538 0 1 2.000 16.680 12.510 16.680
1539 0 1 2.000 18.765 14.595 16.680
1540 0 1 2.000 18.765 12.510 18.765
1541 0 1 2.000 16.680 14.595 18.765
1542 0 1 2.000 16.680 12.510 20.850
1543 0 1 2.000 18.765 14.595 20.850
1544 0 1 2.000 18.765 12.510 22.935
1545 0 1 2.000 16.680 14.595 22.935
1546 0 1 2.000 16.680 12.510 25.020
1547 0 1 2.000 18.765 14.595 25.020
1548 0 1 2.000 18.765 12.510 27.105
1549 0 1 2.000 16.680 14.595 27.105
1550 0 1 2.000 16.680 12.510 29.190
1551 0 1 2.000 18.765 14.595 29.190
1552 0 1 2.000 18.765 12.510 31.275
1553 0 1 2.000 16.680 14.595 31.275
1554 0 1 2.000 16.680 12.510 33.360
1555 0 1 2.000 16.680 16.680 0.000
1556 0 1 2.000 18.765 18.765 0.000
1557 0 1 2.000 18.765 16.680 2.085
1558 0 1 2.000 16.680 18.765 2.085
1559 0 1 2.000 16.680 16.680 4.170
1560 0 1 2.000 18.765 18.765 4.170
1561 0 1 2.000 18.765 16.680 6.255
1562 0 1 2.000 16.680 18.765 6.255
1563 0 1 2.000 16.680 16.680 8.340
1564 0 1 2.000 18.765 18.765 8.340
1565 0 1 2.000 18.765 16.680 10.425
1566 0 1 2.000 16.680 18.765 10.425
1567 0 1 2.000 16.680 16.680 12.510
1568 0 1 2.000 18.765 18.765 12.510
1569 0 1 2.000 18.765 16.680 14.595
1570 0 1 2.000 16.680 18.765 14.595
1571 0 1 2.000 16.680 16.680 16.680
1572 0 1 2.000 18.765 18.765 16.680
1573 0 1 2.000 18.765 16.680 18.765
1574 0 1 2.000 16.680 18.765 18.765
1575 0 1 2.000 16.680 16.680 20.850
1576 0 1 2.000 18.765 18.765 20.850
1577 0 1 2.000 18.765 16.680 22.935
1578 0 1 2.000 16.680 18.765 22.935
1579 0 1 2.000 16.680 16.680 25.020
1580 0 1 2.000 18.765 18.765 25.020
1581 0 1 2.000 18.765 16.680 27.105
1582 0 1 2.000 16.680 18.765 27.105
1583 0 1 2.000 16.680 16.680 29.190
1584 0 1 2.000 16.680 20.850 0.000
1585 0 1 2.000 18.765 22.935 0.000
1586 0 1 2.000 18.765 20.850 2.085
1587 0 1 2.000 16.680 22.935 2.085
1588 0 1 2.000 16.680 20.850 4.170
1589 0 1 2.000 18.765 22.935 4.170
1590 0 1 2.000 18.765 20.850 6.255
1591 0 1 2.000 16.680 22.935 6.255
1592 0 1 2.000 16.680 20.850 8.340
1593 0 1 2.000 18.765 22.935 8.340
1594 0 1 2.000 18.765 20.850 10.425
1595 0 1 2.000 16.680 22.935 10.425
1596 0 1 2.000 16.680 20.850 12.510
1597 0 1 2.000 18.765 22.935 12.510
1598 0 1 2.000 18.765 20.850 14.595
1599 0 1 2.000 16.680 22.935 14.595
1600 0 1 2.000 16.680 20.850 16.680
1601 0 1 2.000 18.765 22.935 16.680
1602 0 1 2.000 18.765 20.850 18.765
1603 0 1 2.000 16.680 22.935 18.765
1604 0 1 2.000 16.680 20.850 20.850
1605 0 1 2.000 18.765 22.935 20.850
1606 0 1 2.000 18.765 20.850 22.935
1607 0 1 2.000 16.680 22.935 22.935
1608 0 1 2.000 16.680 20.850 25.020
1609 0 1 2.000 18.765 22.935 25.020
1610 0 1 2.000 16.680 22.935 27.105
1611 0 1 2.000 16.680 25.020 0.000
1612 0 1 2.000 18.765 27.105 0.000
1613 0 1 2.000 18.765 25.020 2.085
1614 0 1 2.000 16.680 27.105 2.085
1615 0 1 2.000 16.680 25.020 4.170
1616 0 1 2.000 18.765 27.105 4.170
1617 0 1 2.000 18.765 25.020 6.255
1618 0 1 2.000 16.680 27.105 6.255
1619 0 1 2.000 16.680 25.020 8.340
1620 0 1 2.000 18.765 27.105 8.340
1621 0 1 2.000 18.765 25.020 10.425
1622 0 1 2.000 16.680 27.105 10.425
1623 0 1 2.000 16.680 25.020 12.510
1624 0 1 2.000 18.765 27.105 12.510
1625 0 1 2.000 18.765 25.020 14.595
1626 0 1 2.000 16.680 27.105 14.595
1627 0 1 2.000 16.680 25.020 16.680
1628 0 1 2.000 18.765 27.105 16.680
1629 0 1 2.000 18.765 25.020 18.765
1630 0 1 2.000 16.680 27.105 18.765
1631 0 1 2.000 16.680 25.020 20.850
1632 0 1 2.000 18.765 27.105 20.850
1633 0 1 2.000 18.765 25.020 22.935
1634 0 1 2.000 16.680 27.105 22.935
1635 0 1 2.000 16.680 25.020 25.020
1636 0 1 2.000 18.765 27.105 25.020
1637 0 1 2.000 18.765 25.020 27.105
1638 0 1 2.000 16.680 27.105 27.105
1639 0 1 2.000 16.680 25.020 29.190
1640 0 1 2.000 18.765 27.105 29.190
1641 0 1 2.000 16.680 27.105 31.275
1642 0 1 2.000 16.680 29.190 0.000
1643 0 1 2.000 18.765 31.275 0.000
1644 0 1 2.000 18.765 29.190 2.085
1645 0 1 2.000 16.680 31.275 2.085
1646 0 1 2.000 16.680 29.190 4.170
1647 0 1 2.000 18.765 31.275 4.170
1648 0 1 2.000 18.765 29.190 6.255
1649 0 1 2.000 16.680 31.275 6.255
1650 0 1 2.000 16.680 29.190 8.340
1651 0 1 2.000 18.765 31.275 8.340
1652 0 1 2.000 18.765 29.190 10.425
1653 0 1 2.000 16.680 31.275 10.425
1654 0 1 2.000 16.680 29.190 12.510
1655 0 1 2.000 18.765 31.275 12.510
1656 0 1 2.000 18.765 29.190 14.595
1657 0 1 2.000 16.680 31.275 14.595
1658 0 1 2.000 16.680 29.190 16.680
1659 0 1 2.000 18.765 31.275 16.680
1660 0 1 2.000 18.765 29.190 18.765
1661 0 1 2.000 16.680 31.275 18.765
1662 0 1 2.000 16.680 29.190 20.850
1663 0 1 2.000 18.765 31.275 20.850
1664 0 1 2.000 18.765 29.190 22.935
1665 0 1 2.000 16.680 31.275 22.935
1666 0 1 2.000 16.680 29.190 25.020
1667 0 1 2.000 18.765 31.275 25.020
1668 0 1 2.000 18.765 29.190 27.105
1669 0 1 2.000 16.680 31.275 27.105
1670 0 1 2.000 16.680 29.190 29.190
1671 0 1 2.000 18.765 31.275 29.190
1672 0 1 2.000 18.765 29.190 31.275
1673 0 1 2.000 16.680 31.275 31.275
1674 0 1 2.000 16.680 29.190 33.360
1675 0 1 2.000 18.765 31.275 33.360
1676 0 1 2.000 16.680 31.275 35.445
1677 0 1 2.000 16.680 33.360 0.000
1678 0 1 2.000 18.765 35.445 0.000
1679 0 1 2.000 18.765 33.360 2.085
1680 0 1 2.000 16.680 35.445 2.085
1681 0 1 2.000 16.680 33.360 4.170
1682 0 1 2.000 18.765 35.445 4.170
1683 0 1 2.000 18.765 33.360 6.255
1684 0 1 2.000 16.680 35.445 6.255
1685 0 1 2.000 16.680 33.360 8.340
1686 0 1 2.000 18.765 35.445 8.340
1687 0 1 2.000 18.765 33.360 10.425
1688 0 1 2.000 16.680 35.445 10.425
1689 0 1 2.000 16.680 33.360 12.510
1690 0 1 2.000 18.765 35.445 12.510
1691 0 1 2.000 18.765 33.360 14.595
1692 0 1 2.000 16.680 35.445 14.595
1693 0 1 2.000 16.680 33.360 16.680
1694 0 1 2.000 18.765 35.445 16.680
1695 0 1 2.000 18.765 33.360 18.765
1696 0 1 2.000 16.680 35.445 18.765
1697 0 1 2.000 16.680 33.360 20.850
1698 0 1 2.000 18.765 35.445 20.850
1699 0 1 2.000 18.765 33.360 22.935
1700 0 1 2.000 16.680 35.445 22.935
1701 0 1 2.000 16.680 33.360 25.020
1702 0 1 2.000 18.765 35.445 25.020
1703 0 1 2.000 18.765 33.360 27.105
1704 0 1 2.000 16.680 35.445 27.105
1705 0 1 2.000 16.680 33.360 29.190
1706 0 1 2.000 18.765 35.445 29.190
1707 0 1 2.000 18.765 33.360 31.275
1708 0 1 2.000 16.680 35.445 31.275
1709 0 1 2.000 16.680 33.360 33.360
1710 0 1 2.000 18.765 35.445 33.360
1711 0 1 2.000 18.765 33.360 35.445
1712 0 1 2.000 16.680 35.445 35.445
1713 0 1 2.000 16.680 33.360 37.530
1714 0 1 2.000 18.765 35.445 37.530
1715 0 1 2.000 16.680 35.445 39.615
1716 0 1 2.000 16.680 37.530 0.000
1717 0 1 2.000 18.765 39.615 0.000
1718 0 1 2.000 18.765 37.530 2.085
1719 0 1 2.000 16.680 39.615 2.085
1720 0 1 2.000 16.680 37.530 4.170
1721 0 1 2.000 18.765 39.615 4.170
1722 0 1 2.000 18.765 37.530 6.255
1723 0 1 2.000 16.680 39.615 6.255
1724 0 1 2.000 16.680 37.530 8.340
1725 0 1 2.000 18.765 39.615 8.340
1726 0 1 2.000 18.765 37.530 10.425
1727 0 1 2.000 16.680 39.615 10.425
1728 0 1 2.000 16.680 37.530 12.510
1729 0 1 2.000 18.765 39.615 12.510
1730 0 1 2.000 18.765 37.530 14.595
1731 0 1 2.000 16.680 39.615 14.595
1732 0 1 2.000 16.680 37.530 16.680
1733 0 1 2.000 18.765 39.615 16.680
1734 0 1 2.000 18.765 37.530 18.765
1735 0 1 2.000 16.680 39.615 18.765
1736 0 1 2.000 16.680 37.530 20.850
1737 0 1 2.000 18.765 39.615 20.850
1738 0 1 2.000 18.765 37.530 22.935
1739 0 1 2.000 16.680 39.615 22.935
1740 0 1 2.000 16.680 37.530 25.020
1741 0 1 2.000 18.765 39.615 25.020
1742 0 1 2.000 18.765 37.530 27.105
1743 0 1 2.000 16.680 39.615 27.105
1744 0 1 2.000 16.680 37.530 29.190
1745 0 1 2.000 18.765 39.615 29.190
1746 0 1 2.000 18.765 37.530 31.275
1747 0 1 2.000 16.680 39.615 31.275
1748 0 1 2.000 16.680 37.530 33.360
1749 0 1 2.000 18.765 39.615 33.360
1750 0 1 2.000 18.765 37.530 35.445
1751 0 1 2.000 16.680 39.615 35.445
1752 0 1 2.000 16.680 37.530 37.530
1753 0 1 2.000 18.765 39.615 37.530
1754 0 1 2.000 18.765 37.530 39.615
1755 0 1 2.000 16.680 39.615 39.615
1756 0 1 2.000 20.850 0.000 0.000
1757 0 1 2.000 22.935 2.085 0.000
1758 0 1 2.000 22.935 0.000 2.085
1759 0 1 2.000 20.850 2.085 2.085
1760 0 1 2.000 20.850 0.000 4.170
1761 0 1 2.000 22.935 2.085 4.170
1762 0 1 2.000 22.935 0.000 6.255
1763 0 1 2.000 20.850 2.085 6.255
1764 0 1 2.000 20.850 0.000 8.340
1765 0 1 2.000 22.935 2.085 8.340
1766 0 1 2.000 22.935 0.000 10.425
1767 0 1 2.000 20.850 2.085 10.425
1768 0 1 2.000 20.850 0.000 12.510
1769 0 1 2.000 22.935 2.085 12.510
1770 0 1 2.000 22.935 0.000 14.595
1771 0 1 2.000 20.850 2.085 14.595
1772 0 1 2.000 20.850 0.000 16.680
1773 0 1 2.000 22.935 2.085 16.680
1774 0 1 2.000 22.935 0.000 18.765
1775 0 1 2.000 20.850 2.085 18.765
1776 0 1 2.000 20.850 0.000 20.850
1777 0 1 2.000 22.935 2.085 20.850
1778 0 1 2.000 22.935 0.000 22.935
1779 0 1 2.000 20.850 2.085 22.935
1780 0 1 2.000 20.850 0.000 25.020
1781 0 1 2.000 22.935 2.085 25.020
1782 0 1 2.000 22.935 0.000 27.105
1783 0 1 2.000 20.850 2.085 27.105
1784 0 1 2.000 20.850 0.000 29.190
1785 0 1 2.000 22.935 2.085 29.190
1786 0 1 2.000 22.935 0.000 31.275
1787 0 1 2.000 20.850 2.085 31.275
1788 0 1 2.000 20.850 0.000 33.360
1789 0 1 2.000 22.935 2.085 33.360
1790 0 1 2.000 22.935 0.000 35.445
1791 0 1 2.000 20.850 2.085 35.445
1792 0 1 2.000 20.850 0.000 37.530
1793 0 1 2.000 22.935 2.085 37.530
1794 0 1 2.000 22.935 0.000 39.615
1795 0 1 2.000 20.850 2.085 39.615
1796 0 1 2.000 20.850 4.170 0.000
1797 0 1 2.000 22.935 6.255 0.000
1798 0 1 2.000 22.935 4.170 2.085
1799 0 1 2.000 20.850 6.255 2.085
1800 0 1 2.000 20.850 4.170 4.170
1801 0 1 2.000 22.935 6.255 4.170
1802 0 1 2.000 22.935 4.170 6.255
1803 0 1 2.000 20.850 6.255 6.255
1804 0 1 2.000 20.850 4.170 8.340
1805 0 1 2.000 22.935 6.255 8.340
1806 0 1 2.000 22.935 4.170 10.425
1807 0 1 2.000 20.850 6.255 10.425
1808 0 1 2.000 20.850 4.170 12.510
1809 0 1 2.000 22.935 6.255 12.510
1810 0 1 2.000 22.935 4.170 14.595
1811 0 1 2.000 20.850 6.255 14.595
1812 0 1 2.000 20.850 4.170 16.680
1813 0 1 2.000 22.935 6.255 16.680
1814 0 1 2.000 22.935 4.170 18.765
1815 0 1 2.000 20.850 6.255 18.765
1816 0 1 2.000 20.850 4.170 20.850
1817 0 1 2.000 22.935 6.255 20.850
1818 0 1 2.000 22.935 4.170 22.935
1819 0 1 2.000 20.850 6.255 22.935
1820 0 1 2.000 20.850 4.170 25.020
1821 0 1 2.000 22.935 6.255 25.020
1822 0 1 2.000 22.935 4.170 27.105
1823 0 1 2.000 20.850 6.255 27.105
1824 0 1 2.000 20.850 4.170 29.190
1825 0 1 2.000 22.935 6.255 29.190
1826 0 1 2.000 22.935 4.170 31.275
1827 0 1 2.000 20.850 6.255 31.275
1828 0 1 2.000 20.850 4.170 33.360
1829 0 1 2.000 22.935 6.255 33.360
1830 0 1 2.000 22.935 4.170 35.445
1831 0 1 2.000 20.850 6.255 35.445
1832 0 1 2.000 20.850 4.170 37.530
1833 0 1 2.000 22.935 6.255 37.530
1834 0 1 2.000 22.935 4.170 39.615
1835 0 1 2.000 20.850 6.255 39.615
1836 0 1 2.000 20.850 8.340 0.000
1837 0 1 2.000 22.935 10.425 0.000
1838 0 1 2.000 22.935 8.340 2.085
1839 0 1 2.000 20.850 10.425 2.085
1840 0 1 2.000 20.850 8.340 4.170
1841 0 1 2.000 22.935 10.425 4.170
1842 0 1 2.000 22.935 8.340 6.255
1843 0 1 2.000 20.850 10.425 6.255
1844 0 1 2.000 20.850 8.340 8.340
1845 0 1 2.000 22.935 10.425 8.340
1846 0 1 2.000 22.935 8.340 10.425
1847 0 1 2.000 20.850 10.425 10.425
1848 0 1 2.000 20.850 8.340 12.510
1849 0 1 2.000 22.935 10.425 12.510
1850 0 1 2.000 22.935 8.340 14.595
1851 0 1 2.000 20.850 10.425 14.595
1852 0 1 2.000 20.850 8.340 16.680
1853 0 1 2.000 22.935 10.425 16.680
1854 0 1 2.000 22.935 8.340 18.765
1855 0 1 2.000 20.850 10.425 18.765
1856 0 1 2.000 20.850 8.340 20.850
1857 0 1 2.000 22.935 10.425 20.850
1858 0 1 2.000 22.935 8.340 22.935
1859 0 1 2.000 20.850 10.425 22.935
1860 0 1 2.000 20.850 8.340 25.020
1861 0 1 2.000 22.935 10.425 25.020
1862 0 1 2.000 22.935 8.340 27.105
1863 0 1 2.000 20.850 10.425 27.105
1864 0 1 2.000 20.850 8.340 29.190
1865 0 1 2.000 22.935 10.425 29.190
1866 0 1 2.000 22.935 8.340 31.275
1867 0 1 2.000 20.850 10.425 31.275
1868 0 1 2.000 20.850 8.340 33.360
1869 0 1 2.000 22.935 10.425 33.360
1870 0 1 2.000 22.935 8.340 35.445
1871 0 1 2.000 20.850 10.425 35.445
1872 0 1 2.000 20.850 8.340 37.530
1873 0 1 2.000 20.850 12.510 0.000
1874 0 1 2.000 22.935 14.595 0.000
1875 0 1 2.000 22.935 12.510 2.085
1876 0 1 2.000 20.850 14.595 2.085
1877 0 1 2.000 20.850 12.510 4.170
1878 0 1 2.000 22.935 14.595 4.170
1879 0 1 2.000 22.935 12.510 6.255
1880 0 1 2.000 20.850 14.595 6.255
1881 0 1 2.000 20.850 12.510 8.340
1882 0 1 2.000 22.935 14.595 8.340
1883 0 1 2.000 22.935 12.510 10.425
1884 0 1 2.000 20.850 14.595 10.425
1885 0 1 2.000 20.850 12.510 12.510
1886 0 1 2.000 22.935 14.595 12.510
1887 0 1 2.000 22.935 12.510 14.595
1888 0 1 2.000 20.850 14.595 14.595
1889 0 1 2.000 20.850 12.510 16.680
1890 0 1 2.000 22.935 14.595 16.680
1891 0 1 2.000 22.935 12.510 18.765
1892 0 1 2.000 20.850 14.595 18.765
1893 0 1 2.000 20.850 12.510 20.850
1894 0 1 2.000 22.935 14.595 20.850
1895 0 1 2.000 22.935 12.510 22.935
1896 0 1 2.000 20.850 14.595 22.935
1897 0 1 2.000 20.850 12.510 25.020
1898 0 1 2.000 22.935 14.595 25.020
1899 0 1 2.000 22.935 12.510 27.105
1900 0 1 2.000 20.850 14.595 27.105
1901 0 1 2.000 20.850 12.510 29.190
1902 0 1 2.000 22.935 14.595 29.190
1903 0 1 2.000 22.935 12.510 31.275
1904 0 1 2.000 20.850 14.595 31.275
1905 0 1 2.000 20.850 12.510 33.360
1906 0 1 2.000 20.850 16.680 0.000
1907 0 1 2.000 22.935 18.765 0.000
1908 0 1 2.000 22.935 16.680 2.085
1909 0 1 2.000 20.850 18.765 2.085
1910 0 1 2.000 20.850 16.680 4.170
1911 0 1 2.000 22.935 18.765 4.170
1912 0 1 2.000 22.935 16.680 6.255
1913 0 1 2.000 20.850 18.765 6.255
1914 0 1 2.000 20.850 16.680 8.340
1915 0 1 2.000 22.935 18.765 8.340
1916 0 1 2.000 22.935 16.680 10.425
1917 0 1 2.000 20.850 18.765 10.425
1918 0 1 2.000 20.850 16.680 12.510
1919 0 1 2.000 22.935 18.765 12.510
1920 0 1 2.000 22.935 16.680 14.595
1921 0 1 2.000 20.850 18.765 14.595
1922 0 1 2.000 20.850 16.680 16.680
1923 0 1 2.000 22.935 18.765 16.680
1924 0 1 2.000 22.935 16.680 18.765
1925 0 1 2.000 20.850 18.765 18.765
1926 0 1 2.000 20.850 16.680 20.850
1927 0 1 2.000 22.935 18.765 20.850
1928 0 1 2.000 22.935 16.680 22.935
1929 0 1 2.000 20.850 18.765 22.935
1930 0 1 2.000 20.850 16.680 25.020
1931 0 1 2.000 22.935 18.765 25.020
1932 0 1 2.000 22.935 16.680 27.105
1933 0 1 2.000 20.850 18.765 27.105
1934 0 1 2.000 20.850 16.680 29.190
1935 0 1 2.000 20.850 20.850 0.000
1936 0 1 2.000 22.935 22.935 0.000
1937 0 1 2.000 22.935 20.850 2.085
1938 0 1 2.000 20.850 22.935 2.085
1939 0 1 2.000 20.850 20.850 4.170
1940 0 1 2.000 22.935 22.935 4.170
1941 0 1 2.000 22.935 20.850 6.255
1942 0 1 2.000 20.850 22.935 6.255
1943 0 1 2.000 20.850 20.850 8.340
1944 0 1 2.000 22.935 22.935 8.340
1945 0 1 2.000 22.935 20.850 10.425
1946 0 1 2.000 20.850 22.935 10.425
1947 0 1 2.000 20.850 20.850 12.510
1948 0 1 2.000 22.935 22.935 12.510
1949 0 1 2.000 22.935 20.850 14.595
1950 0 1 2.000 20.850 22.935 14.595
1951 0 1 2.000 20.850 20.850 16.680
1952 0 1 2.000 22.935 22.935 16.680
1953 0 1 2.000 22.935 20.850 18.765
1954 0 1 2.000 20.850 22.935 18.765
1955 0 1 2.000 20.850 20.850 20.850
1956 0 1 2.000 22.935 22.935 20.850
1957 0 1 2.000 22.935 20.850 22.935
1958 0 1 2.000 20.850 22.935 22.935
1959 0 1 2.000 20.850 20.850 25.020
1960 0 1 2.000 22.935 22.935 25.020
1961 0 1 2.000 20.850 22.935 27.105
1962 0 1 2.000 20.850 25.020 0.000
1963 0 1 2.000 22.935 27.105 0.000
1964 0 1 2.000 22.935 25.020 2.085
1965 0 1 2.000 20.850 27.105 2.085
1966 0 1 2.000 20.850 25.020 4.170
1967 0 1 2.000 22.935 27.105 4.170
1968 0 1 2.000 22.935 25.020 6.255
1969 0 1 2.000 20.850 27.105 6.255
1970 0 1 2.000 20.850 25.020 8.340
1971 0 1 2.000 22.935 27.105 8.340
1972 0 1 2.000 22.935 25.020 10.425
1973 0 1 2.000 20.850 27.105 10.425
1974 0 1 2.000 20.850 25.020 12.510
1975 0 1 2.000 22.935 27.105 12.510
1976 0 1 2.000 22.935 25.020 14.595
1977 0 1 2.000 20.850 27.105 14.595
1978 0 1 2.000 20.850 25.020 16.680
1979 0 1 2.000 22.935 27.105 16.680
1980 0 1 2.000 22.935 25.020 18.765
1981 0 1 2.000 20.850 27.105 18.765
1982 0 1 2.000 20.850 25.020 20.850
1983 0 1 2.000 22.935 27.105 20.850
1984 0 1 2.000 22.935 25.020 22.935
1985 0 1 2.000 20.850 27.105 22.935
1986 0 1 2.000 20.850 25.020 25.020
1987 0 1 2.000 22.935 27.105 25.020
1988 0 1 2.000 22.935 25.020 27.105
1989 0 1 2.000 20.850 27.105 27.105
1990 0 1 2.000 20.850 25.020 29.190
1991 0 1 2.000 22.935 27.105 29.190
1992 0 1 2.000 20.850 27.105 31.275
1993 0 1 2.000 20.850 29.190 0.000
1994 0 1 2.000 22.935 31.275 0.000
1995 0 1 2.000 22.935 29.190 2.085
1996 0 1 2.000 20.850 31.275 2.085
1997 0 1 2.000 20.850 29.190 4.170
1998 0 1 2.000 22.935 31.275 4.170
1999 0 1 2.000 22.935 29.190 6.255
2000 0 1 2.000 20.850 31.275 6.255
2001 0 1 2.000 20.850 29.190 8.340
2002 0 1 2.000 22.935 31.275 8.340
2003 0 1 2.000 22.935 29.190 10.425
2004 0 1 2.000 20.850 31.275 10.425
2005 0 1 2.000 20.850 29.190 12.510
2006 0 1 2.000 22.935 31.275 12.510
2007 0 1 2.000 22.935 29.190 14.595
2008 0 1 2.000 20.850 31.275 14.595
2009 0 1 2.000 20.850 29.190 16.680
2010 0 1 2.000 22.935 31.275 16.680
2011 0 1 2.000 22.935 29.190 18.765
2012 0 1 2.000 20.850 31.275 18.765
2013 0 1 2.000 20.850 29.190 20.850
2014 0 1 2.000 22.935 31.275 20.850
2015 0 1 2.000 22.935 29.190 22.935
2016 0 1 2.000 20.850 31.275 22.935
2017 0 1 2.000 20.850 29.190 25.020
2018 0 1 2.000 22.935 31.275 25.020
2019 0 1 2.000 22.935 29.190 27.105
2020 0 1 2.000 20.850 31.275 27.105
2021 0 1 2.000 20.850 29.190 29.190
2022 0 1 2.000 22.935 31.275 29.190
2023 0 1 2.000 22.935 29.190 31.275
2024 0 1 2.000 20.850 31.275 31.275
2025 0 1 2.000 20.850 29.190 33.360
2026 0 1 2.000 22.935 31.275 33.360
2027 0 1 2.000 20.850 31.275 35.445
2028 0 1 2.000 20.850 33.360 0.000
2029 0 1 2.000 22.935 35.445 0.000
2030 0 1 2.000 22.935 33.360 2.085
2031 0 1 2.000 20.850 35.445 2.085
2032 0 1 2.000 20.850 33.360 4.170
2033 0 1 2.000 22.935 35.445 4.170
2034 0 1 2.000 22.935 33.360 6.255
2035 0 1 2.000 20.850 35.445 6.255
2036 0 1 2.000 20.850 33.360 8.340
2037 0 1 2.000 22.935 35.445 8.340
2038 0 1 2.000 22.935 33.360 10.425
2039 0 1 2.000 20.850 35.445 10.425
2040 0 1 2.000 20.850 33.360 12.510
2041 0 1 2.000 22.935 35.445 12.510
2042 0 1 2.000 22.935 33.360 14.595
2043 0 1 2.000 20.850 35.445 14.595
2044 0 1 2.000 20.850 33.360 16.680
2045 0 1 2.000 22.935 35.445 16.680
2046 0 1 2.000 22.935 33.360 18.765
2047 0 1 2.000 20.850 35.445 18.765
2048 0 1 2.000 20.850 33.360 20.850
2049 0 1 2.000 22.935 35.445 20.850
2050 0 1 2.000 22.935 33.360 22.935
2051 0 1 2.000 20.850 35.445 22.935
2052 0 1 2.000 20.850 33.360 25.020
2053 0 1 2.000 22.935 35.445 25.020
2054 0 1 2.000 22.935 33.360 27.105
2055 0 1 2.000 20.850 35.445 27.105
2056 0 1 2.000 20.850 33.360 29.190
2057 0 1 2.000 22.935 35.445 29.190
2058 0 1 2.000 22.935 33.360 31.275
2059 0 1 2.000 20.850 35.445 31.275
2060 0 1 2.000 20.850 33.360 33.360
2061 0 1 2.000 22.935 35.445 33.360
2062 0 1 2.000 22.935 33.360 35.445
2063 0 1 2.000 20.850 35.445 35.445
2064 0 1 2.000 20.850 33.360 37.530
2065 0 1 2.000 22.935 35.445 37.530
2066 0 1 2.000 20.850 35.445 39.615
2067 0 1 2.000 20.850 37.530 0.000
2068 0 1 2.000 22.935 39.615 0.000
2069 0 1 2.000 22.935 37.530 2.085
2070 0 1 2.000 20.850 39.615 2.085
2071 0 1 2.000 20.850 37.530 4.170
2072 0 1 2.000 22.935 39.615 4.170
2073 0 1 2.000 22.935 37.530 6.255
2074 0 1 2.000 20.850 39.615 6.255
2075 0 1 2.000 20.850 37.530 8.340
2076 0 1 2.000 22.935 39.615 8.340
2077 0 1 2.000 22.935 37.530 10.425
2078 0 1 2.000 20.850 39.615 10.425
2079 0 1 2.000 20.850 37.530 12.510
2080 0 1 2.000 22.935 39.615 12.510
2081 0 1 2.000 22.935 37.530 14.595
2082 0 1 2.000 20.850 39.615 14.595
2083 0 1 2.000 20.850 37.530 16.680
2084 0 1 2.000 22.935 39.615 16.680
2085 0 1 2.000 22.935 37.530 18.765
2086 0 1 2.000 20.850 39.615 18.765
2087 0 1 2.000 20.850 37.530 20.850
2088 0 1 2.000 22.935 39.615 20.850
2089 0 1 2.000 22.935 37.530 22.935
2090 0 1 2.000 20.850 39.615 22.935
2091 0 1 2.000 20.850 37.530 25.020
2092 0 1 2.000 22.935 39.615 25.020
2093 0 1 2.000 22.935 37.530 27.105
2094 0 1 2.000 20.850 39.615 27.105
2095 0 1 2.000 20.850 37.530 29.190
2096 0 1 2.000 22.935 39.615 29.190
2097 0 1 2.000 22.935 37.530 31.275
2098 0 1 2.000 20.850 39.615 31.275
2099 0 1 2.000 20.850 37.530 33.360
2100 0 1 2.000 22.935 39.615 33.360
2101 0 1 2.000 22.935 37.530 35.445
2102 0 1 2.000 20.850 39.615 35.445
2103 0 1 2.000 20.850 37.530 37.530
2104 0 1 2.000 22.935 39.615 37.530
2105 0 1 2.000 22.935 37.530 39.615
2106 0 1 2.000 20.850 39.615 39.615
2107 0 1 2.000 25.020 0.000 0.000
2108 0 1 2.000 27.105 2.085 0.000
2109 0 1 2.000 27.105 0.000 2.085
2110 0 1 2.000 25.020 2.085 2.085
2111 0 1 2.000 25.020 0.000 4.170
2112 0 1 2.000 27.105 2.085 4.170
2113 0 1 2.000 27.105 0.000 6.255
2114 0 1 2.000 25.020 2.085 6.255
2115 0 1 2.000 25.020 0.000 8.340
2116 0 1 2.000 27.105 2.085 8.340
2117 0 1 2.000 27.105 0.000 10.425
2118 0 1 2.000 25.020 2.085 10.425
2119 0 1 2.000 25.020 0.000 12.510
2120 0 1 2.000 27.105 2.085 12.510
2121 0 1 2.000 27.105 0.000 14.595
2122 0 1 2.000 25.020 2.085 14.595
2123 0 1 2.000 25.020 0.000 16.680
2124 0 1 2.000 27.105 2.085 16.680
2125 0 1 2.000 27.105 0.000 18.765
2126 0 1 2.000 25.020 2.085 18.765
2127 0 1 2.000 25.020 0.000 20.850
2128 0 1 2.000 27.105 2.085 20.850
2129 0 1 2.000 27.105 0.000 22.935
2130 0 1 2.000 25.020 2.085 22.935
2131 0 1 2.000 25.020 0.000 25.020
2132 0 1 2.000 27.105 2.085 25.020
2133 0 1 2.000 27.105 0.000 27.105
2134 0 1 2.000 25.020 2.085 27.105
2135 0 1 2.000 25.020 0.000 29.190
2136 0 1 2.000 27.105 2.085 29.190
2137 0 1 2.000 27.105 0.000 31.275
2138 0 1 2.000 25.020 2.085 31.275
2139 0 1 2.000 25.020 0.000 33.360
2140 0 1 2.000 27.105 2.085 33.360
2141 0 1 2.000 27.105 0.000 35.445
2142 0 1 2.000 25.020 2.085 35.445
2143 0 1 2.000 25.020 0.000 37.530
2144 0 1 2.000 27.105 2.085 37.530
2145 0 1 2.000 27.105 0.000 39.615
2146 0 1 2.000 25.020 2.085 39.615
2147 0 1 2.000 25.020 4.170 0.000
2148 0 1 2.000 27.105 6.255 0.000
2149 0 1 2.000 27.105 4.170 2.085
2150 0 1 2.000 25.020 6.255 2.085
2151 0 1 2.000 25.020 4.170 4.170
2152 0 1 2.000 27.105 6.255 4.170
2153 0 1 2.000 27.105 4.170 6.255
2154 0 1 2.000 25.020 6.255 6.255
2155 0 1 2.000 25.020 4.170 8.340
2156 0 1 2.000 27.105 6.255 8.340
2157 0 1 2.000 27.105 4.170 10.425
2158 0 1 2.000 25.020 6.255 10.425
2159 0 1 2.000 25.020 4.170 12.510
2160 0 1 2.000 27.105 6.255 12.510
2161 0 1 2.000 27.105 4.170 14.595
2162 0 1 2.000 25.020 6.255 14.595
2163 0 1 2.000 25.020 4.170 16.680
2164 0 1 2.000 27.105 6.255 16.680
2165 0 1 2.000 27.105 4.170 18.765
2166 0 1 2.000 25.020 6.255 18.765
2167 0 1 2.000 25.020 4.170 20.850
2168 0 1 2.000 27.105 6.255 20.850
2169 0 1 2.000 27.105 4.170 22.935
2170 0 1 2.000 25.020 6.255 22.935
2171 0 1 2.000 25.020 4.170 25.020
2172 0 1 2.000 27.105 6.255 25.020
2173 0 1 2.000 27.105 4.170 27.105
2174 0 1 2.000 25.020 6.255 27.105
2175 0 1 2.000 25.020 4.170 29.190
2176 0 1 2.000 27.105 6.255 29.190
2177 0 1 2.000 27.105 4.170 31.275
2178 0 1 2.000 25.020 6.255 31.275
2179 0 1 2.000 25.020 4.170 33.360
2180 0 1 2.000 27.105 6.255 33.360
2181 0 1 2.000 27.105 4.170 35.445
2182 0 1 2.000 25.020 6.255 35.445
2183 0 1 2.000 25.020 4.170 37.530
2184 0 1 2.000 27.105 6.255 37.530
2185 0 1 2.000 27.105 4.170 39.615
2186 0 1 2.000 25.020 6.255 39.615
2187 0 1 2.000 25.020 8.340 0.000
2188 0 1 2.000 27.105 10.425 0.000
2189 0 1 2.000 27.105 8.340 2.085
2190 0 1 2.000 25.020 10.425 2.085
2191 0 1 2.000 25.020 8.340 4.170
2192 0 1 2.000 27.105 10.425 4.170
2193 0 1 2.000 27.105 8.340 6.255
2194 0 1 2.000 25.020 10.425 6.255
2195 0 1 2.000 25.020 8.340 8.340
2196 0 1 2.000 27.105 10.425 8.340
2197 0 1 2.000 27.105 8.340 10.425
2198 0 1 2.000 25.020 10.425 10.425
2199 0 1 2.000 25.020 8.340 12.510
2200 0 1 2.000 27.105 10.425 12.510
2201 0 1 2.000 27.105 8.340 14.595
2202 0 1 2.000 25.020 10.425 14.595
2203 0 1 2.000 25.020 8.340 16.680
2204 0 1 2.000 27.105 10.425 16.680
2205 0 1 2.000 27.105 8.340 18.765
2206 0 1 2.000 25.020 10.425 18.765
2207 0 1 2.000 25.020 8.340 20.850
2208 0 1 2.000 27.105 10.425 20.850
2209 0 1 2.000 27.105 8.340 22.935
2210 0 1 2.000 25.020 10.425 22.935
2211 0 1 2.000 25.020 8.340 25.020
2212 0 1 2.000 27.105 10.425 25.020
2213 0 1 2.000 27.105 8.340 27.105
2214 0 1 2.000 25.020 10.425 27.105
2215 0 1 2.000 25.020 8.340 29.190
2216 0 1 2.000 27.105 10.425 29.190
2217 0 1 2.000 27.105 8.340 31.275
2218 0 1 2.000 25.020 10.425 31.275
2219 0 1 2.000 25.020 8.340 33.360
2220 0 1 2.000 27.105 10.425 33.360
2221 0 1 2.000 27.105 8.340 35.445
2222 0 1 2.000 25.020 10.425 35.445
2223 0 1 2.000 25.020 8.340 37.530
2224 0 1 2.000 25.020 12.510 0.000
2225 0 1 2.000 27.105 14.595 0.000
2226 0 1 2.000 27.105 12.510 2.085
2227 0 1 2.000 25.020 14.595 2.085
2228 0 1 2.000 25.020 12.510 4.170
2229 0 1 2.000 27.105 14.595 4.170
2230 0 1 2.000 27.105 12.510 6.255
2231 0 1 2.000 25.020 14.595 6.255
2232 0 1 2.000 25.020 12.510 8.340
2233 0 1 2.000 27.105 14.595 8.340
2234 0 1 2.000 27.105 12.510 10.425
2235 0 1 2.000 25.020 14.595 10.425
2236 0 1 2.000 25.020 12.510 12.510
2237 0 1 2.000 27.105 14.595 12.510
2238 0 1 2.000 27.105 12.510 14.595
2239 0 1 2.000 25.020 14.595 14.595
2240 0 1 2.000 25.020 12.510 16.680
2241 0 1 2.000 27.105 14.595 16.680
2242 0 1 2.000 27.105 12.510 18.765
2243 0 1 2.000 25.020 14.595 18.765
2244 0 1 2.000 25.020 12.510 20.850
2245 0 1 2.000 27.105 14.595 20.850
2246 0 1 2.000 27.105 12.510 22.935
2247 0 1 2.000 25.020 14.595 22.935
2248 0 1 2.000 25.020 12.510 25.020
2249 0 1 2.000 27.105 14.595 25.020
2250 0 1 2.000 27.105 12.510 27.105
2251 0 1 2.000 25.020 14.595 27.105
2252 0 1 2.000 25.020 12.510 29.190
2253 0 1 2.000 27.105 14.595 29.190
2254 0 1 2.000 27.105 12.510 31.275
2255 0 1 2.000 25.020 14.595 31.275
2256 0 1 2.000 25.020 12.510 33.360
2257 0 1 2.000 25.020 16.680 0.000
2258 0 1 2.000 27.105 18.765 0.000
2259 0 1 2.000 27.105 16.680 2.085
2260 0 1 2.000 25.020 18.765 2.085
2261 0 1 2.000 25.020 16.680 4.170
2262 0 1 2.000 27.105 18.765 4.170
2263 0 1 2.000 27.105 16.680 6.255
2264 0 1 2.000 25.020 18.765 6.255
2265 0 1 2.000 25.020 16.680 8.340
2266 0 1 2.000 27.105 18.765 8.340
2267 0 1 2.000 27.105 16.680 10.425
2268 0 1 2.000 25.020 18.765 10.425
2269 0 1 2.000 25.020 16.680 12.510
2270 0 1 2.000 27.105 18.765 12.510
2271 0 1 2.000 27.105 16.680 14.595
2272 0 1 2.000 25.020 18.765 14.595
2273 0 1 2.000 25.020 16.680 16.680
2274 0 1 2.000 27.105 18.765 16.680
2275 0 1 2.000 27.105 16.680 18.765
2276 0 1 2.000 25.020 18.765 18.765
2277 0 1 2.000 25.020 16.680 20.850
2278 0 1 2.000 27.105 18.765 20.850
2279 0 1 2.000 27.105 16.680 22.935
2280 0 1 2.000 25.020 18.765 22.935
2281 0 1 2.000 25.020 16.680 25.020
2282 0 1 2.000 27.105 18.765 25.020
2283 0 1 2.000 27.105 16.680 27.105
2284 0 1 2.000 25.020 18.765 27.105
2285 0 1 2.000 25.020 16.680 29.190
2286 0 1 2.000 25.020 20.850 0.000
2287 0 1 2.000 27.105 22.935 0.000
2288 0 1 2.000 27.105 20.850 2.085
2289 0 1 2.000 25.020 22.935 2.085
2290 0 1 2.000 25.020 20.850 4.170
2291 0 1 2.000 27.105 22.935 4.170
2292 0 1 2.000 27.105 20.850 6.255
2293 0 1 2.000 25.020 22.935 6.255
2294 0 1 2.000 25.020 20.850 8.340
2295 0 1 2.000 27.105 22.935 8.340
2296 0 1 2.000 27.105 20.850 10.425
2297 0 1 2.000 25.020 22.935 10.425
2298 0 1 2.000 25.020 20.850 12.510
2299 0 1 2.000 27.105 22.935 12.510
2300 0 1 2.000 27.105 20.850 14.595
2301 0 1 2.000 25.020 22.935 14.595
2302 0 1 2.000 25.020 20.850 16.680
2303 0 1 2.000 27.105 22.935 16.680
2304 0 1 2.000 27.105 20.850 18.765
2305 0 1 2.000 25.020 22.935 18.765
2306 0 1 2.000 25.020 20.850 20.850
2307 0 1 2.000 27.105 22.935 20.850
2308 0 1 2.000 27.105 20.850 22.935
2309 0 1 2.000 25.020 22.935 22.935
2310 0 1 2.000 25.020 20.850 25.020
2311 0 1 2.000 27.105 22.935 25.020
2312 0 1 2.000 25.020 22.935 27.105
2313 0 1 2.000 25.020 25.020 0.000
2314 0 1 2.000 27.105 27.105 0.000
2315 0 1 2.000 27.105 25.020 2.085
2316 0 1 2.000 25.020 27.105 2.085
2317 0 1 2.000 25.020 25.020 4.170
2318 0 1 2.000 27.105 27.105 4.170
2319 0 1 2.000 27.105 25.020 6.255
2320 0 1 2.000 25.020 27.105 6.255
2321 0 1 2.000 25.020 25.020 8.340
2322 0 1 2.000 27.105 27.105 8.340
2323 0 1 2.000 27.105 25.020 10.425
2324 0 1 2.000 25.020 27.105 10.425
2325 0 1 2.000 25.020 25.020 12.510
2326 0 1 2.000 27.105 27.105 12.510
2327 0 1 2.000 27.105 25.020 14.595
2328 0 1 2.000 25.020 27.105 14.595
2329 0 1 2.000 25.020 25.020 16.680
2330 0 1 2.000 27.105 27.105 16.680
2331 0 1 2.000 27.105 25.020 18.765
2332 0 1 2.000 25.020 27.105 18.765
2333 0 1 2.000 25.020 25.020 20.850
2334 0 1 2.000 27.105 27.105 20.850
2335 0 1 2.000 27.105 25.020 22.935
2336 0 1 2.000 25.020 27.105 22.935
2337 0 1 2.000 25.020 25.020 25.020
2338 0 1 2.000 27.105 27.105 25.020
2339 0 1 2.000 27.105 25.020 27.105
2340 0 1 2.000 25.020 27.105 27.105
2341 0 1 2.000 25.020 25.020 29.190
2342 0 1 2.000 27.105 27.105 29.190
2343 0 1 2.000 25.020 27.105 31.275
2344 0 1 2.000 25.020 29.190 0.000
2345 0 1 2.000 27.105 31.275 0.000
2346 0 1 2.000 27.105 29.190 2.085
2347 0 1 2.000 25.020 31.275 2.085
2348 0 1 2.000 25.020 29.190 4.170
2349 0 1 2.000 27.105 31.275 4.170
2350 0 1 2.000 27.105 29.190 6.255
2351 0 1 2.000 25.020 31.275 6.255
2352 0 1 2.000 25.020 29.190 8.340
2353 0 1 2.000 27.105 31.275 8.340
2354 0 1 2.000 27.105 29.190 10.425
2355 0 1 2.000 25.020 31.275 10.425
2356 0 1 2.000 25.020 29.190 12.510
2357 0 1 2.000 27.105 31.275 12.510
2358 0 1 2.000 27.105 29.190 14.595
2359 0 1 2.000 25.020 31.275 14.595
2360 0 1 2.000 25.020 29.190 16.680
2361 0 1 2.000 27.105 31.275 16.680
2362 0 1 2.000 27.105 29.190 18.765
2363 0 1 2.000 25.020 31.275 18.765
2364 0 1 2.000 25.020 29.190 20.850
2365 0 1 2.000 27.105 31.275 20.850
2366 0 1 2.000 27.105 29.190 22.935
2367 0 1 2.000 25.020 31.275 22.935
2368 0 1 2.000 25.020 29.190 25.020
2369 0 1 2.000 27.105 31.275 25.020
2370 0 1 2.000 27.105 29.190 27.105
2371 0 1 2.000 25.020 31.275 27.105
2372 0 1 2.000 25.020 29.190 29.190
2373 0 1 2.000 27.105 31.275 29.190
2374 0 1 2.000 27.105 29.190 31.275
2375 0 1 2.000 25.020 31.275 31.275
2376 0 1 2.000 25.020 29.190 33.360
2377 0 1 2.000 27.105 31.275 33.360
2378 0 1 2.000 25.020 31.275 35.445
2379 0 1 2.000 25.020 33.360 0.000
2380 0 1 2.000 27.105 35.445 0.000
2381 0 1 2.000 27.105 33.360 2.085
2382 0 1 2.000 25.020 35.445 2.085
2383 0 1 2.000 25.020 33.360 4.170
2384 0 1 2.000 27.105 35.445 4.170
2385 0 1 2.000 27.105 33.360 6.255
2386 0 1 2.000 25.020 35.445 6.255
2387 0 1 2.000 25.020 33.360 8.340
2388 0 1 2.000 27.105 35.445 8.340
2389 0 1 2.000 27.105 33.360 10.425
2390 0 1 2.000 25.020 35.445 10.425
2391 0 1 2.000 25.020 33.360 12.510
2392 0 1 2.000 27.105 35.445 12.510
2393 0 1 2.000 27.105 33.360 14.595
2394 0 1 2.000 25.020 35.445 14.595
2395 0 1 2.000 25.020 33.360 16.680
2396 0 1 2.000 27.105 35.445 16.680
2397 0 1 2.000 27.105 33.360 18.765
2398 0 1 2.000 25.020 35.445 18.765
2399 0 1 2.000 25.020 33.360 20.850
2400 0 1 2.000 27.105 35.445 20.850
2401 0 1 2.000 27.105 33.360 22.935
2402 0 1 2.000 25.020 35.445 22.935
2403 0 1 2.000 25.020 33.360 25.020
2404 0 1 2.000 27.105 35.445 25.020
2405 0 1 2.000 27.105 33.360 27.105
2406 0 1 2.000 25.020 35.445 27.105
2407 0 1 2.000 25.020 33.360 29.190
2408 0 1 2.000 27.105 35.445 29.190
2409 0 1 2.000 27.105 33.360 31.275
2410 0 1 2.000 25.020 35.445 31.275
2411 0 1 2.000 25.020 33.360 33.360
2412 0 1 2.000 27.105 35.445 33.360
2413 0 1 2.000 27.105 33.360 35.445
2414 0 1 2.000 25.020 35.445 35.445
2415 0 1 2.000 25.020 33.360 37.530
2416 0 1 2.000 27.105 35.445 37.530
2417 0 1 2.000 25.020 35.445 39.615
2418 0 1 2.000 25.020 37.530 0.000
2419 0 1 2.000 27.105 39.615 0.000
2420 0 1 2.000 27.105 37.530 2.085
2421 0 1 2.000 25.020 39.615 2.085
2422 0 1 2.000 25.020 37.530 4.170
2423 0 1 2.000 27.105 39.615 4.170
2424 0 1 2.000 27.105 37.530 6.255
2425 0 1 2.000 25.020 39.615 6.255
2426 0 1 2.000 25.020 37.530 8.340
2427 0 1 2.000 27.105 39.615 8.340
2428 0 1 2.000 27.105 37.530 10.425
2429 0 1 2.000 25.020 39.615 10.425
2430 0 1 2.000 25.020 37.530 12.510
2431 0 1 2.000 27.105 39.615 12.510
2432 0 1 2.000 27.105 37.530 14.595
2433 0 1 2.000 25.020 39.615 14.595
2434 0 1 2.000 25.020 37.530 16.680
2435 0 1 2.000 27.105 39.615 16.680
2436 0 1 2.000 27.105 37.530 18.765
2437 0 1 2.000 25.020 39.615 18.765
2438 0 1 2.000 25.020 37.530 20.850
2439 0 1 2.000 27.105 39.615 20.850
2440 0 1 2.000 27.105 37.530 22.935
2441 0 1 2.000 25.020 39.615 22.935
2442 0 1 2.000 25.020 37.530 25.020
2443 0 1 2.000 27.105 39.615 25.020
2444 0 1 2.000 27.105 37.530 27.105
2445 0 1 2.000 25.020 39.615 27.105
2446 0 1 2.000 25.020 37.530 29.190
2447 0 1 2.000 27.105 39.615 29.190
2448 0 1 2.000 27.105 37.530 31.275
2449 0 1 2.000 25.020 39.615 31.275
2450 0 1 2.000 25.020 37.530 33.360
2451 0 1 2.000 27.105 39.615 33.360
2452 0 1 2.000 27.105 37.530 35.445
2453 0 1 2.000 25.020 39.615 35.445
2454 0 1 2.000 25.020 37.530 37.530
2455 0 1 2.000 27.105 39.615 37.530
2456 0 1 2.000 27.105 37.530 39.615
2457 0 1 2.000 25.020 39.615 39.615
2458 0 1 2.000 29.190 0.000 0.000
2459 0 1 2.000 31.275 2.085 0.000
2460 0 1 2.000 31.275 0.000 2.085
2461 0 1 2.000 29.190 2.085 2.085
2462 0 1 2.000 29.190 0.000 4.170
2463 0 1 2.000 31.275 2.085 4.170
2464 0 1 2.000 31.275 0.000 6.255
2465 0 1 2.000 29.190 2.085 6.255
2466 0 1 2.000 29.190 0.000 8.340
2467 0 1 2.000 31.275 2.085 8.340
2468 0 1 2.000 31.275 0.000 10.425
2469 0 1 2.000 29.190 2.085 10.425
2470 0 1 2.000 29.190 0.000 12.510
2471 0 1 2.000 31.275 2.085 12.510
2472 0 1 2.000 31.275 0.000 14.595
2473 0 1 2.000 29.190 2.085 14.595
2474 0 1 2.000 29.190 0.000 16.680
2475 0 1 2.000 31.275 2.085 16.680
2476 0 1 2.000 31.275 0.000 18.765
2477 0 1 2.000 29.190 2.085 18.765
2478 0 1 2.000 29.190 0.000 20.850
2479 0 1 2.000 31.275 2.085 20.850
2480 0 1 2.000 31.275 0.000 22.935
2481 0 1 2.000 29.190 2.085 22.935
2482 0 1 2.000 29.190 0.000 25.020
2483 0 1 2.000 31.275 2.085 25.020
2484 0 1 2.000 31.275 0.000 27.105
2485 0 1 2.000 29.190 2.085 27.105
2486 0 1 2.000 29.190 0.000 29.190
2487 0 1 2.000 31.275 2.085 29.190
2488 0 1 2.000 31.275 0.000 31.275
2489 0 1 2.000 29.190 2.085 31.275
2490 0 1 2.000 29.190 0.000 33.360
2491 0 1 2.000 31.275 2.085 33.360
2492 0 1 2.000 31.275 0.000 35.445
2493 0 1 2.000 29.190 2.085 35.445
2494 0 1 2.000 29.190 0.000 37.530
2495 0 1 2.000 31.275 2.085 37.530
2496 0 1 2.000 31.275 0.000 39.615
2497 0 1 2.000 29.190 2.085 39.615
2498 0 1 2.000 29.190 4.170 0.000
2499 0 1 2.000 31.275 6.255 0.000
2500 0 1 2.000 31.275 4.170 2.085
2501 0 1 2.000 29.190 6.255 2.085
2502 0 1 2.000 29.190 4.170 4.170
2503 0 1 2.000 31.275 6.255 4.170
2504 0 1 2.000 31.275 4.170 6.255
2505 0 1 2.000 29.190 6.255 6.255
2506 0 1 2.000 29.190 4.170 8.340
2507 0 1 2.000 31.275 6.255 8.340
2508 0 1 2.000 31.275 4.170 10.425
2509 0 1 2.000 29.190 6.255 10.425
2510 0 1 2.000 29.190 4.170 12.510
2511 0 1 2.000 31.275 6.255 12.510
2512 0 1 2.000 31.275 4.170 14.595
2513 0 1 2.000 29.190 6.255 14.595
2514 0 1 2.000 29.190 4.170 16.680
2515 0 1 2.000 31.275 6.255 16.680
2516 0 1 2.000 31.275 4.170 18.765
2517 0 1 2.000 29.190 6.255 18.765
2518 0 1 2.000 29.190 4.170 20.850
2519 0 1 2.000 31.275 6.255 20.850
2520 0 1 2.000 31.275 4.170 22.935
2521 0 1 2.000 29.190 6.255 22.935
2522 0 1 2.000 29.190 4.170 25.020
2523 0 1 2.000 31.275 6.255 25.020
2524 0 1 2.000 31.275 4.170 27.105
2525 0 1 2.000 29.190 6.255 27.105
2526 0 1 2.000 29.190 4.170 29.190
2527 0 1 2.000 31.275 6.255 29.190
2528 0 1 2.000 31.275 4.170 31.275
2529 0 1 2.000 29.190 6.255 31.275
2530 0 1 2.000 29.190 4.170 33.360
2531 0 1 2.000 31.275 6.255 33.360
2532 0 1 2.000 31.275 4.170 35.445
2533 0 1 2.000 29.190 6.255 35.445
2534 0 1 2.000 29.190 4.170 37.530
2535 0 1 2.000 31.275 6.255 37.530
2536 0 1 2.000 31.275 4.170 39.615
2537 0 1 2.000 29.190 6.255 39.615
2538 0 1 2.000 29.190 8.340 0.000
2539 0 1 2.000 31.275 10.425 0.000
2540 0 1 2.000 31.275 8.340 2.085
2541 0 1 2.000 29.190 10.425 2.085
2542 0 1 2.000 29.190 8.340 4.170
2543 0 1 2.000 31.275 10.425 4.170
2544 0 1 2.000 31.275 8.340 6.255
2545 0 1 2.000 29.190 10.425 6.255
2546 0 1 2.000 29.190 8.340 8.340
2547 0 1 2.000 31.275 10.425 8.340
2548 0 1 2.000 31.275 8.340 10.425
2549 0 1 2.000 29.190 10.425 10.425
2550 0 1 2.000 29.190 8.340 12.510
2551 0 1 2.000 31.275 10.425 12.510
2552 0 1 2.000 31.275 8.340 14.595
2553 0 1 2.000 29.190 10.425 14.595
2554 0 1 2.000 29.190 8.340 16.680
2555 0 1 2.000 31.275 10.425 16.680
2556 0 1 2.000 31.275 8.340 18.765
2557 0 1 2.000 29.190 10.425 18.765
2558 0 1 2.000 29.190 8.340 20.850
2559 0 1 2.000 31.275 10.425 20.850
2560 0 1 2.000 31.275 8.340 22.935
2561 0 1 2.000 29.190 10.425 22.935
2562 0 1 2.000 29.190 8.340 25.020
2563 0 1 2.000 31.275 10.425 25.020
2564 0 1 2.000 31.275 8.340 27.105
2565 0 1 2.000 29.190 10.425 27.105
2566 0 1 2.000 29.190 8.340 29.190
2567 0 1 2.000 31.275 10.425 29.190
2568 0 1 2.000 31.275 8.340 31.275
2569 0 1 2.000 29.190 10.425 31.275
2570 0 1 2.000 29.190 8.340 33.360
2571 0 1 2.000 31.275 10.425 33.360
2572 0 1 2.000 31.275 8.340 35.445
2573 0 1 2.000 29.190 10.425 35.445
2574 0 1 2.000 29.190 8.340 37.530
2575 0 1 2.000 29.190 12.510 0.000
2576 0 1 2.000 31.275 14.595 0.000
2577 0 1 2.000 31.275 12.510 2.085
2578 0 1 2.000 29.190 14.595 2.085
2579 0 1 2.000 29.190 12.510 4.170
2580 0 1 2.000 31.275 14.595 4.170
2581 0 1 2.000 31.275 12.510 6.255
2582 0 1 2.000 29.190 14.595 6.255
2583 0 1 2.000 29.190 12.510 8.340
2584 0 1 2.000 31.275 14.595 8.340
2585 0 1 2.000 31.275 12.510 10.425
2586 0 1 2.000 29.190 14.595 10.425
2587 0 1 2.000 29.190 12.510 12.510
2588 0 1 2.000 31.275 14.595 12.510
2589 0 1 2.000 31.275 12.510 14.595
2590 0 1 2.000 29.190 14.595 14.595
2591 0 1 2.000 29.190 12.510 16.680
2592 0 1 2.000 31.275 14.595 16.680
2593 0 1 2.000 31.275 12.510 18.765
2594 0 1 2.000 29.190 14.595 18.765
2595 0 1 2.000 29.190 12.510 20.850
2596 0 1 2.000 31.275 14.595 20.850
2597 0 1 2.000 31.275 12.510 22.935
2598 0 1 2.000 29.190 14.595 22.935
2599 0 1 2.000 29.190 12.510 25.020
2600 0 1 2.000 31.275 14.595 25.020
2601 0 1 2.000 31.275 12.510 27.105
2602 0 1 2.000 29.190 14.595 27.105
2603 0 1 2.000 29.190 12.510 29.190
2604 0 1 2.000 31.275 14.595 29.190
2605 0 1 2.000 31.275 12.510 31.275
2606 0 1 2.000 29.190 14.595 31.275
2607 0 1 2.000 29.190 12.510 33.360
2608 0 1 2.000 29.190 16.680 0.000
2609 0 1 2.000 31.275 18.765 0.000
2610 0 1 2.000 31.275 16.680 2.085
2611 0 1 2.000 29.190 18.765 2.085
2612 0 1 2.000 29.190 16.680 4.170
2613 0 1 2.000 31.275 18.765 4.170
2614 0 1 2.000 31.275 16.680 6.255
2615 0 1 2.000 29.190 18.765 6.255
2616 0 1 2.000 29.190 16.680 8.340
2617 0 1 2.000 31.275 18.765 8.340
2618 0 1 2.000 31.275 16.680 10.425
2619 0 1 2.000 29.190 18.765 10.425
2620 0 1 2.000 29.190 16.680 12.510
2621 0 1 2.000 31.275 18.765 12.510
2622 0 1 2.000 31.275 16.680 14.595
2623 0 1 2.000 29.190 18.765 14.595
2624 0 1 2.000 29.190 16.680 16.680
2625 0 1 2.000 31.275 18.765 16.680
2626 0 1 2.000 31.275 16.680 18.765
2627 0 1 2.000 29.190 18.765 18.765
2628 0 1 2.000 29.190 16.680 20.850
2629 0 1 2.000 31.275 18.765 20.850
2630 0 1 2.000 31.275 16.680 22.935
2631 0 1 2.000 29.190 18.765 22.935
2632 0 1 2.000 29.190 16.680 25.020
2633 0 1 2.000 31.275 18.765 25.020
2634 0 1 2.000 31.275 16.680 27.105
2635 0 1 2.000 29.190 18.765 27.105
2636 0 1 2.000 29.190 16.680 29.190
2637 0 1 2.000 29.190 20.850 0.000
2638 0 1 2.000 31.275 22.935 0.000
2639 0 1 2.000 31.275 20.850 2.085
2640 0 1 2.000 29.190 22.935 2.085
2641 0 1 2.000 29.190 20.850 4.170
2642 0 1 2.000 31.275 22.935 4.170
2643 0 1 2.000 31.275 20.850 6.255
2644 0 1 2.000 29.190 22.935 6.255
2645 0 1 2.000 29.190 20.850 8.340
2646 0 1 2.000 31.275 22.935 8.340
2647 0 1 2.000 31.275 20.850 10.425
2648 0 1 2.000 29.190 22.935 10.425
2649 0 1 2.000 29.190 20.850 12.510
2650 0 1 2.000 31.275 22.935 12.510
2651 0 1 2.000 31.275 20.850 14.595
2652 0 1 2.000 29.190 22.935 14.595
2653 0 1 2.000 29.190 20.850 16.680
2654 0 1 2.000 31.275 22.935 16.680
2655 0 1 2.000 31.275 20.850 18.765
2656 0 1 2.000 29.190 22.935 18.765
2657 0 1 2.000 29.190 20.850 20.850
2658 0 1 2.000 31.275 22.935 20.850
2659 0 1 2.000 31.275 20.850 22.935
2660 0 1 2.000 29.190 22.935 22.935
2661 0 1 2.000 29.190 20.850 25.020
2662 0 1 2.000 31.275 22.935 25.020
2663 0 1 2.000 29.190 22.935 27.105
2664 0 1 2.000 29.190 25.020 0.000
2665 0 1 2.000 31.275 27.105 0.000
2666 0 1 2.000 31.275 25.020 2.085
2667 0 1 2.000 29.190 27.105 2.085
2668 0 1 2.000 29.190 25.020 4.170
2669 0 1 2.000 31.275 27.105 4.170
2670 0 1 2.000 31.275 25.020 6.255
2671 0 1 2.000 29.190 27.105 6.255
2672 0 1 2.000 29.190 25.020 8.340
2673 0 1 2.000 31.275 27.105 8.340
2674 0 1 2.000 31.275 25.020 10.425
2675 0 1 2.000 29.190 27.105 10.425
2676 0 1 2.000 29.190 25.020 12.510
2677 0 1 2.000 31.275 27.105 12.510
2678 0 1 2.000 31.275 25.020 14.595
2679 0 1 2.000 29.190 27.105 14.595
2680 0 1 2.000 29.190 25.020 16.680
2681 0 1 2.000 31.275 27.105 16.680
2682 0 1 2.000 31.275 25.020 18.765
2683 0 1 2.000 29.190 27.105 18.765
2684 0 1 2.000 29.190 25.020 20.850
2685 0 1 2.000 31.275 27.105 20.850
2686 0 1 2.000 31.275 25.020 22.935
2687 0 1 2.000 29.190 27.105 22.935
2688 0 1 2.000 29.190 25.020 25.020
2689 0 1 2.000 31.275 27.105 25.020
2690 0 1 2.000 31.275 25.020 27.105
2691 0 1 2.000 29.190 27.105 27.105
2692 0 1 2.000 29.190 25.020 29.190
2693 0 1 2.000 31.275 27.105 29.190
2694 0 1 2.000 29.190 27.105 31.275
2695 0 1 2.000 29.190 29.190 0.000
2696 0 1 2.000 31.275 31.275 0.000
2697 0 1 2.000 31.275 29.190 2.085
2698 0 1 2.000 29.190 31.275 2.085
2699 0 1 2.000 29.190 29.190 4.170
2700 0 1 2.000 31.275 31.275 4.170
2701 0 1 2.000 31.275 29.190 6.255
2702 0 1 2.000 29.190 31.275 6.255
2703 0 1 2.000 29.190 29.190 8.340
2704 0 1 2.000 31.275 31.275 8.340
2705 0 1 2.000 31.275 29.190 10.425
2706 0 1 2.000 29.190 31.275 10.425
2707 0 1 2.000 29.190 29.190 12.510
2708 0 1 2.000 31.275 31.275 12.510
2709 0 1 2.000 31.275 29.190 14.595
2710 0 1 2.000 29.190 31.275 14.595
2711 0 1 2.000 29.190 29.190 16.680
2712 0 1 2.000 31.275 31.275 16.680
2713 0 1 2.000 31.275 29.190 18.765
2714 0 1 2.000 29.190 31.275 18.765
2715 0 1 2.000 29.190 29.190 20.850
2716 0 1 2.000 31.275 31.275 20.850
2717 0 1 2.000 31.275 29.190 22.935
2718 0 1 2.000 29.190 31.275 22.935
2719 0 1 2.000 29.190 29.190 25.020
2720 0 1 2.000 31.275 31.275 25.020
2721 0 1 2.000 31.275 29.190 27.105
2722 0 1 2.000 29.190 31.275 27.105
2723 0 1 2.000 29.190 29.190 29.190
2724 0 1 2.000 31.275 31.275 29.190
2725 0 1 2.000 31.275 29.190 31.275
2726 0 1 2.000 29.190 31.275 31.275
2727 0 1 2.000 29.190 29.190 33.360
2728 0 1 2.000 31.275 31.275 33.360
2729 0 1 2.000 29.190 31.275 35.445
2730 0 1 2.000 29.190 33.360 0.000
2731 0 1 2.000 31.275 35.445 0.000
2732 0 1 2.000 31.275 33.360 2.085
2733 0 1 2.000 29.190 35.445 2.085
2734 0 1 2.000 29.190 33.360 4.170
2735 0 1 2.000 31.275 35.445 4.170
2736 0 1 2.000 31.275 33.360 6.255
2737 0 1 2.000 29.190 35.445 6.255
2738 0 1 2.000 29.190 33.360 8.340
2739 0 1 2.000 31.275 35.445 8.340
2740 0 1 2.000 31.275 33.360 10.425
2741 0 1 2.000 29.190 35.445 10.425
2742 0 1 2.000 29.190 33.360 12.510
2743 0 1 2.000 31.275 35.445 12.510
2744 0 1 2.000 31.275 33.360 14.595
2745 0 1 2.000 29.190 35.445 14.595
2746 0 1 2.000 29.190 33.360 16.680
2747 0 1 2.000 31.275 35.445 16.680
2748 0 1 2.000 31.275 33.360 18.765
2749 0 1 2.000 29.190 35.445 18.765
2750 0 1 2.000 29.190 33.360 20.850
2751 0 1 2.000 31.275 35.445 20.850
2752 0 1 2.000 31.275 33.360 22.935
2753 0 1 2.000 29.190 35.445 22.935
2754 0 1 2.000 29.190 33.360 25.020
2755 0 1 2.000 31.275 35.445 25.020
2756 0 1 2.000 31.275 33.360 27.105
2757 0 1 2.000 29.190 35.445 27.105
2758 0 1 2.000 29.190 33.360 29.190
2759 0 1 2.000 31.275 35.445 29.190
2760 0 1 2.000 31.275 33.360 31.275
2761 0 1 2.000 29.190 35.445 31.275
2762 0 1 2.000 29.190 33.360 33.360
2763 0 1 2.000 31.275 35.445 33.360
2764 0 1 2.000 31.275 33.360 35.445
2765 0 1 2.000 29.190 35.445 35.445
2766 0 1 2.000 29.190 33.360 37.530
2767 0 1 2.000 31.275 35.445 37.530
2768 0 1 2.000 29.190 35.445 39.615
2769 0 1 2.000 29.190 37.530 0.000
2770 0 1 2.000 31.275 39.615 0.000
2771 0 1 2.000 31.275 37.530 2.085
2772 0 1 2.000 29.190 39.615 2.085
2773 0 1 2.000 29.190 37.530 4.170
2774 0 1 2.000 31.275 39.615 4.170
2775 0 1 2.000 31.275 37.530 6.255
2776 0 1 2.000 29.190 39.615 6.255
2777 0 1 2.000 29.190 37.530 8.340
2778 0 1 2.000 31.275 39.615 8.340
2779 0 1 2.000 31.275 37.530 10.425
2780 0 1 2.000 29.190 39.615 10.425
2781 0 1 2.000 29.190 37.530 12.510
2782 0 1 2.000 31.275 39.615 12.510
2783 0 1 2.000 31.275 37.530 14.595
2784 0 1 2.000 29.190 39.615 14.595
2785 0 1 2.000 29.190 37.530 16.680
2786 0 1 2.000 31.275 39.615 16.680
2787 0 1 2.000 31.275 37.530 18.765
2788 0 1 2.000 29.190 39.615 18.765
2789 0 1 2.000 29.190 37.530 20.850
2790 0 1 2.000 31.275 39.615 20.850
2791 0 1 2.000 31.275 37.530 22.935
2792 0 1 2.000 29.190 39.615 22.935
2793 0 1 2.000 29.190 37.530 25.020
2794 0 1 2.000 31.275 39.615 25.020
2795 0 1 2.000 31.275 37.530 27.105
2796 0 1 2.000 29.190 39.615 27.105
2797 0 1 2.000 29.190 37.530 29.190
2798 0 1 2.000 31.275 39.615 29.190
2799 0 1 2.000 31.275 37.530 31.275
2800 0 1 2.000 29.190 39.615 31.275
2801 0 1 2.000 29.190 37.530 33.360
2802 0 1 2.000 31.275 39.615 33.360
2803 0 1 2.000 31.275 37.530 35.445
2804 0 1 2.000 29.190 39.615 35.445
2805 0 1 2.000 29.190 37.530 37.530
2806 0 1 2.000 31.275 39.615 37.530
2807 0 1 2.000 31.275 37.530 39.615
2808 0 1 2.000 29.190 39.615 39.615
2809 0 1 2.000 33.360 0.000 0.000
2810 0 1 2.000 35.445 2.085 0.000
2811 0 1 2.000 35.445 0.000 2.085
2812 0 1 2.000 33.360 2.085 2.085
2813 0 1 2.000 33.360 0.000 4.170
2814 0 1 2.000 35.445 2.085 4.170
2815 0 1 2.000 35.445 0.000 6.255
2816 0 1 2.000 33.360 2.085 6.255
2817 0 1 2.000 33.360 0.000 8.340
2818 0 1 2.000 35.445 2.085 8.340
2819 0 1 2.000 35.445 0.000 10.425
2820 0 1 2.000 33.360 2.085 10.425
2821 0 1 2.000 33.360 0.000 12.510
2822 0 1 2.000 35.445 2.085 12.510
2823 0 1 2.000 35.445 0.000 14.595
2824 0 1 2.000 33.360 2.085 14.595
2825 0 1 2.000 33.360 0.000 16.680
2826 0 1 2.000 35.445 2.085 16.680
2827 0 1 2.000 35.445 0.000 18.765
2828 0 1 2.000 33.360 2.085 18.765
2829 0 1 2.000 33.360 0.000 20.850
2830 0 1 2.000 35.445 2.085 20.850
2831 0 1 2.000 35.445 0.000 22.935
2832 0 1 2.000 33.360 2.085 22.935
2833 0 1 2.000 33.360 0.000 25.020
2834 0 1 2.000 35.445 2.085 25.020
2835 0 1 2.000 35.445 0.000 27.105
2836 0 1 2.000 33.360 2.085 27.105
2837 0 1 2.000 33.360 0.000 29.190
2838 0 1 2.000 35.445 2.085 29.190
2839 0 1 2.000 35.445 0.000 31.275
2840 0 1 2.000 33.360 2.085 31.275
2841 0 1 2.000 33.360 0.000 33.360
2842 0 1 2.000 35.445 2.085 33.360
2843 0 1 2.000 35.445 0.000 35.445
2844 0 1 2.000 33.360 2.085 35.445
2845 0 1 2.000 33.360 0.000 37.530
2846 0 1 2.000 35.445 2.085 37.530
2847 0 1 2.000 35.445 0.000 39.615
2848 0 1 2.000 33.360 2.085 39.615
2849 0 1 2.000 33.360 4.170 0.000
2850 0 1 2.000 35.445 6.255 0.000
2851 0 1 2.000 35.445 4.170 2.085
2852 0 1 2.000 33.360 6.255 2.085
2853 0 1 2.000 33.360 4.170 4.170
2854 0 1 2.000 35.445 6.255 4.170
2855 0 1 2.000 35.445 4.170 6.255
2856 0 1 2.000 33.360 6.255 6.255
2857 0 1 2.000 33.360 4.170 8.340
2858 0 1 2.000 35.445 6.255 8.340
2859 0 1 2.000 35.445 4.170 10.425
2860 0 1 2.000 33.360 6.255 10.425
2861 0 1 2.000 33.360 4.170 12.510
2862 0 1 2.000 35.445 6.255 12.510
2863 0 1 2.000 35.445 4.170 14.595
2864 0 1 2.000 33.360 6.255 14.595
2865 0 1 2.000 33.360 4.170 16.680
2866 0 1 2.000 35.445 6.255 16.680
2867 0 1 2.000 35.445 4.170 18.765
2868 0 1 2.000 33.360 6.255 18.765
2869 0 1 2.000 33.360 4.170 20.850
2870 0 1 2.000 35.445 6.255 20.850
2871 0 1 2.000 35.445 4.170 22.935
2872 0 1 2.000 33.360 6.255 22.935
2873 0 1 2.000 33.360 4.170 25.020
2874 0 1 2.000 35.445 6.255 25.020
2875 0 1 2.000 35.445 4.170 27.105
2876 0 1 2.000 33.360 6.255 27.105
2877 0 1 2.000 33.360 4.170 29.190
2878 0 1 2.000 35.445 6.255 29.190
2879 0 1 2.000 35.445 4.170 31.275
2880 0 1 2.000 33.360 6.255 31.275
2881 0 1 2.000 33.360 4.170 33.360
2882 0 1 2.000 35.445 6.255 33.360
2883 0 1 2.000 35.445 4.170 35.445
2884 0 1 2.000 33.360 6.255 35.445
2885 0 1 2.000 33.360 4.170 37.530
2886 0 1 2.000 35.445 6.255 37.530
2887 0 1 2.000 35.445 4.170 39.615
2888 0 1 2.000 33.360 6.255 39.615
2889 0 1 2.000 33.360 8.340 0.000
2890 0 1 2.000 35.445 10.425 0.000
2891 0 1 2.000 35.445 8.340 2.085
2892 0 1 2.000 33.360 10.425 2.085
2893 0 1 2.000 33.360 8.340 4.170
2894 0 1 2.000 35.445 10.425 4.170
2895 0 1 2.000 35.445 8.340 6.255
2896 0 1 2.000 33.360 10.425 6.255
2897 0 1 2.000 33.360 8.340 8.340
2898 0 1 2.000 35.445 10.425 8.340
2899 0 1 2.000 35.445 8.340 10.425
2900 0 1 2.000 33.360 10.425 10.425
2901 0 1 2.000 33.360 8.340 12.510
2902 0 1 2.000 35.445 10.425 12.510
2903 0 1 2.000 35.445 8.340 14.595
2904 0 1 2.000 33.360 10.425 14.595
2905 0 1 2.000 33.360 8.340 16.680
2906 0 1 2.000 35.445 10.425 16.680
2907 0 1 2.000 35.445 8.340 18.765
2908 0 1 2.000 33.360 10.425 18.765
2909 0 1 2.000 33.360 8.340 20.850
2910 0 1 2.000 35.445 10.425 20.850
2911 0 1 2.000 35.445 8.340 22.935
2912 0 1 2.000 33.360 10.425 22.935
2913 0 1 2.000 33.360 8.340 25.020
2914 0 1 2.000 35.445 10.425 25.020
2915 0 1 2.000 35.445 8.340 27.105
2916 0 1 2.000 33.360 10.425 27.105
2917 0 1 2.000 33.360 8.340 29.190
2918 0 1 2.000 35.445 10.425 29.190
2919 0 1 2.000 35.445 8.340 31.275
2920 0 1 2.000 33.360 10.425 31.275
2921 0 1 2.000 33.360 8.340 33.360
2922 0 1 2.000 35.445 10.425 33.360
2923 0 1 2.000 35.445 8.340 35.445
2924 0 1 2.000 33.360 10.425 35.445
2925 0 1 2.000 33.360 8.340 37.530
2926 0 1 2.000 33.360 12.510 0.000
2927 0 1 2.000 35.445 14.595 0.000
2928 0 1 2.000 35.445 12.510 2.085
2929 0 1 2.000 33.360 14.595 2.085
2930 0 1 2.000 33.360 12.510 4.170
2931 0 1 2.000 35.445 14.595 4.170
2932 0 1 2.000 35.445 12.510 6.255
2933 0 1 2.000 33.360 14.595 6.255
2934 0 1 2.000 33.360 12.510 8.340
2935 0 1 2.000 35.445 14.595 8.340
2936 0 1 2.000 35.445 12.510 10.425
2937 0 1 2.000 33.360 14.595 10.425
2938 0 1 2.000 33.360 12.510 12.510
2939 0 1 2.000 35.445 14.595 12.510
2940 0 1 2.000 35.445 12.510 14.595
2941 0 1 2.000 33.360 14.595 14.595
2942 0 1 2.000 33.360 12.510 16.680
2943 0 1 2.000 35.445 14.595 16.680
2944 0 1 2.000 35.445 12.510 18.765
2945 0 1 2.000 33.360 14.595 18.765
2946 0 1 2.000 33.360 12.510 20.850
2947 0 1 2.000 35.445 14.595 20.850
2948 0 1 2.000 35.445 12.510 22.935
2949 0 1 2.000 33.360 14.595 22.935
2950 0 1 2.000 33.360 12.510 25.020
2951 0 1 2.000 35.445 14.595 25.020
2952 0 1 2.000 35.445 12.510 27.105
2953 0 1 2.000 33.360 14.595 27.105
2954 0 1 2.000 33.360 12.510 29.190
2955 0 1 2.000 35.445 14.595 29.190
2956 0 1 2.000 35.445 12.510 31.275
2957 0 1 2.000 33.360 14.595 31.275
2958 0 1 2.000 33.360 12.510 33.360
2959 0 1 2.000 33.360 16.680 0.000
2960 0 1 2.000 35.445 18.765 0.000
2961 0 1 2.000 35.445 16.680 2.085
2962 0 1 2.000 33.360 18.765 2.085
2963 0 1 2.000 33.360 16.680 4.170
2964 0 1 2.000 35.445 18.765 4.170
2965 0 1 2.000 35.445 16.680 6.255
2966 0 1 2.000 33.360 18.765 6.255
2967 0 1 2.000 33.360 16.680 8.340
2968 0 1 2.000 35.445 18.765 8.340
2969 0 1 2.000 35.445 16.680 10.425
2970 0 1 2.000 33.360 18.765 10.425
2971 0 1 2.000 33.360 16.680 12.510
2972 0 1 2.000 35.445 18.765 12.510
2973 0 1 2.000 35.445 16.680 14.595
2974 0 1 2.000 33.360 18.765 14.595
2975 0 1 2.000 33.360 16.680 16.680
2976 0 1 2.000 35.445 18.765 16.680
2977 0 1 2.000 35.445 16.680 18.765
2978 0 1 2.000 33.360 18.765 18.765
2979 0 1 2.000 33.360 16.680 20.850
2980 0 1 2.000 35.445 18.765 20.850
2981 0 1 2.000 35.445 16.680 22.935
2982 0 1 2.000 33.360 18.765 22.935
2983 0 1 2.000 33.360 16.680 25.020
2984 0 1 2.000 35.445 18.765 25.020
2985 0 1 2.000 35.445 16.680 27.105
2986 0 1 2.000 33.360 18.765 27.105
2987 0 1 2.000 33.360 16.680 29.190
2988 0 1 2.000 33.360 20.850 0.000
2989 0 1 2.000 35.445 22.935 0.000
2990 0 1 2.000 35.445 20.850 2.085
2991 0 1 2.000 33.360 22.935 2.085
2992 0 1 2.000 33.360 20.850 4.170
2993 0 1 2.000 35.445 22.935 4.170
2994 0 1 2.000 35.445 20.850 6.255
2995 0 1 2.000 33.360 22.935 6.255
2996 0 1 2.000 33.360 20.850 8.340
2997 0 1 2.000 35.445 22.935 8.340
2998 0 1 2.000 35.445 20.850 10.425
2999 0 1 2.000 33.360 22.935 10.425
3000 0 1 2.000 33.360 20.850 12.510
3001 0 1 2.000 35.445 22.935 12.510
3002 0 1 2.000 35.445 20.850 14.595
3003 0 1 2.000 33.360 22.935 14.595
3004 0 1 2.000 33.360 20.850 16.680
3005 0 1 2.000 35.445 22.935 16.680
3006 0 1 2.000 35.445 20.850 18.765
3007 0 1 2.000 33.360 22.935 18.765
3008 0 1 2.000 33.360 20.850 20.850
3009 0 1 2.000 35.445 22.935 20.850
3010 0 1 2.000 35.445 20.850 22.935
3011 0 1 2.000 33.360 22.935 22.935
3012 0 1 2.000 33.360 20.850 25.020
3013 0 1 2.000 35.445 22.935 25.020
3014 0 1 2.000 33.360 22.935 27.105
3015 0 1 2.000 33.360 25.020 0.000
3016 0 1 2.000 35.445 27.105 0.000
3017 0 1 2.000 35.445 25.020 2.085
3018 0 1 2.000 33.360 27.105 2.085
3019 0 1 2.000 33.360 25.020 4.170
3020 0 1 2.000 35.445 27.105 4.170
3021 0 1 2.000 35.445 25.020 6.255
3022 0 1 2.000 33.360 27.105 6.255
3023 0 1 2.000 33.360 25.020 8.340
3024 0 1 2.000 35.445 27.105 8.340
3025 0 1 2.000 35.445 25.020 10.425
3026 0 1 2.000 33.360 27.105 10.425
3027 0 1 2.000 33.360 25.020 12.510
3028 0 1 2.000 35.445 27.105 12.510
3029 0 1 2.000 35.445 25.020 14.595
3030 0 1 2.000 33.360 27.105 14.595
3031 0 1 2.000 33.360 25.020 16.680
3032 0 1 2.000 35.445 27.105 16.680
3033 0 1 2.000 35.445 25.020 18.765
3034 0 1 2.000 33.360 27.105 18.765
3035 0 1 2.000 33.360 25.020 20.850
3036 0 1 2.000 35.445 27.105 20.850
3037 0 1 2.000 35.445 25.020 22.935
3038 0 1 2.000 33.360 27.105 22.935
3039 0 1 2.000 33.360 25.020 25.020
3040 0 1 2.000 35.445 27.105 25.020
3041 0 1 2.000 35.445 25.020 27.105
3042 0 1 2.000 33.360 27.105 27.105
3043 0 1 2.000 33.360 25.020 29.190
3044 0 1 2.000 35.445 27.105 29.190
3045 0 1 2.000 33.360 27.105 31.275
3046 0 1 2.000 33.360 29.190 0.000
3047 0 1 2.000 35.445 31.275 0.000
3048 0 1 2.000 35.445 29.190 2.085
3049 0 1 2.000 33.360 31.275 2.085
3050 0 1 2.000 33.360 29.190 4.170
3051 0 1 2.000 35.445 31.275 4.170
3052 0 1 2.000 35.445 29.190 6.255
3053 0 1 2.000 33.360 31.275 6.255
3054 0 1 2.000 33.360 29.190 8.340
3055 0 1 2.000 35.445 31.275 8.340
3056 0 1 2.000 35.445 29.190 10.425
3057 0 1 2.000 33.360 31.275 10.425
3058 0 1 2.000 33.360 29.190 12.510
3059 0 1 2.000 35.445 31.275 12.510
3060 0 1 2.000 35.445 29.190 14.595
3061 0 1 2.000 33.360 31.275 14.595
3062 0 1 2.000 33.360 29.190 16.680
3063 0 1 2.000 35.445 31.275 16.680
3064 0 1 2.000 35.445 29.190 18.765
3065 0 1 2.000 33.360 31.275 18.765
3066 0 1 2.000 33.360 29.190 20.850
3067 0 1 2.000 35.445 31.275 20.850
3068 0 1 2.000 35.445 29.190 22.935
3069 0 1 2.000 33.360 31.275 22.935
3070 0 1 2.000 33.360 29.190 25.020
3071 0 1 2.000 35.445 31.275 25.020
3072 0 1 2.000 35.445 29.190 27.105
3073 0 1 2.000 33.360 31.275 27.105
3074 0 1 2.000 33.360 29.190 29.190
3075 0 1 2.000 35.445 31.275 29.190
3076 0 1 2.000 35.445 29.190 31.275
3077 0 1 2.000 33.360 31.275 31.275
3078 0 1 2.000 33.360 29.190 33.360
3079 0 1 2.000 35.445 31.275 33.360
3080 0 1 2.000 33.360 31.275 35.445
3081 0 1 2.000 33.360 33.360 0.000
3082 0 1 2.000 35.445 35.445 0.000
3083 0 1 2.000 35.445 33.360 2.085
3084 0 1 2.000 33.360 35.445 2.085
3085 0 1 2.000 33.360 33.360 4.170
3086 0 1 2.000 35.445 35.445 4.170
3087 0 1 2.000 35.445 33.360 6.255
3088 0 1 2.000 33.360 35.445 6.255
3089 0 1 2.000 33.360 33.360 8.340
3090 0 1 2.000 35.445 35.445 8.340
3091 0 1 2.000 35.445 33.360 10.425
3092 0 1 2.000 33.360 35.445 10.425
3093 0 1 2.000 33.360 33.360 12.510
3094 0 1 2.000 35.445 35.445 12.510
3095 0 1 2.000 35.445 33.360 14.595
3096 0 1 2.000 33.360 35.445 14.595
3097 0 1 2.000 33.360 33.360 16.680
3098 0 1 2.000 35.445 35.445 16.680
3099 0 1 2.000 35.445 33.360 18.765
3100 0 1 2.000 33.360 35.445 18.765
3101 0 1 2.000 33.360 33.360 20.850
3102 0 1 2.000 35.445 35.445 20.850
3103 0 1 2.000 35.445 33.360 22.935
3104 0 1 2.000 33.360 35.445 22.935
3105 0 1 2.000 33.360 33.360 25.020
3106 0 1 2.000 35.445 35.445 25.020
3107 0 1 2.000 35.445 33.360 27.105
3108 0 1 2.000 33.360 35.445 27.105
3109 0 1 2.000 33.360 33.360 29.190
3110 0 1 2.000 35.445 35.445 29.190
3111 0 1 2.000 35.445 33.360 31.275
3112 0 1 2.000 33.360 35.445 31.275
3113 0 1 2.000 33.360 33.360 33.360
3114 0 1 2.000 35.445 35.445 33.360
3115 0 1 2.000 35.445 33.360 35.445
3116 0 1 2.000 33.360 35.445 35.445
3117 0 1 2.000 33.360 33.360 37.530
3118 0 1 2.000 35.445 35.445 37.530
3119 0 1 2.000 33.360 35.445 39.615
3120 0 1 2.000 33.360 37.530 0.000
3121 0 1 2.000 35.445 39.615 0.000
3122 0 1 2.000 35.445 37.530 2.085
3123 0 1 2.000 33.360 39.615 2.085
3124 0 1 2.000 33.360 37.530 4.170
3125 0 1 2.000 35.445 39.615 4.170
3126 0 1 2.000 35.445 37.530 6.255
3127 0 1 2.000 33.360 39.615 6.255
3128 0 1 2.000 33.360 37.530 8.340
3129 0 1 2.000 35.445 39.615 8.340
3130 0 1 2.000 35.445 37.530 10.425
3131 0 1 2.000 33.360 39.615 10.425
3132 0 1 2.000 33.360 37.530 12.510
3133 0 1 2.000 35.445 39.615 12.510
3134 0 1 2.000 35.445 37.530 14.595
3135 0 1 2.000 33.360 39.615 14.595
3136 0 1 2.000 33.360 37.530 16.680
3137 0 1 2.000 35.445 39.615 16.680
3138 0 1 2.000 35.445 37.530 18.765
3139 0 1 2.000 33.360 39.615 18.765
3140 0 1 2.000 33.360 37.530 20.850
3141 0 1 2.000 35.445 39.615 20.850
3142 0 1 2.000 35.445 37.530 22.935
3143 0 1 2.000 33.360 39.615 22.935
3144 0 1 2.000 33.360 37.530 25.020
3145 0 1 2.000 35.445 39.615 25.020
3146 0 1 2.000 35.445 37.530 27.105
3147 0 1 2.000 33.360 39.615 27.105
3148 0 1 2.000 33.360 37.530 29.190
3149 0 1 2.000 35.445 39.615 29.190
3150 0 1 2.000 35.445 37.530 31.275
3151 0 1 2.000 33.360 39.615 31.275
3152 0 1 2.000 33.360 37.530 33.360
3153 0 1 2.000 35.445 39.615 33.360
3154 0 1 2.000 35.445 37.530 35.445
3155 0 1 2.000 33.360 39.615 35.445
3156 0 1 2.000 33.360 37.530 37.530
3157 0 1 2.000 35.445 39.615 37.530
3158 0 1 2.000 35.445 37.530 39.615
3159 0 1 2.000 33.360 39.615 39.615
3160 0 1 2.000 37.530 0.000 0.000
3161 0 1 2.000 39.615 2.085 0.000
3162 0 1 2.000 39.615 0.000 2.085
3163 0 1 2.000 37.530 2.085 2.085
3164 0 1 2.000 37.530 0.000 4.170
3165 0 1 2.000 39.615 2.085 4.170
3166 0 1 2.000 39.615 0.000 6.255
3167 0 1 2.000 37.530 2.085 6.255
3168 0 1 2.000 37.530 0.000 8.340
3169 0 1 2.000 39.615 2.085 8.340
3170 0 1 2.000 39.615 0.000 10.425
3171 0 1 2.000 37.530 2.085 10.425
3172 0 1 2.000 37.530 0.000 12.510
3173 0 1 2.000 39.615 2.085 12.510
3174 0 1 2.000 39.615 0.000 14.595
3175 0 1 2.000 37.530 2.085 14.595
3176 0 1 2.000 37.530 0.000 16.680
3177 0 1 2.000 39.615 2.085 16.680
3178 0 1 2.000 39.615 0.000 18.765
3179 0 1 2.000 37.530 2.085 18.765
3180 0 1 2.000 37.530 0.000 20.850
3181 0 1 2.000 39.615 2.085 20.850
3182 0 1 2.000 39.615 0.000 22.935
3183 0 1 2.000 37.530 2.085 22.935
3184 0 1 2.000 37.530 0.000 25.020
3185 0 1 2.000 39.615 2.085 25.020
3186 0 1 2.000 39.615 0.000 27.105
3187 0 1 2.000 37.530 2.085 27.105
3188 0 1 2.000 37.530 0.000 29.190
3189 0 1 2.000 39.615 2.085 29.190
3190 0 1 2.000 39.615 0.000 31.275
3191 0 1 2.000 37.530 2.085 31.275
3192 0 1 2.000 37.530 0.000 33.360
3193 0 1 2.000 39.615 2.085 33.360
3194 0 1 2.000 39.615 0.000 35.445
3195 0 1 2.000 37.530 2.085 35.445
3196 0 1 2.000 37.530 0.000 37.530
3197 0 1 2.000 39.615 2.085 37.530
3198 0 1 2.000 39.615 0.000 39.615
3199 0 1 2.000 37.530 2.085 39.615
3200 0 1 2.000 37.530 4.170 0.000
3201 0 1 2.000 39.615 6.255 0.000
3202 0 1 2.000 39.615 4.170 2.085
3203 0 1 2.000 37.530 6.255 2.085
3204 0 1 2.000 37.530 4.170 4.170
3205 0 1 2.000 39.615 6.255 4.170
3206 0 1 2.000 39.615 4.170 6.255
3207 0 1 2.000 37.530 6.255 6.255
3208 0 1 2.000 37.530 4.170 8.340
3209 0 1 2.000 39.615 6.255 8.340
3210 0 1 2.000 39.615 4.170 10.425
3211 0 1 2.000 37.530 6.255 10.425
3212 0 1 2.000 37.530 4.170 12.510
3213 0 1 2.000 39.615 6.255 12.510
3214 0 1 2.000 39.615 4.170 14.595
3215 0 1 2.000 37.530 6.255 14.595
3216 0 1 2.000 37.530 4.170 16.680
3217 0 1 2.000 39.615 6.255 16.680
3218 0 1 2.000 39.615 4.170 18.765
3219 0 1 2.000 37.530 6.255 18.765
3220 0 1 2.000 37.530 4.170 20.850
3221 0 1 2.000 39.615 6.255 20.850
3222 0 1 2.000 39.615 4.170 22.935
3223 0 1 2.000 37.530 6.255 22.935
3224 0 1 2.000 37.530 4.170 25.020
3225 0 1 2.000 39.615 6.255 25.020
3226 0 1 2.000 39.615 4.170 27.105
3227 0 1 2.000 37.530 6.255 27.105
3228 0 1 2.000 37.530 4.170 29.190
3229 0 1 2.000 39.615 6.255 29.190
3230 0 1 2.000 39.615 4.170 31.275
3231 0 1 2.000 37.530 6.255 31.275
3232 0 1 2.000 37.530 4.170 33.360
3233 0 1 2.000 39.615 6.255 33.360
3234 0 1 2.000 39.615 4.170 35.445
3235 0 1 2.000 37.530 6.255 35.445
3236 0 1 2.000 37.530 4.170 37.530
3237 0 1 2.000 39.615 6.255 37.530
3238 0 1 2.000 39.615 4.170 39.615
3239 0 1 2.000 37.530 6.255 39.615
3240 0 1 2.000 37.530 8.340 0.000
3241 0 1 2.000 39.615 10.425 0.000
3242 0 1 2.000 39.615 8.340 2.085
3243 0 1 2.000 37.530 10.425 2.085
3244 0 1 2.000 37.530 8.340 4.170
3245 0 1 2.000 39.615 10.425 4.170
3246 0 1 2.000 39.615 8.340 6.255
3247 0 1 2.000 37.530 10.425 6.255
3248 0 1 2.000 37.530 8.340 8.340
3249 0 1 2.000 39.615 10.425 8.340
3250 0 1 2.000 39.615 8.340 10.425
3251 0 1 2.000 37.530 10.425 10.425
3252 0 1 2.000 37.530 8.340 12.510
3253 0 1 2.000 39.615 10.425 12.510
3254 0 1 2.000 39.615 8.340 14.595
3255 0 1 2.000 37.530 10.425 14.595
3256 0 1 2.000 37.530 8.340 16.680
3257 0 1 2.000 39.615 10.425 16.680
3258 0 1 2.000 39.615 8.340 18.765
3259 0 1 2.000 37.530 10.425 18.765
3260 0 1 2.000 37.530 8.340 20.850
3261 0 1 2.000 39.615 10.425 20.850
3262 0 1 2.000 39.615 8.340 22.935
3263 0 1 2.000 37.530 10.425 22.935
3264 0 1 2.000 37.530 8.340 25.020
3265 0 1 2.000 39.615 10.425 25.020
3266 0 1 2.000 39.615 8.340 27.105
3267 0 1 2.000 37.530 10.425 27.105
3268 0 1 2.000 37.530 8.340 29.190
3269 0 1 2.000 39.615 10.425 29.190
3270 0 1 2.000 39.615 8.340 31.275
3271 0 1 2.000 37.530 10.425 31.275
3272 0 1 2.000 37.530 8.340 33.360
3273 0 1 2.000 39.615 10.425 33.360
3274 0 1 2.000 39.615 8.340 35.445
3275 0 1 2.000 37.530 10.425 35.445
3276 0 1 2.000 37.530 8.340 37.530
3277 0 1 2.000 37.530 12.510 0.000
3278 0 1 2.000 39.615 14.595 0.000
3279 0 1 2.000 39.615 12.510 2.085
3280 0 1 2.000 37.530 14.595 2.085
3281 0 1 2.000 37.530 12.510 4.170
3282 0 1 2.000 39.615 14.595 4.170
3283 0 1 2.000 39.615 12.510 6.255
3284 0 1 2.000 37.530 14.595 6.255
3285 0 1 2.000 37.530 12.510 8.340
3286 0 1 2.000 39.615 14.595 8.340
3287 0 1 2.000 39.615 12.510 10.425
3288 0 1 2.000 37.530 14.595 10.425
3289 0 1 2.000 37.530 12.510 12.510
3290 0 1 2.000 39.615 14.595 12.510
3291 0 1 2.000 39.615 12.510 14.595
3292 0 1 2.000 37.530 14.595 14.595
3293 0 1 2.000 37.530 12.510 16.680
3294 0 1 2.000 39.615 14.595 16.680
3295 0 1 2.000 39.615 12.510 18.765
3296 0 1 2.000 37.530 14.595 18.765
3297 0 1 2.000 37.530 12.510 20.850
3298 0 1 2.000 39.615 14.595 20.850
3299 0 1 2.000 39.615 12.510 22.935
3300 0 1 2.000 37.530 14.595 22.935
3301 0 1 2.000 37.530 12.510 25.020
3302 0 1 2.000 39.615 14.595 25.020
3303 0 1 2.000 39.615 12.510 27.105
3304 0 1 2.000 37.530 14.595 27.105
3305 0 1 2.000 37.530 12.510 29.190
3306 0 1 2.000 39.615 14.595 29.190
3307 0 1 2.000 39.615 12.510 31.275
3308 0 1 2.000 37.530 14.595 31.275
3309 0 1 2.000 37.530 12.510 33.360
3310 0 1 2.000 37.530 16.680 0.000
3311 0 1 2.000 39.615 18.765 0.000
3312 0 1 2.000 39.615 16.680 2.085
3313 0 1 2.000 37.530 18.765 2.085
3314 0 1 2.000 37.530 16.680 4.170
3315 0 1 2.000 39.615 18.765 4.170
3316 0 1 2.000 39.615 16.680 6.255
3317 0 1 2.000 37.530 18.765 6.255
3318 0 1 2.000 37.530 16.680 8.340
3319 0 1 2.000 39.615 18.765 8.340
3320 0 1 2.000 39.615 16.680 10.425
3321 0 1 2.000 37.530 18.765 10.425
3322 0 1 2.000 37.530 16.680 12.510
3323 0 1 2.000 39.615 18.765 12.510
3324 0 1 2.000 39.615 16.680 14.595
3325 0 1 2.000 37.530 18.765 14.595
3326 0 1 2.000 37.530 16.680 16.680
3327 0 1 2.000 39.615 18.765 16.680
3328 0 1 2.000 39.615 16.680 18.765
3329 0 1 2.000 37.530 18.765 18.765
3330 0 1 2.000 37.530 16.680 20.850
3331 0 1 2.000 39.615 18.765 20.850
3332 0 1 2.000 39.615 16.680 22.935
3333 0 1 2.000 37.530 18.765 22.935
3334 0 1 2.000 37.530 16.680 25.020
3335 0 1 2.000 39.615 18.765 25.020
3336 0 1 2.000 39.615 16.680 27.105
3337 0 1 2.000 37.530 18.765 27.105
3338 0 1 2.000 37.530 16.680 29.190
3339 0 1 2.000 37.530 20.850 0.000
3340 0 1 2.000 39.615 22.935 0.000
3341 0 1 2.000 39.615 20.850 2.085
3342 0 1 2.000 37.530 22.935 2.085
3343 0 1 2.000 37.530 20.850 4.170
3344 0 1 2.000 39.615 22.935 4.170
3345 0 1 2.000 39.615 20.850 6.255
3346 0 1 2.000 37.530 22.935 6.255
3347 0 1 2.000 37.530 20.850 8.340
3348 0 1 2.000 39.615 22.935 8.340
3349 0 1 2.000 39.615 20.850 10.425
3350 0 1 2.000 37.530 22.935 10.425
3351 0 1 2.000 37.530 20.850 12.510
3352 0 1 2.000 39.615 22.935 12.510
3353 0 1 2.000 39.615 20.850 14.595
3354 0 1 2.000 37.530 22.935 14.595
3355 0 1 2.000 37.530 20.850 16.680
3356 0 1 2.000 39.615 22.935 16.680
3357 0 1 2.000 39.615 20.850 18.765
3358 0 1 2.000 37.530 22.935 18.765
3359 0 1 2.000 37.530 20.850 20.850
3360 0 1 2.000 39.615 22.935 20.850
3361 0 1 2.000 39.615 20.850 22.935
3362 0 1 2.000 37.530 22.935 22.935
3363 0 1 2.000 37.530 20.850 25.020
3364 0 1 2.000 39.615 22.935 25.020
3365 0 1 2.000 37.530 22.935 27.105
3366 0 1 2.000 37.530 25.020 0.000
3367 0 1 2.000 39.615 27.105 0.000
3368 0 1 2.000 39.615 25.020 2.085
3369 0 1 2.000 37.530 27.105 2.085
3370 0 1 2.000 37.530 25.020 4.170
3371 0 1 2.000 39.615 27.105 4.170
3372 0 1 2.000 39.615 25.020 6.255
3373 0 1 2.000 37.530 27.105 6.255
3374 0 1 2.000 37.530 25.020 8.340
3375 0 1 2.000 39.615 27.105 8.340
3376 0 1 2.000 39.615 25.020 10.425
3377 0 1 2.000 37.530 27.105 10.425
3378 0 1 2.000 37.530 25.020 12.510
3379 0 1 2.000 39.615 27.105 12.510
3380 0 1 2.000 39.615 25.020 14.595
3381 0 1 2.000 37.530 27.105 14.595
3382 0 1 2.000 37.530 25.020 16.680
3383 0 1 2.000 39.615 27.105 16.680
3384 0 1 2.000 39.615 25.020 18.765
3385 0 1 2.000 37.530 27.105 18.765
3386 0 1 2.000 37.530 25.020 20.850
3387 0 1 2.000 39.615 27.105 20.850
3388 0 1 2.000 39.615 25.020 22.935
3389 0 1 2.000 37.530 27.105 22.935
3390 0 1 2.000 37.530 25.020 25.020
3391 0 1 2.000 39.615 27.105 25.020
3392 0 1 2.000 39.615 25.020 27.105
3393 0 1 2.000 37.530 27.105 27.105
3394 0 1 2.000 37.530 25.020 29.190
3395 0 1 2.000 39.615 27.105 29.190
3396 0 1 2.000 37.530 27.105 31.275
3397 0 1 2.000 37.530 29.190 0.000
3398 0 1 2.000 39.615 31.275 0.000
3399 0 1 2.000 39.615 29.190 2.085
3400 0 1 2.000 37.530 31.275 2.085
3401 0 1 2.000 37.530 29.190 4.170
3402 0 1 2.000 39.615 31.275 4.170
3403 0 1 2.000 39.615 29.190 6.255
3404 0 1 2.000 37.530 31.275 6.255
3405 0 1 2.000 37.530 29.190 8.340
3406 0 1 2.000 39.615 31.275 8.340
3407 0 1 2.000 39.615 29.190 10.425
3408 0 1 2.000 37.530 31.275 10.425
3409 0 1 2.000 37.530 29.190 12.510
3410 0 1 2.000 39.615 31.275 12.510
3411 0 1 2.000 39.615 29.190 14.595
3412 0 1 2.000 37.530 31.275 14.595
3413 0 1 2.000 37.530 29.190 16.680
3414 0 1 2.000 39.615 31.275 16.680
3415 0 1 2.000 39.615 29.190 18.765
3416 0 1 2.000 37.530 31.275 18.765
3417 0 1 2.000 37.530 29.190 20.850
3418 0 1 2.000 39.615 31.275 20.850
3419 0 1 2.000 39.615 29.190 22.935
3420 0 1 2.000 37.530 31.275 22.935
3421 0 1 2.000 37.530 29.190 25.020
3422 0 1 2.000 39.615 31.275 25.020
3423 0 1 2.000 39.615 29.190 27.105
3424 0 1 2.000 37.530 31.275 27.105
3425 0 1 2.000 37.530 29.190 29.190
3426 0 1 2.000 39.615 31.275 29.190
3427 0 1 2.000 39.615 29.190 31.275
3428 0 1 2.000 37.530 31.275 31.275
3429 0 1 2.000 37.530 29.190 33.360
3430 0 1 2.000 39.615 31.275 33.360
3431 0 1 2.000 37.530 31.275 35.445
3432 0 1 2.000 37.530 33.360 0.000
3433 0 1 2.000 39.615 35.445 0.000
3434 0 1 2.000 39.615 33.360 2.085
3435 0 1 2.000 37.530 35.445 2.085
3436 0 1 2.000 37.530 33.360 4.170
3437 0 1 2.000 39.615 35.445 4.170
3438 0 1 2.000 39.615 33.360 6.255
3439 0 1 2.000 37.530 35.445 6.255
3440 0 1 2.000 37.530 33.360 8.340
3441 0 1 2.000 39.615 35.445 8.340
3442 0 1 2.000 39.615 33.360 10.425
3443 0 1 2.000 37.530 35.445 10.425
3444 0 1 2.000 37.530 33.360 12.510
3445 0 1 2.000 39.615 35.445 12.510
3446 0 1 2.000 39.615 33.360 14.595
3447 0 1 2.000 37.530 35.445 14.595
3448 0 1 2.000 37.530 33.360 16.680
3449 0 1 2.000 39.615 35.445 16.680
3450 0 1 2.000 39.615 33.360 18.765
3451 0 1 2.000 37.530 35.445 18.765
3452 0 1 2.000 37.530 33.360 20.850
3453 0 1 2.000 39.615 35.445 20.850
3454 0 1 2.000 39.615 33.360 22.935
3455 0 1 2.000 37.530 35.445 22.935
3456 0 1 2.000 37.530 33.360 25.020
3457 0 1 2.000 39.615 35.445 25.020
3458 0 1 2.000 39.615 33.360 27.105
3459 0 1 2.000 37.530 35.445 27.105
3460 0 1 2.000 37.530 33.360 29.190
3461 0 1 2.000 39.615 35.445 29.190
3462 0 1 2.000 39.615 33.360 31.275
3463 0 1 2.000 37.530 35.445 31.275
3464 0 1 2.000 37.530 33.360 33.360
3465 0 1 2.000 39.615 35.445 33.360
3466 0 1 2.000 39.615 33.360 35.445
3467 0 1 2.000 37.530 35.445 35.445
3468 0 1 2.000 37.530 33.360 37.530
3469 0 1 2.000 39.615 35.445 37.530
3470 0 1 2.000 37.530 35.445 39.615
3471 0 1 2.000 37.530 37.530 0.000
3472 0 1 2.000 39.615 39.615 0.000
3473 0 1 2.000 39.615 37.530 2.085
3474 0 1 2.000 37.530 39.615 2.085
3475 0 1 2.000 37.530 37.530 4.170
3476 0 1 2.000 39.615 39.615 4.170
3477 0 1 2.000 39.615 37.530 6.255
3478 0 1 2.000 37.530 39.615 6.255
3479 0 1 2.000 37.530 37.530 8.340
3480 0 1 2.000 39.615 39.615 8.340
3481 0 1 2.000 39.615 37.530 10.425
3482 0 1 2.000 37.530 39.615 10.425
3483 0 1 2.000 37.530 37.530 12.510
3484 0 1 2.000 39.615 39.615 12.510
3485 0 1 2.000 39.615 37.530 14.595
3486 0 1 2.000 37.530 39.615 14.595
3487 0 1 2.000 37.530 37.530 16.680
3488 0 1 2.000 39.615 39.615 16.680
3489 0 1 2.000 39.615 37.530 18.765
3490 0 1 2.000 37.530 39.615 18.765
3491 0 1 2.000 37.530 37.530 20.850
3492 0 1 2.000 39.615 39.615 20.850
3493 0 1 2.000 39.615 37.530 22.935
3494 0 1 2.000 37.530 39.615 22.935
3495 0 1 2.000 37.530 37.530 25.020
3496 0 1 2.000 39.615 39.615 25.020
3497 0 1 2.000 39.615 37.530 27.105
3498 0 1 2.000 37.530 39.615 27.105
3499 0 1 2.000 37.530 37.530 29.190
3500 0 1 2.000 39.615 39.615 29.190
3501 0 1 2.000 39.615 37.530 31.275
3502 0 1 2.000 37.530 39.615 31.275
3503 0 1 2.000 37.530 37.530 33.360
3504 0 1 2.000 39.615 39.615 33.360
3505 0 1 2.000 39.615 37.530 35.445
3506 0 1 2.000 37.530 39.615 35.445
3507 0 1 2.000 37.530 37.530 37.530
3508 0 1 2.000 39.615 39.615 37.530
3509 0 1 2.000 39.615 37.530 39.615
3510 0 1 2.000 37.530 39.615 39.615
3511 0 1 2.000 41.700 0.000 0.000
3512 0 1 2.000 43.785 2.085 0.000
3513 0 1 2.000 43.785 0.000 2.085
3514 0 1 2.000 41.700 2.085 2.085
3515 0 1 2.000 41.700 0.000 4.170
3516 0 1 2.000 43.785 2.085 4.170
3517 0 1 2.000 43.785 0.000 6.255
3518 0 1 2.000 41.700 2.085 6.255
3519 0 1 2.000 41.700 0.000 8.340
3520 0 1 2.000 43.785 2.085 8.340
3521 0 1 2.000 43.785 0.000 10.425
3522 0 1 2.000 41.700 2.085 10.425
3523 0 1 2.000 41.700 0.000 12.510
3524 0 1 2.000 43.785 2.085 12.510
3525 0 1 2.000 43.785 0.000 14.595
3526 0 1 2.000 41.700 2.085 14.595
3527 0 1 2.000 41.700 0.000 16.680
3528 0 1 2.000 43.785 2.085 16.680
3529 0 1 2.000 43.785 0.000 18.765
3530 0 1 2.000 41.700 2.085 18.765
3531 0 1 2.000 41.700 0.000 20.850
3532 0 1 2.000 43.785 2.085 20.850
3533 0 1 2.000 43.785 0.000 22.935
3534 0 1 2.000 41.700 2.085 22.935
3535 0 1 2.000 41.700 0.000 25.020
3536 0 1 2.000 43.785 2.085 25.020
3537 0 1 2.000 43.785 0.000 27.105
3538 0 1 2.000 41.700 2.085 27.105
3539 0 1 2.000 41.700 0.000 29.190
3540 0 1 2.000 43.785 2.085 29.190
3541 0 1 2.000 43.785 0.000 31.275
3542 0 1 2.000 41.700 2.085 31.275
3543 0 1 2.000 41.700 0.000 33.360
3544 0 1 2.000 43.785 2.085 33.360
3545 0 1 2.000 43.785 0.000 35.445
3546 0 1 2.000 41.700 2.085 35.445
3547 0 1 2.000 41.700 0.000 37.530
3548 0 1 2.000 43.785 2.085 37.530
3549 0 1 2.000 43.785 0.000 39.615
3550 0 1 2.000 41.700 2.085 39.615
3551 0 1 2.000 41.700 4.170 0.000
3552 0 1 2.000 43.785 6.255 0.000
3553 0 1 2.000 43.785 4.170 2.085
3554 0 1 2.000 41.700 6.255 2.085
3555 0 1 2.000 41.700 4.170 4.170
3556 0 1 2.000 43.785 6.255 4.170
3557 0 1 2.000 43.785 4.170 6.255
3558 0 1 2.000 41.700 6.255 6.255
3559 0 1 2.000 41.700 4.170 8.340
3560 0 1 2.000 43.785 6.255 8.340
3561 0 1 2.000 43.785 4.170 10.425
3562 0 1 2.000 41.700 6.255 10.425
3563 0 1 2.000 41.700 4.170 12.510
3564 0 1 2.000 43.785 6.255 12.510
3565 0 1 2.000 43.785 4.170 14.595
3566 0 1 2.000 41.700 6.255 14.595
3567 0 1 2.000 41.700 4.170 16.680
3568 0 1 2.000 43.785 6.255 16.680
3569 0 1 2.000 43.785 4.170 18.765
3570 0 1 2.000 41.700 6.255 18.765
3571 0 1 2.000 41.700 4.170 20.850
3572 0 1 2.000 43.785 6.255 20.850
3573 0 1 2.000 43.785 4.170 22.935
3574 0 1 2.000 41.700 6.255 22.935
3575 0 1 2.000 41.700 4.170 25.020
3576 0 1 2.000 43.785 6.255 25.020
3577 0 1 2.000 43.785 4.170 27.105
3578 0 1 2.000 41.700 6.255 27.105
3579 0 1 2.000 41.700 4.170 29.190
3580 0 1 2.000 43.785 6.255 29.190
3581 0 1 2.000 43.785 4.170 31.275
3582 0 1 2.000 41.700 6.255 31.275
3583 0 1 2.000 41.700 4.170 33.360
3584 0 1 2.000 43.785 6.255 33.360
3585 0 1 2.000 43.785 4.170 35.445
3586 0 1 2.000 41.700 6.255 35.445
3587 0 1 2.000 41.700 4.170 37.530
3588 0 1 2.000 43.785 6.255 37.530
3589 0 1 2.000 43.785 4.170 39.615
3590 0 1 2.000 41.700 6.255 39.615
3591 0 1 2.000 41.700 8.340 0.000
3592 0 1 2.000 43.785 10.425 0.000
3593 0 1 2.000 43.785 8.340 2.085
3594 0 1 2.000 41.700 10.425 2.085
3595 0 1 2.000 41.700 8.340 4.170
3596 0 1 2.000 43.785 10.425 4.170
3597 0 1 2.000 43.785 8.340 6.255
3598 0 1 2.000 41.700 10.425 6.255
3599 0 1 2.000 41.700 8.340 8.340
3600 0 1 2.000 43.785 10.425 8.340
3601 0 1 2.000 43.785 8.340 10.425
3602 0 1 2.000 41.700 10.425 10.425
3603 0 1 2.000 41.700 8.340 12.510
3604 0 1 2.000 43.785 10.425 12.510
3605 0 1 2.000 43.785 8.340 14.595
3606 0 1 2.000 41.700 10.425 14.595
3607 0 1 2.000 41.700 8.340 16.680
3608 0 1 2.000 43.785 10.425 16.680
3609 0 1 2.000 43.785 8.340 18.765
3610 0 1 2.000 41.700 10.425 18.765
3611 0 1 2.000 41.700 8.340 20.850
3612 0 1 2.000 43.785 10.425 20.850
3613 0 1 2.000 43.785 8.340 22.935
3614 0 1 2.000 41.700 10.425 22.935
3615 0 1 2.000 41.700 8.340 25.020
3616 0 1 2.000 43.785 10.425 25.020
3617 0 1 2.000 43.785 8.340 27.105
3618 0 1 2.000 41.700 10.425 27.105
3619 0 1 2.000 41.700 8.340 29.190
3620 0 1 2.000 43.785 10.425 29.190
3621 0 1 2.000 43.785 8.340 31.275
3622 0 1 2.000 41.700 10.425 31.275
3623 0 1 2.000 41.700 8.340 33.360
3624 0 1 2.000 43.785 10.425 33.360
3625 0 1 2.000 43.785 8.340 35.445
3626 0 1 2.000 41.700 10.425 35.445
3627 0 1 2.000 41.700 8.340 37.530
3628 0 1 2.000 41.700 12.510 0.000
3629 0 1 2.000 43.785 14.595 0.000
3630 0 1 2.000 43.785 12.510 2.085
3631 0 1 2.000 41.700 14.595 2.085
3632 0 1 2.000 41.700 12.510 4.170
3633 0 1 2.000 43.785 14.595 4.170
3634 0 1 2.000 43.785 12.510 6.255
3635 0 1 2.000 41.700 14.595 6.255
3636 0 1 2.000 41.700 12.510 8.340
3637 0 1 2.000 43.785 14.595 8.340
3638 0 1 2.000 43.785 12.510 10.425
3639 0 1 2.000 41.700 14.595 10.425
3640 0 1 2.000 41.700 12.510 12.510
3641 0 1 2.000 43.785 14.595 12.510
3642 0 1 2.000 43.785 12.510 14.595
3643 0 1 2.000 41.700 14.595 14.595
3644 0 1 2.000 41.700 12.510 16.680
3645 0 1 2.000 43.785 14.595 16.680
3646 0 1 2.000 43.785 12.510 18.765
3647 0 1 2.000 41.700 14.595 18.765
3648 0 1 2.000 41.700 12.510 20.850
3649 0 1 2.000 43.785 14.595 20.850
3650 0 1 2.000 43.785 12.510 22.935
3651 0 1 2.000 41.700 14.595 22.935
3652 0 1 2.000 41.700 12.510 25.020
3653 0 1 2.000 43.785 14.595 25.020
3654 0 1 2.000 43.785 12.510 27.105
3655 0 1 2.000 41.700 14.595 27.105
3656 0 1 2.000 41.700 12.510 29.190
3657 0 1 2.000 43.785 14.595 29.190
3658 0 1 2.000 43.785 12.510 31.275
3659 0 1 2.000 41.700 14.595 31.275
3660 0 1 2.000 41.700 12.510 33.360
3661 0 1 2.000 41.700 16.680 0.000
3662 0 1 2.000 43.785 18.765 0.000
3663 0 1 2.000 43.785 16.680 2.085
3664 0 1 2.000 41.700 18.765 2.085
3665 0 1 2.000 41.700 16.680 4.170
3666 0 1 2.000 43.785 18.765 4.170
3667 0 1 2.000 43.785 16.680 6.255
3668 0 1 2.000 41.700 18.765 6.255
3669 0 1 2.000 41.700 16.680 8.340
3670 0 1 2.000 43.785 18.765 8.340
3671 0 1 2.000 43.785 16.680 10.425
3672 0 1 2.000 41.700 18.765 10.425
3673 0 1 2.000 41.700 16.680 12.510
3674 0 1 2.000 43.785 18.765 12.510
3675 0 1 2.000 43.785 16.680 14.595
3676 0 1 2.000 41.700 18.765 14.595
3677 0 1 2.000 41.700 16.680 16.680
3678 0 1 2.000 43.785 18.765 16.680
3679 0 1 2.000 43.785 16.680 18.765
3680 0 1 2.000 41.700 18.765 18.765
3681 0 1 2.000 41.700 16.680 20.850
3682 0 1 2.000 43.785 18.765 20.850
3683 0 1 2.000 43.785 16.680 22.935
3684 0 1 2.000 41.700 18.765 22.935
3685 0 1 2.000 41.700 16.680 25.020
3686 0 1 2.000 43.785 18.765 25.020
3687 0 1 2.000 43.785 16.680 27.105
3688 0 1 2.000 41.700 18.765 27.105
3689 0 1 2.000 41.700 16.680 29.190
3690 0 1 2.000 41.700 20.850 0.000
3691 0 1 2.000 43.785 22.935 0.000
3692 0 1 2.000 43.785 20.850 2.085
3693 0 1 2.000 41.700 22.935 2.085
3694 0 1 2.000 41.700 20.850 4.170
3695 0 1 2.000 43.785 22.935 4.170
3696 0 1 2.000 43.785 20.850 6.255
3697 0 1 2.000 41.700 22.935 6.255
3698 0 1 2.000 41.700 20.850 8.340
3699 0 1 2.000 43.785 22.935 8.340
3700 0 1 2.000 43.785 20.850 10.425
3701 0 1 2.000 41.700 22.935 10.425
3702 0 1 2.000 41.700 20.850 12.510
3703 0 1 2.000 43.785 22.935 12.510
3704 0 1 2.000 43.785 20.850 14.595
3705 0 1 2.000 41.700 22.935 14.595
3706 0 1 2.000 41.700 20.850 16.680
3707 0 1 2.000 43.785 22.935 16.680
3708 0 1 2.000 43.785 20.850 18.765
3709 0 1 2.000 41.700 22.935 18.765
3710 0 1 2.000 41.700 20.850 20.850
3711 0 1 2.000 43.785 22.935 20.850
3712 0 1 2.000 43.785 20.850 22.935
3713 0 1 2.000 41.700 22.935 22.935
3714 0 1 2.000 41.700 20.850 25.020
3715 0 1 2.000 43.785 22.935 25.020
3716 0 1 2.000 41.700 22.935 27.105
3717 0 1 2.000 41.700 25.020 0.000
3718 0 1 2.000 43.785 27.105 0.000
3719 0 1 2.000 43.785 25.020 2.085
3720 0 1 2.000 41.700 27.105 2.085
3721 0 1 2.000 41.700 25.020 4.170
3722 0 1 2.000 43.785 27.105 4.170
3723 0 1 2.000 43.785 25.020 6.255
3724 0 1 2.000 41.700 27.105 6.255
3725 0 1 2.000 41.700 25.020 8.340
3726 0 1 2.000 43.785 27.105 8.340
3727 0 1 2.000 43.785 25.020 10.425
3728 0 1 2.000 41.700 27.105 10.425
3729 0 1 2.000 41.700 25.020 12.510
3730 0 1 2.000 43.785 27.105 12.510
3731 0 1 2.000 43.785 25.020 14.595
3732 0 1 2.000 41.700 27.105 14.595
3733 0 1 2.000 41.700 25.020 16.680
3734 0 1 2.000 43.785 27.105 16.680
3735 0 1 2.000 43.785 25.020 18.765
3736 0 1 2.000 41.700 27.105 18.765
3737 0 1 2.000 41.700 25.020 20.850
3738 0 1 2.000 43.785 27.105 20.850
3739 0 1 2.000 43.785 25.020 22.935
3740 0 1 2.000 41.700 27.105 22.935
3741 0 1 2.000 41.700 25.020 25.020
3742 0 1 2.000 43.785 27.105 25.020
3743 0 1 2.000 43.785 25.020 27.105
3744 0 1 2.000 41.700 27.105 27.105
3745 0 1 2.000 41.700 25.020 29.190
3746 0 1 2.000 43.785 27.105 29.190
3747 0 1 2.000 41.700 27.105 31.275
3748 0 1 2.000 41.700 29.190 0.000
3749 0 1 2.000 43.785 31.275 0.000
3750 0 1 2.000 43.785 29.190 2.085
3751 0 1 2.000 41.700 31.275 2.085
3752 0 1 2.000 41.700 29.190 4.170
3753 0 1 2.000 43.785 31.275 4.170
3754 0 1 2.000 43.785 29.190 6.255
3755 0 1 2.000 41.700 31.275 6.255
3756 0 1 2.000 41.700 29.190 8.340
3757 0 1 2.000 43.785 31.275 8.340
3758 0 1 2.000 43.785 29.190 10.425
3759 0 1 2.000 41.700 31.275 10.425
3760 0 1 2.000 41.700 29.190 12.510
3761 0 1 2.000 43.785 31.275 12.510
3762 0 1 2.000 43.785 29.190 14.595
3763 0 1 2.000 41.700 31.275 14.595
3764 0 1 2.000 41.700 29.190 16.680
3765 0 1 2.000 43.785 31.275 16.680
3766 0 1 2.000 43.785 29.190 18.765
3767 0 1 2.000 41.700 31.275 18.765
3768 0 1 2.000 41.700 29.190 20.850
3769 0 1 2.000 43.785 31.275 20.850
3770 0 1 2.000 43.785 29.190 22.935
3771 0 1 2.000 41.700 31.275 22.935
3772 0 1 2.000 41.700 29.190 25.020
3773 0 1 2.000 43.785 31.275 25.020
3774 0 1 2.000 43.785 29.190 27.105
3775 0 1 2.000 41.700 31.275 27.105
3776 0 1 2.000 41.700 29.190 29.190
3777 0 1 2.000 43.785 31.275 29.190
3778 0 1 2.000 43.785 29.190 31.275
3779 0 1 2.000 41.700 31.275 31.275
3780 0 1 2.000 41.700 29.190 33.360
3781 0 1 2.000 43.785 31.275 33.360
3782 0 1 2.000 41.700 31.275 35.445
3783 0 1 2.000 41.700 33.360 0.000
3784 0 1 2.000 43.785 35.445 0.000
3785 0 1 2.000 43.785 33.360 2.085
3786 0 1 2.000 41.700 35.445 2.085
3787 0 1 2.000 41.700 33.360 4.170
3788 0 1 2.000 43.785 35.445 4.170
3789 0 1 2.000 43.785 33.360 6.255
3790 0 1 2.000 41.700 35.445 6.255
3791 0 1 2.000 41.700 33.360 8.340
3792 0 1 2.000 43.785 35.445 8.340
3793 0 1 2.000 43.785 33.360 10.425
3794 0 1 2.000 41.700 35.445 10.425
3795 0 1 2.000 41.700 33.360 12.510
3796 0 1 2.000 43.785 35.445 12.510
3797 0 1 2.000 43.785 33.360 14.595
3798 0 1 2.000 41.700 35.445 14.595
3799 0 1 2.000 41.700 33.360 16.680
3800 0 1 2.000 43.785 35.445 16.680
3801 0 1 2.000 43.785 33.360 18.765
3802 0 1 2.000 41.700 35.445 18.765
3803 0 1 2.000 41.700 33.360 20.850
3804 0 1 2.000 43.785 35.445 20.850
3805 0 1 2.000 43.785 33.360 22.935
3806 0 1 2.000 41.700 35.445 22.935
3807 0 1 2.000 41.700 33.360 25.020
3808 0 1 2.000 43.785 35.445 25.020
3809 0 1 2.000 43.785 33.360 27.105
3810 0 1 2.000 41.700 35.445 27.105
3811 0 1 2.000 41.700 33.360 29.190
3812 0 1 2.000 43.785 35.445 29.190
3813 0 1 2.000 43.785 33.360 31.275
3814 0 1 2.000 41.700 35.445 31.275
3815 0 1 2.000 41.700 33.360 33.360
3816 0 1 2.000 43.785 35.445 33.360
3817 0 1 2.000 43.785 33.360 35.445
3818 0 1 2.000 41.700 35.445 35.445
3819 0 1 2.000 41.700 33.360 37.530
3820 0 1 2.000 43.785 35.445 37.530
3821 0 1 2.000 41.700 35.445 39.615
3822 0 1 2.000 41.700 37.530 0.000
3823 0 1 2.000 43.785 39.615 0.000
3824 0 1 2.000 43.785 37.530 2.085
3825 0 1 2.000 41.700 39.615 2.085
3826 0 1 2.000 41.700 37.530 4.170
3827 0 1 2.000 43.785 39.615 4.170
3828 0 1 2.000 43.785 37.530 6.255
3829 0 1 2.000 41.700 39.615 6.255
3830 0 1 2.000 41.700 37.530 8.340
3831 0 1 2.000 43.785 39.615 8.340
3832 0 1 2.000 43.785 37.530 10.425
3833 0 1 2.000 41.700 39.615 10.425
3834 0 1 2.000 41.700 37.530 12.510
3835 0 1 2.000 43.785 39.615 12.510
3836 0 1 2.000 43.785 37.530 14.595
3837 0 1 2.000 41.700 39.615 14.595
3838 0 1 2.000 41.700 37.530 16.680
3839 0 1 2.000 43.785 39.615 16.680
3840 0 1 2.000 43.785 37.530 18.765
3841 0 1 2.000 41.700 39.615 18.765
3842 0 1 2.000 41.700 37.530 20.850
3843 0 1 2.000 43.785 39.615 20.850
3844 0 1 2.000 43.785 37.530 22.935
3845 0 1 2.000 41.700 39.615 22.935
3846 0 1 2.000 41.700 37.530 25.020
3847 0 1 2.000 43.785 39.615 25.020
3848 0 1 2.000 43.785 37.530 27.105
3849 0 1 2.000 41.700 39.615 27.105
3850 0 1 2.000 41.700 37.530 29.190
3851 0 1 2.000 43.785 39.615 29.190
3852 0 1 2.000 43.785 37.530 31.275
3853 0 1 2.000 41.700 39.615 31.275
3854 0 1 2.000 41.700 37.530 33.360
3855 0 1 2.000 43.785 39.615 33.360
3856 0 1 2.000 43.785 37.530 35.445
3857 0 1 2.000 41.700 39.615 35.445
3858 0 1 2.000 41.700 37.530 37.530
3859 0 1 2.000 43.785 39.615 37.530
3860 0 1 2.000 43.785 37.530 39.615
3861 0 1 2.000 41.700 39.615 39.615
3862 0 1 2.000 45.870 0.000 0.000
3863 0 1 2.000 47.955 2.085 0.000
3864 0 1 2.000 47.955 0.000 2.085
3865 0 1 2.000 45.870 2.085 2.085
3866 0 1 2.000 45.870 0.000 4.170
3867 0 1 2.000 47.955 2.085 4.170
3868 0 1 2.000 47.955 0.000 6.255
3869 0 1 2.000 45.870 2.085 6.255
3870 0 1 2.000 45.870 0.000 8.340
3871 0 1 2.000 47.955 2.085 8.340
3872 0 1 2.000 47.955 0.000 10.425
3873 0 1 2.000 45.870 2.085 10.425
3874 0 1 2.000 45.870 0.000 12.510
3875 0 1 2.000 47.955 2.085 12.510
3876 0 1 2.000 47.955 0.000 14.595
3877 0 1 2.000 45.870 2.085 14.595
3878 0 1 2.000 45.870 0.000 16.680
3879 0 1 2.000 47.955 2.085 16.680
3880 0 1 2.000 47.955 0.000 18.765
3881 0 1 2.000 45.870 2.085 18.765
3882 0 1 2.000 45.870 0.000 20.850
3883 0 1 2.000 47.955 2.085 20.850
3884 0 1 2.000 47.955 0.000 22.935
3885 0 1 2.000 45.870 2.085 22.935
3886 0 1 2.000 45.870 0.000 25.020
3887 0 1 2.000 47.955 2.085 25.020
3888 0 1 2.000 47.955 0.000 27.105
3889 0 1 2.000 45.870 2.085 27.105
3890 0 1 2.000 45.870 0.000 29.190
3891 0 1 2.000 47.955 2.085 29.190
3892 0 1 2.000 47.955 0.000 31.275
3893 0 1 2.000 45.870 2.085 31.275
3894 0 1 2.000 45.870 0.000 33.360
3895 0 1 2.000 47.955 2.085 33.360
3896 0 1 2.000 47.955 0.000 35.445
3897 0 1 2.000 45.870 2.085 35.445
3898 0 1 2.000 45.870 0.000 37.530
3899 0 1 2.000 47.955 2.085 37.530
3900 0 1 2.000 47.955 0.000 39.615
3901 0 1 2.000 45.870 2.085 39.615
3902 0 1 2.000 45.870 4.170 0.000
3903 0 1 2.000 47.955 6.255 0.000
3904 0 1 2.000 47.955 4.170 2.085
3905 0 1 2.000 45.870 6.255 2.085
3906 0 1 2.000 45.870 4.170 4.170
3907 0 1 2.000 47.955 6.255 4.170
3908 0 1 2.000 47.955 4.170 6.255
3909 0 1 2.000 45.870 6.255 6.255
3910 0 1 2.000 45.870 4.170 8.340
3911 0 1 2.000 47.955 6.255 8.340
3912 0 1 2.000 47.955 4.170 10.425
3913 0 1 2.000 45.870 6.255 10.425
3914 0 1 2.000 45.870 4.170 12.510
3915 0 1 2.000 47.955 6.255 12.510
3916 0 1 2.000 47.955 4.170 14.595
3917 0 1 2.000 45.870 6.255 14.595
3918 0 1 2.000 45.870 4.170 16.680
3919 0 1 2.000 47.955 6.255 16.680
3920 0 1 2.000 47.955 4.170 18.765
3921 0 1 2.000 45.870 6.255 18.765
3922 0 1 2.000 45.870 4.170 20.850
3923 0 1 2.000 47.955 6.255 20.850
3924 0 1 2.000 47.955 4.170 22.935
3925 0 1 2.000 45.870 6.255 22.935
3926 0 1 2.000 45.870 4.170 25.020
3927 0 1 2.000 47.955 6.255 25.020
3928 0 1 2.000 47.955 4.170 27.105
3929 0 1 2.000 45.870 6.255 27.105
3930 0 1 2.000 45.870 4.170 29.190
3931 0 1 2.000 47.955 6.255 29.190
3932 0 1 2.000 47.955 4.170 31.275
3933 0 1 2.000 45.870 6.255 31.275
3934 0 1 2.000 45.870 4.170 33.360
3935 0 1 2.000 47.955 6.255 33.360
3936 0 1 2.000 47.955 4.170 35.445
3937 0 1 2.000 45.870 6.255 35.445
3938 0 1 2.000 45.870 4.170 37.530
3939 0 1 2.000 47.955 6.255 37.530
3940 0 1 2.000 47.955 4.170 39.615
3941 0 1 2.000 45.870 6.255 39.615
3942 0 1 2.000 45.870 8.340 0.000
3943 0 1 2.000 47.955 10.425 0.000
3944 0 1 2.000 47.955 8.340 2.085
3945 0 1 2.000 45.870 10.425 2.085
3946 0 1 2.000 45.870 8.340 4.170
3947 0 1 2.000 47.955 10.425 4.170
3948 0 1 2.000 47.955 8.340 6.255
3949 0 1 2.000 45.870 10.425 6.255
3950 0 1 2.000 45.870 8.340 8.340
3951 0 1 2.000 47.955 10.425 8.340
3952 0 1 2.000 47.955 8.340 10.425
3953 0 1 2.000 45.870 10.425 10.425
3954 0 1 2.000 45.870 8.340 12.510
3955 0 1 2.000 47.955 10.425 12.510
3956 0 1 2.000 47.955 8.340 14.595
3957 0 1 2.000 45.870 10.425 14.595
3958 0 1 2.000 45.870 8.340 16.680
3959 0 1 2.000 47.955 10.425 16.680
3960 0 1 2.000 47.955 8.340 18.765
3961 0 1 2.000 45.870 10.425 18.765
3962 0 1 2.000 45.870 8.340 20.850
3963 0 1 2.000 47.955 10.425 20.850
3964 0 1 2.000 47.955 8.340 22.935
3965 0 1 2.000 45.870 10.425 22.935
3966 0 1 2.000 45.870 8.340 25.020
3967 0 1 2.000 47.955 10.425 25.020
3968 0 1 2.000 47.955 8.340 27.105
3969 0 1 2.000 45.870 10.425 27.105
3970 0 1 2.000 45.870 8.340 29.190
3971 0 1 2.000 47.955 10.425 29.190
3972 0 1 2.000 47.955 8.340 31.275
3973 0 1 2.000 45.870 10.425 31.275
3974 0 1 2.000 45.870 8.340 33.360
3975 0 1 2.000 47.955 10.425 33.360
3976 0 1 2.000 47.955 8.340 35.445
3977 0 1 2.000 45.870 10.425 35.445
3978 0 1 2.000 45.870 8.340 37.530
3979 0 1 2.000 45.870 12.510 0.000
3980 0 1 2.000 47.955 14.595 0.000
3981 0 1 2.000 47.955 12.510 2.085
3982 0 1 2.000 45.870 14.595 2.085
3983 0 1 2.000 45.870 12.510 4.170
3984 0 1 2.000 47.955 14.595 4.170
3985 0 1 2.000 47.955 12.510 6.255
3986 0 1 2.000 45.870 14.595 6.255
3987 0 1 2.000 45.870 12.510 8.340
3988 0 1 2.000 47.955 14.595 8.340
3989 0 1 2.000 47.955 12.510 10.425
3990 0 1 2.000 45.870 14.595 10.425
3991 0 1 2.000 45.870 12.510 12.510
3992 0 1 2.000 47.955 14.595 12.510
3993 0 1 2.000 47.955 12.510 14.595
3994 0 1 2.000 45.870 14.595 14.595
3995 0 1 2.000 45.870 12.510 16.680
3996 0 1 2.000 47.955 14.595 16.680
3997 0 1 2.000 47.955 12.510 18.765
3998 0 1 2.000 45.870 14.595 18.765
3999 0 1 2.000 45.870 12.510 20.850
4000 0 1 2.000 47.955 14.595 20.850
4001 0 1 2.000 47.955 12.510 22.935
4002 0 1 2.000 45.870 14.595 22.935
4003 0 1 2.000 45.870 12.510 25.020
4004 0 1 2.000 47.955 14.595 25.020
4005 0 1 2.000 47.955 12.510 27.105
4006 0 1 2.000 45.870 14.595 27.105
4007 0 1 2.000 45.870 12.510 29.190
4008 0 1 2.000 47.955 14.595 29.190
4009 0 1 2.000 47.955 12.510 31.275
4010 0 1 2.000 45.870 14.595 31.275
4011 0 1 2.000 45.870 12.510 33.360
4012 0 1 2.000 45.870 16.680 0.000
4013 0 1 2.000 47.955 18.765 0.000
4014 0 1 2.000 47.955 16.680 2.085
4015 0 1 2.000 45.870 18.765 2.085
4016 0 1 2.000 45.870 16.680 4.170
4017 0 1 2.000 47.955 18.765 4.170
4018 0 1 2.000 47.955 16.680 6.255
4019 0 1 2.000 45.870 18.765 6.255
4020 0 1 2.000 45.870 16.680 8.340
4021 0 1 2.000 47.955 18.765 8.340
4022 0 1 2.000 47.955 16.680 10.425
4023 0 1 2.000 45.870 18.765 10.425
4024 0 1 2.000 45.870 16.680 12.510
4025 0 1 2.000 47.955 18.765 12.510
4026 0 1 2.000 47.955 16.680 14.595
4027 0 1 2.000 45.870 18.765 14.595
4028 0 1 2.000 45.870 16.680 16.680
4029 0 1 2.000 47.955 18.765 16.680
4030 0 1 2.000 47.955 16.680 18.765
4031 0 1 2.000 45.870 18.765 18.765
4032 0 1 2.000 45.870 16.680 20.850
4033 0 1 2.000 47.955 18.765 20.850
4034 0 1 2.000 47.955 16.680 22.935
4035 0 1 2.000 45.870 18.765 22.935
4036 0 1 2.000 45.870 16.680 25.020
4037 0 1 2.000 47.955 18.765 25.020
4038 0 1 2.000 47.955 16.680 27.105
4039 0 1 2.000 45.870 18.765 27.105
4040 0 1 2.000 45.870 16.680 29.190
4041 0 1 2.000 45.870 20.850 0.000
4042 0 1 2.000 47.955 22.935 0.000
4043 0 1 2.000 47.955 20.850 2.085
4044 0 1 2.000 45.870 22.935 2.085
4045 0 1 2.000 45.870 20.850 4.170
4046 0 1 2.000 47.955 22.935 4.170
4047 0 1 2.000 47.955 20.850 6.255
4048 0 1 2.000 45.870 22.935 6.255
4049 0 1 2.000 45.870 20.850 8.340
4050 0 1 2.000 47.955 22.935 8.340
4051 0 1 2.000 47.955 20.850 10.425
4052 0 1 2.000 45.870 22.935 10.425
4053 0 1 2.000 45.870 20.850 12.510
4054 0 1 2.000 47.955 22.935 12.510
4055 0 1 2.000 47.955 20.850 14.595
4056 0 1 2.000 45.870 22.935 14.595
4057 0 1 2.000 45.870 20.850 16.680
4058 0 1 2.000 47.955 22.935 16.680
4059 0 1 2.000 47.955 20.850 18.765
4060 0 1 2.000 45.870 22.935 18.765
4061 0 1 2.000 45.870 20.850 20.850
4062 0 1 2.000 47.955 22.935 20.850
4063 0 1 2.000 47.955 20.850 22.935
4064 0 1 2.000 45.870 22.935 22.935
4065 0 1 2.000 45.870 20.850 25.020
4066 0 1 2.000 47.955 22.935 25.020
4067 0 1 2.000 45.870 22.935 27.105
4068 0 1 2.000 45.870 25.020 0.000
4069 0 1 2.000 47.955 27.105 0.000
4070 0 1 2.000 47.955 25.020 2.085
4071 0 1 2.000 45.870 27.105 2.085
4072 0 1 2.000 45.870 25.020 4.170
4073 0 1 2.000 47.955 27.105 4.170
4074 0 1 2.000 47.955 25.020 6.255
4075 0 1 2.000 45.870 27.105 6.255
4076 0 1 2.000 45.870 25.020 8.340
4077 0 1 2.000 47.955 27.105 8.340
4078 0 1 2.000 47.955 25.020 10.425
4079 0 1 2.000 45.870 27.105 10.425
4080 0 1 2.000 45.870 25.020 12.510
4081 0 1 2.000 47.955 27.105 12.510
4082 0 1 2.000 47.955 25.020 14.595
4083 0 1 2.000 45.870 27.105 14.595
4084 0 1 2.000 45.870 25.020 16.680
4085 0 1 2.000 47.955 27.105 16.680
4086 0 1 2.000 47.955 25.020 18.765
4087 0 1 2.000 45.870 27.105 18.765
4088 0 1 2.000 45.870 25.020 20.850
4089 0 1 2.000 47.955 27.105 20.850
4090 0 1 2.000 47.955 25.020 22.935
4091 0 1 2.000 45.870 27.105 22.935
4092 0 1 2.000 45.870 25.020 25.020
4093 0 1 2.000 47.955 27.105 25.020
4094 0 1 2.000 47.955 25.020 27.105
4095 0 1 2.000 45.870 27.105 27.105
4096 0 1 2.000 45.870 25.020 29.190
4097 0 1 2.000 47.955 27.105 29.190
4098 0 1 2.000 45.870 27.105 31.275
4099 0 1 2.000 45.870 29.190 0.000
4100 0 1 2.000 47.955 31.275 0.000
4101 0 1 2.000 47.955 29.190 2.085
4102 0 1 2.000 45.870 31.275 2.085
4103 0 1 2.000 45.870 29.190 4.170
4104 0 1 2.000 47.955 31.275 4.170
4105 0 1 2.000 47.955 29.190 6.255
4106 0 1 2.000 45.870 31.275 6.255
4107 0 1 2.000 45.870 29.190 8.340
4108 0 1 2.000 47.955 31.275 8.340
4109 0 1 2.000 47.955 29.190 10.425
4110 0 1 2.000 45.870 31.275 10.425
4111 0 1 2.000 45.870 29.190 12.510
4112 0 1 2.000 47.955 31.275 12.510
4113 0 1 2.000 47.955 29.190 14.595
4114 0 1 2.000 45.870 31.275 14.595
4115 0 1 2.000 45.870 29.190 16.680
4116 0 1 2.000 47.955 31.275 16.680
4117 0 1 2.000 47.955 29.190 18.765
4118 0 1 2.000 45.870 31.275 18.765
4119 0 1 2.000 45.870 29.190 20.850
4120 0 1 2.000 47.955 31.275 20.850
4121 0 1 2.000 47.955 29.190 22.935
4122 0 1 2.000 45.870 31.275 22.935
4123 0 1 2.000 45.870 29.190 25.020
4124 0 1 2.000 47.955 31.275 25.020
4125 0 1 2.000 47.955 29.190 27.105
4126 0 1 2.000 45.870 31.275 27.105
4127 0 1 2.000 45.870 29.190 29.190
4128 0 1 2.000 47.955 31.275 29.190
4129 0 1 2.000 47.955 29.190 31.275
4130 0 1 2.000 45.870 31.275 31.275
4131 0 1 2.000 45.870 29.190 33.360
4132 0 1 2.000 47.955 31.275 33.360
4133 0 1 2.000 45.870 31.275 35.445
4134 0 1 2.000 45.870 33.360 0.000
4135 0 1 2.000 47.955 35.445 0.000
4136 0 1 2.000 47.955 33.360 2.085
4137 0 1 2.000 45.870 35.445 2.085
4138 0 1 2.000 45.870 33.360 4.170
4139 0 1 2.000 47.955 35.445 4.170
4140 0 1 2.000 47.955 33.360 6.255
4141 0 1 2.000 45.870 35.445 6.255
4142 0 1 2.000 45.870 33.360 8.340
4143 0 1 2.000 47.955 35.445 8.340
4144 0 1 2.000 47.955 33.360 10.425
4145 0 1 2.000 45.870 35.445 10.425
4146 0 1 2.000 45.870 33.360 12.510
4147 0 1 2.000 47.955 35.445 12.510
4148 0 1 2.000 47.955 33.360 14.595
4149 0 1 2.000 45.870 35.445 14.595
4150 0 1 2.000 45.870 33.360 16.680
4151 0 1 2.000 47.955 35.445 16.680
4152 0 1 2.000 47.955 33.360 18.765
4153 0 1 2.000 45.870 35.445 18.765
4154 0 1 2.000 45.870 33.360 20.850
4155 0 1 2.000 47.955 35.445 20.850
4156 0 1 2.000 47.955 33.360 22.935
4157 0 1 2.000 45.870 35.445 22.935
4158 0 1 2.000 45.870 33.360 25.020
4159 0 1 2.000 47.955 35.445 25.020
4160 0 1 2.000 47.955 33.360 27.105
4161 0 1 2.000 45.870 35.445 27.105
4162 0 1 2.000 45.870 33.360 29.190
4163 0 1 2.000 47.955 35.445 29.190
4164 0 1 2.000 47.955 33.360 31.275
4165 0 1 2.000 45.870 35.445 31.275
4166 0 1 2.000 45.870 33.360 33.360
4167 0 1 2.000 47.955 35.445 33.360
4168 0 1 2.000 47.955 33.360 35.445
4169 0 1 2.000 45.870 35.445 35.445
4170 0 1 2.000 45.870 33.360 37.530
4171 0 1 2.000 47.955 35.445 37.530
4172 0 1 2.000 45.870 35.445 39.615
4173 0 1 2.000 45.870 37.530 0.000
4174 0 1 2.000 47.955 39.615 0.000
4175 0 1 2.000 47.955 37.530 2.085
4176 0 1 2.000 45.870 39.615 2.085
4177 0 1 2.000 45.870 37.530 4.170
4178 0 1 2.000 47.955 39.615 4.170
4179 0 1 2.000 47.955 37.530 6.255
4180 0 1 2.000 45.870 39.615 6.255
4181 0 1 2.000 45.870 37.530 8.340
4182 0 1 2.000 47.955 39.615 8.340
4183 0 1 2.000 47.955 37.530 10.425
4184 0 1 2.000 45.870 39.615 10.425
4185 0 1 2.000 45.870 37.530 12.510
4186 0 1 2.000 47.955 39.615 12.510
4187 0 1 2.000 47.955 37.530 14.595
4188 0 1 2.000 45.870 39.615 14.595
4189 0 1 2.000 45.870 37.530 16.680
4190 0 1 2.000 47.955 39.615 16.680
4191 0 1 2.000 47.955 37.530 18.765
4192 0 1 2.000 45.870 39.615 18.765
4193 0 1 2.000 45.870 37.530 20.850
4194 0 1 2.000 47.955 39.615 20.850
4195 0 1 2.000 47.955 37.530 22.935
4196 0 1 2.000 45.870 39.615 22.935
4197 0 1 2.000 45.870 37.530 25.020
4198 0 1 2.000 47.955 39.615 25.020
4199 0 1 2.000 47.955 37.530 27.105
4200 0 1 2.000 45.870 39.615 27.105
4201 0 1 2.000 45.870 37.530 29.190
4202 0 1 2.000 47.955 39.615 29.190
4203 0 1 2.000 47.955 37.530 31.275
4204 0 1 2.000 45.870 39.615 31.275
4205 0 1 2.000 45.870 37.530 33.360
4206 0 1 2.000 47.955 39.615 33.360
4207 0 1 2.000 47.955 37.530 35.445
4208 0 1 2.000 45.870 39.615 35.445
4209 0 1 2.000 45.870 37.530 37.530
4210 0 1 2.000 47.955 39.615 37.530
4211 0 1 2.000 47.955 37.530 39.615
4212 0 1 2.000 45.870 39.615 39.615
4213 0 1 2.000 50.040 0.000 0.000
4214 0 1 2.000 52.125 2.085 0.000
4215 0 1 2.000 52.125 0.000 2.085
4216 0 1 2.000 50.040 2.085 2.085
4217 0 1 2.000 50.040 0.000 4.170
4218 0 1 2.000 52.125 2.085 4.170
4219 0 1 2.000 52.125 0.000 6.255
4220 0 1 2.000 50.040 2.085 6.255
4221 0 1 2.000 50.040 0.000 8.340
4222 0 1 2.000 52.125 2.085 8.340
4223 0 1 2.000 52.125 0.000 10.425
4224 0 1 2.000 50.040 2.085 10.425
4225 0 1 2.000 50.040 0.000 12.510
4226 0 1 2.000 52.125 2.085 12.510
4227 0 1 2.000 52.125 0.000 14.595
4228 0 1 2.000 50.040 2.085 14.595
4229 0 1 2.000 50.040 0.000 16.680
4230 0 1 2.000 52.125 2.085 16.680
4231 0 1 2.000 52.125 0.000 18.765
4232 0 1 2.000 50.040 2.085 18.765
4233 0 1 2.000 50.040 0.000 20.850
4234 0 1 2.000 52.125 2.085 20.850
4235 0 1 2.000 52.125 0.000 22.935
4236 0 1 2.000 50.040 2.085 22.935
4237 0 1 2.000 50.040 0.000 25.020
4238 0 1 2.000 52.125 2.085 25.020
4239 0 1 2.000 52.125 0.000 27.105
4240 0 1 2.000 50.040 2.085 27.105
4241 0 1 2.000 50.040 0.000 29.190
4242 0 1 2.000 52.125 2.085 29.190
4243 0 1 2.000 52.125 0.000 31.275
4244 0 1 2.000 50.040 2.085 31.275
4245 0 1 2.000 50.040 0.000 33.360
4246 0 1 2.000 52.125 2.085 33.360
4247 0 1 2.000 52.125 0.000 35.445
4248 0 1 2.000 50.040 2.085 35.445
4249 0 1 2.000 50.040 0.000 37.530
4250 0 1 2.000 52.125 2.085 37.530
4251 0 1 2.000 52.125 0.000 39.615
4252 0 1 2.000 50.040 2.085 39.615
4253 0 1 2.000 50.040 4.170 0.000
4254 0 1 2.000 52.125 6.255 0.000
4255 0 1 2.000 52.125 4.170 2.085
4256 0 1 2.000 50.040 6.255 2.085
4257 0 1 2.000 50.040 4.170 4.170
4258 0 1 2.000 52.125 6.255 4.170
4259 0 1 2.000 52.125 4.170 6.255
4260 0 1 2.000 50.040 6.255 6.255
4261 0 1 2.000 50.040 4.170 8.340
4262 0 1 2.000 52.125 6.255 8.340
4263 0 1 2.000 52.125 4.170 10.425
4264 0 1 2.000 50.040 6.255 10.425
4265 0 1 2.000 50.040 4.170 12.510
4266 0 1 2.000 52.125 6.255 12.510
4267 0 1 2.000 52.125 4.170 14.595
4268 0 1 2.000 50.040 6.255 14.595
4269 0 1 2.000 50.040 4.170 16.680
4270 0 1 2.000 52.125 6.255 16.680
4271 0 1 2.000 52.125 4.170 18.765
4272 0 1 2.000 50.040 6.255 18.765
4273 0 1 2.000 50.040 4.170 20.850
4274 0 1 2.000 52.125 6.255 20.850
4275 0 1 2.000 52.125 4.170 22.935
4276 0 1 2.000 50.040 6.255 22.935
4277 0 1 2.000 50.040 4.170 25.020
4278 0 1 2.000 52.125 6.255 25.020
4279 0 1 2.000 52.125 4.170 27.105
4280 0 1 2.000 50.040 6.255 27.105
4281 0 1 2.000 50.040 4.170 29.190
4282 0 1 2.000 52.125 6.255 29.190
4283 0 1 2.000 52.125 4.170 31.275
4284 0 1 2.000 50.040 6.255 31.275
4285 0 1 2.000 50.040 4.170 33.360
4286 0 1 2.000 52.125 6.255 33.360
4287 0 1 2.000 52.125 4.170 35.445
4288 0 1 2.000 50.040 6.255 35.445
4289 0 1 2.000 50.040 4.170 37.530
4290 0 1 2.000 52.125 6.255 37.530
4291 0 1 2.000 52.125 4.170 39.615
4292 0 1 2.000 50.040 6.255 39.615
4293 0 1 2.000 50.040 8.340 0.000
4294 0 1 2.000 52.125 10.425 0.000
4295 0 1 2.000 52.125 8.340 2.085
4296 0 1 2.000 50.040 10.425 2.085
4297 0 1 2.000 50.040 8.340 4.170
4298 0 1 2.000 52.125 10.425 4.170
4299 0 1 2.000 52.125 8.340 6.255
4300 0 1 2.000 50.040 10.425 6.255
4301 0 1 2.000 50.040 8.340 8.340
4302 0 1 2.000 52.125 10.425 8.340
4303 0 1 2.000 52.125 8.340 10.425
4304 0 1 2.000 50.040 10.425 10.425
4305 0 1 2.000 50.040 8.340 12.510
4306 0 1 2.000 52.125 10.425 12.510
4307 0 1 2.000 52.125 8.340 14.595
4308 0 1 2.000 50.040 10.425 14.595
4309 0 1 2.000 50.040 8.340 16.680
4310 0 1 2.000 52.125 10.425 16.680
4311 0 1 2.000 52.125 8.340 18.765
4312 0 1 2.000 50.040 10.425 18.765
4313 0 1 2.000 50.040 8.340 20.850
4314 0 1 2.000 52.125 10.425 20.850
4315 0 1 2.000 52.125 8.340 22.935
4316 0 1 2.000 50.040 10.425 22.935
4317 0 1 2.000 50.040 8.340 25.020
4318 0 1 2.000 52.125 10.425 25.020
4319 0 1 2.000 52.125 8.340 27.105
4320 0 1 2.000 50.040 10.425 27.105
4321 0 1 2.000 50.040 8.340 29.190
4322 0 1 2.000 52.125 10.425 29.190
4323 0 1 2.000 52.125 8.340 31.275
4324 0 1 2.000 50.040 10.425 31.275
4325 0 1 2.000 50.040 8.340 33.360
4326 0 1 2.000 52.125 10.425 33.360
4327 0 1 2.000 52.125 8.340 35.445
4328 0 1 2.000 50.040 10.425 35.445
4329 0 1 2.000 50.040 8.340 37.530
4330 0 1 2.000 50.040 12.510 0.000
4331 0 1 2.000 52.125 14.595 0.000
4332 0 1 2.000 52.125 12.510 2.085
4333 0 1 2.000 50.040 14.595 2.085
4334 0 1 2.000 50.040 12.510 4.170
4335 0 1 2.000 52.125 14.595 4.170
4336 0 1 2.000 52.125 12.510 6.255
4337 0 1 2.000 50.040 14.595 6.255
4338 0 1 2.000 50.040 12.510 8.340
4339 0 1 2.000 52.125 14.595 8.340
4340 0 1 2.000 52.125 12.510 10.425
4341 0 1 2.000 50.040 14.595 10.425
4342 0 1 2.000 50.040 12.510 12.510
4343 0 1 2.000 52.125 14.595 12.510
4344 0 1 2.000 52.125 12.510 14.595
4345 0 1 2.000 50.040 14.595 14.595
4346 0 1 2.000 50.040 12.510 16.680
4347 0 1 2.000 52.125 14.595 16.680
4348 0 1 2.000 52.125 12.510 18.765
4349 0 1 2.000 50.040 14.595 18.765
4350 0 1 2.000 50.040 12.510 20.850
4351 0 1 2.000 52.125 14.595 20.850
4352 0 1 2.000 52.125 12.510 22.935
4353 0 1 2.000 50.040 14.595 22.935
4354 0 1 2.000 50.040 12.510 25.020
4355 0 1 2.000 52.125 14.595 25.020
4356 0 1 2.000 52.125 12.510 27.105
4357 0 1 2.000 50.040 14.595 27.105
4358 0 1 2.000 50.040 12.510 29.190
4359 0 1 2.000 52.125 14.595 29.190
4360 0 1 2.000 52.125 12.510 31.275
4361 0 1 2.000 50.040 14.595 31.275
4362 0 1 2.000 50.040 12.510 33.360
4363 0 1 2.000 50.040 16.680 0.000
4364 0 1 2.000 52.125 18.765 0.000
4365 0 1 2.000 52.125 16.680 2.085
4366 0 1 2.000 50.040 18.765 2.085
4367 0 1 2.000 50.040 16.680 4.170
4368 0 1 2.000 52.125 18.765 4.170
4369 0 1 2.000 52.125 16.680 6.255
4370 0 1 2.000 50.040 18.765 6.255
4371 0 1 2.000 50.040 16.680 8.340
4372 0 1 2.000 52.125 18.765 8.340
4373 0 1 2.000 52.125 16.680 10.425
4374 0 1 2.000 50.040 18.765 10.425
4375 0 1 2.000 50.040 16.680 12.510
4376 0 1 2.000 52.125 18.765 12.510
4377 0 1 2.000 52.125 16.680 14.595
4378 0 1 2.000 50.040 18.765 14.595
4379 0 1 2.000 50.040 16.680 16.680
4380 0 1 2.000 52.125 18.765 16.680
4381 0 1 2.000 52.125 16.680 18.765
4382 0 1 2.000 50.040 18.765 18.765
4383 0 1 2.000 50.040 16.680 20.850
4384 0 1 2.000 52.125 18.765 20.850
4385 0 1 2.000 52.125 16.680 22.935
4386 0 1 2.000 50.040 18.765 22.935
4387 0 1 2.000 50.040 16.680 25.020
4388 0 1 2.000 52.125 18.765 25.020
4389 0 1 2.000 52.125 16.680 27.105
4390 0 1 2.000 50.040 18.765 27.105
4391 0 1 2.000 50.040 16.680 29.190
4392 0 1 2.000 50.040 20.850 0.000
4393 0 1 2.000 52.125 22.935 0.000
4394 0 1 2.000 52.125 20.850 2.085
4395 0 1 2.000 50.040 22.935 2.085
4396 0 1 2.000 50.040 20.850 4.170
4397 0 1 2.000 52.125 22.935 4.170
4398 0 1 2.000 52.125 20.850 6.255
4399 0 1 2.000 50.040 22.935 6.255
4400 0 1 2.000 50.040 20.850 8.340
4401 0 1 2.000 52.125 22.935 8.340
4402 0 1 2.000 52.125 20.850 10.425
4403 0 1 2.000 50.040 22.935 10.425
4404 0 1 2.000 50.040 20.850 12.510
4405 0 1 2.000 52.125 22.935 12.510
4406 0 1 2.000 52.125 20.850 14.595
4407 0 1 2.000 50.040 22.935 14.595
4408 0 1 2.000 50.040 20.850 16.680
4409 0 1 2.000 52.125 22.935 16.680
4410 0 1 2.000 52.125 20.850 18.765
4411 0 1 2.000 50.040 22.935 18.765
4412 0 1 2.000 50.040 20.850 20.850
4413 0 1 2.000 52.125 22.935 20.850
4414 0 1 2.000 52.125 20.850 22.935
4415 0 1 2.000 50.040 22.935 22.935
4416 0 1 2.000 50.040 20.850 25.020
4417 0 1 2.000 52.125 22.935 25.020
4418 0 1 2.000 50.040 22.935 27.105
4419 0 1 2.000 50.040 25.020 0.000
4420 0 1 2.000 52.125 27.105 0.000
4421 0 1 2.000 52.125 25.020 2.085
4422 0 1 2.000 50.040 27.105 2.085
4423 0 1 2.000 50.040 25.020 4.170
4424 0 1 2.000 52.125 27.105 4.170
4425 0 1 2.000 52.125 25.020 6.255
4426 0 1 2.000 50.040 27.105 6.255
4427 0 1 2.000 50.040 25.020 8.340
4428 0 1 2.000 52.125 27.105 8.340
4429 0 1 2.000 52.125 25.020 10.425
4430 0 1 2.000 50.040 27.105 10.425
4431 0 1 2.000 50.040 25.020 12.510
4432 0 1 2.000 52.125 27.105 12.510
4433 0 1 2.000 52.125 25.020 14.595
4434 0 1 2.000 50.040 27.105 14.595
4435 0 1 2.000 50.040 25.020 16.680
4436 0 1 2.000 52.125 27.105 16.680
4437 0 1 2.000 52.125 25.020 18.765
4438 0 1 2.000 50.040 27.105 18.765
4439 0 1 2.000 50.040 25.020 20.850
4440 0 1 2.000 52.125 27.105 20.850
4441 0 1 2.000 52.125 25.020 22.935
4442 0 1 2.000 50.040 27.105 22.935
4443 0 1 2.000 50.040 25.020 25.020
4444 0 1 2.000 52.125 27.105 25.020
4445 0 1 2.000 52.125 25.020 27.105
4446 0 1 2.000 50.040 27.105 27.105
4447 0 1 2.000 50.040 25.020 29.190
4448 0 1 2.000 52.125 27.105 29.190
4449 0 1 2.000 50.040 27.105 31.275
4450 0 1 2.000 50.040 29.190 0.000
4451 0 1 2.000 52.125 31.275 0.000
4452 0 1 2.000 52.125 29.190 2.085
4453 0 1 2.000 50.040 31.275 2.085
4454 0 1 2.000 50.040 29.190 4.170
4455 0 1 2.000 52.125 31.275 4.170
4456 0 1 2.000 52.125 29.190 6.255
4457 0 1 2.000 50.040 31.275 6.255
4458 0 1 2.000 50.040 29.190 8.340
4459 0 1 2.000 52.125 31.275 8.340
4460 0 1 2.000 52.125 29.190 10.425
4461 0 1 2.000 50.040 31.275 10.425
4462 0 1 2.000 50.040 29.190 12.510
4463 0 1 2.000 52.125 31.275 12.510
4464 0 1 2.000 52.125 29.190 14.595
4465 0 1 2.000 50.040 31.275 14.595
4466 0 1 2.000 50.040 29.190 16.680
4467 0 1 2.000 52.125 31.275 16.680
4468 0 1 2.000 52.125 29.190 18.765
4469 0 1 2.000 50.040 31.275 18.765
4470 0 1 2.000 50.040 29.190 20.850
4471 0 1 2.000 52.125 31.275 20.850
4472 0 1 2.000 52.125 29.190 22.935
4473 0 1 2.000 50.040 31.275 22.935
4474 0 1 2.000 50.040 29.190 25.020
4475 0 1 2.000 52.125 31.275 25.020
4476 0 1 2.000 52.125 29.190 27.105
4477 0 1 2.000 50.040 31.275 27.105
4478 0 1 2.000 50.040 29.190 29.190
4479 0 1 2.000 52.125 31.275 29.190
4480 0 1 2.000 52.125 29.190 31.275
4481 0 1 2.000 50.040 31.275 31.275
4482 0 1 2.000 50.040 29.190 33.360
4483 0 1 2.000 52.125 31.275 33.360
4484 0 1 2.000 50.040 31.275 35.445
4485 0 1 2.000 50.040 33.360 0.000
4486 0 1 2.000 52.125 35.445 0.000
4487 0 1 2.000 52.125 33.360 2.085
4488 0 1 2.000 50.040 35.445 2.085
4489 0 1 2.000 50.040 33.360 4.170
4490 0 1 2.000 52.125 35.445 4.170
4491 0 1 2.000 52.125 33.360 6.255
4492 0 1 2.000 50.040 35.445 6.255
4493 0 1 2.000 50.040 33.360 8.340
4494 0 1 2.000 52.125 35.445 8.340
4495 0 1 2.000 52.125 33.360 10.425
4496 0 1 2.000 50.040 35.445 10.425
4497 0 1 2.000 50.040 33.360 12.510
4498 0 1 2.000 52.125 35.445 12.510
4499 0 1 2.000 52.125 33.360 14.595
4500 0 1 2.000 50.040 35.445 14.595
4501 0 1 2.000 50.040 33.360 16.680
4502 0 1 2.000 52.125 35.445 16.680
4503 0 1 2.000 52.125 33.360 18.765
4504 0 1 2.000 50.040 35.445 18.765
4505 0 1 2.000 50.040 33.360 20.850
4506 0 1 2.000 52.125 35.445 20.850
4507 0 1 2.000 52.125 33.360 22.935
4508 0 1 2.000 50.040 35.445 22.935
4509 0 1 2.000 50.040 33.360 25.020
4510 0 1 2.000 52.125 35.445 25.020
4511 0 1 2.000 52.125 33.360 27.105
4512 0 1 2.000 50.040 35.445 27.105
4513 0 1 2.000 50.040 33.360 29.190
4514 0 1 2.000 52.125 35.445 29.190
4515 0 1 2.000 52.125 33.360 31.275
4516 0 1 2.000 50.040 35.445 31.275
4517 0 1 2.000 50.040 33.360 33.360
4518 0 1 2.000 52.125 35.445 33.360
4519 0 1 2.000 52.125 33.360 35.445
4520 0 1 2.000 50.040 35.445 35.445
4521 0 1 2.000 50.040 33.360 37.530
4522 0 1 2.000 52.125 35.445 37.530
4523 0 1 2.000 50.040 35.445 39.615
4524 0 1 2.000 50.040 37.530 0.000
4525 0 1 2.000 52.125 39.615 0.000
4526 0 1 2.000 52.125 37.530 2.085
4527 0 1 2.000 50.040 39.615 2.085
4528 0 1 2.000 50.040 37.530 4.170
4529 0 1 2.000 52.125 39.615 4.170
4530 0 1 2.000 52.125 37.530 6.255
4531 0 1 2.000 50.040 39.615 6.255
4532 0 1 2.000 50.040 37.530 8.340
4533 0 1 2.000 52.125 39.615 8.340
4534 0 1 2.000 52.125 37.530 10.425
4535 0 1 2.000 50.040 39.615 10.425
4536 0 1 2.000 50.040 37.530 12.510
4537 0 1 2.000 52.125 39.615 12.510
4538 0 1 2.000 52.125 37.530 14.595
4539 0 1 2.000 50.040 39.615 14.595
4540 0 1 2.000 50.040 37.530 16.680
4541 0 1 2.000 52.125 39.615 16.680
4542 0 1 2.000 52.125 37.530 18.765
4543 0 1 2.000 50.040 39.615 18.765
4544 0 1 2.000 50.040 37.530 20.850
4545 0 1 2.000 52.125 39.615 20.850
4546 0 1 2.000 52.125 37.530 22.935
4547 0 1 2.000 50.040 39.615 22.935
4548 0 1 2.000 50.040 37.530 25.020
4549 0 1 2.000 52.125 39.615 25.020
4550 0 1 2.000 52.125 37.530 27.105
4551 0 1 2.000 50.040 39.615 27.105
4552 0 1 2.000 50.040 37.530 29.190
4553 0 1 2.000 52.125 39.615 29.190
4554 0 1 2.000 52.125 37.530 31.275
4555 0 1 2.000 50.040 39.615 31.275
4556 0 1 2.000 50.040 37.530 33.360
4557 0 1 2.000 52.125 39.615 33.360
4558 0 1 2.000 52.125 37.530 35.445
4559 0 1 2.000 50.040 39.615 35.445
4560 0 1 2.000 50.040 37.530 37.530
4561 0 1 2.000 52.125 39.615 37.530
4562 0 1 2.000 52.125 37.530 39.615
4563 0 1 2.000 50.040 39.615 39.615
4564 0 1 2.000 54.210 0.000 0.000
4565 0 1 2.000 56.295 2.085 0.000
4566 0 1 2.000 56.295 0.000 2.085
4567 0 1 2.000 54.210 2.085 2.085
4568 0 1 2.000 54.210 0.000 4.170
4569 0 1 2.000 56.295 2.085 4.170
4570 0 1 2.000 56.295 0.000 6.255
4571 0 1 2.000 54.210 2.085 6.255
4572 0 1 2.000 54.210 0.000 8.340
4573 0 1 2.000 56.295 2.085 8.340
4574 0 1 2.000 56.295 0.000 10.425
4575 0 1 2.000 54.210 2.085 10.425
4576 0 1 2.000 54.210 0.000 12.510
4577 0 1 2.000 56.295 2.085 12.510
4578 0 1 2.000 56.295 0.000 14.595
4579 0 1 2.000 54.210 2.085 14.595
4580 0 1 2.000 54.210 0.000 16.680
4581 0 1 2.000 56.295 2.085 16.680
4582 0 1 2.000 56.295 0.000 18.765
4583 0 1 2.000 54.210 2.085 18.765
4584 0 1 2.000 54.210 0.000 20.850
4585 0 1 2.000 56.295 2.085 20.850
4586 0 1 2.000 56.295 0.000 22.935
4587 0 1 2.000 54.210 2.085 22.935
4588 0 1 2.000 54.210 0.000 25.020
4589 0 1 2.000 56.295 2.085 25.020
4590 0 1 2.000 56.295 0.000 27.105
4591 0 1 2.000 54.210 2.085 27.105
4592 0 1 2.000 54.210 0.000 29.190
4593 0 1 2.000 56.295 2.085 29.190
4594 0 1 2.000 56.295 0.000 31.275
4595 0 1 2.000 54.210 2.085 31.275
4596 0 1 2.000 54.210 0.000 33.360
4597 0 1 2.000 56.295 2.085 33.360
4598 0 1 2.000 56.295 0.000 35.445
4599 0 1 2.000 54.210 2.085 35.445
4600 0 1 2.000 54.210 0.000 37.530
4601 0 1 2.000 56.295 2.085 37.530
4602 0 1 2.000 56.295 0.000 39.615
4603 0 1 2.000 54.210 2.085 39.615
4604 0 1 2.000 54.210 4.170 0.000
4605 0 1 2.000 56.295 6.255 0.000
4606 0 1 2.000 56.295 4.170 2.085
4607 0 1 2.000 54.210 6.255 2.085
4608 0 1 2.000 54.210 4.170 4.170
4609 0 1 2.000 56.295 6.255 4.170
4610 0 1 2.000 56.295 4.170 6.255
4611 0 1 2.000 54.210 6.255 6.255
4612 0 1 2.000 54.210 4.170 8.340
4613 0 1 2.000 56.295 6.255 8.340
4614 0 1 2.000 56.295 4.170 10.425
4615 0 1 2.000 54.210 6.255 10.425
4616 0 1 2.000 54.210 4.170 12.510
4617 0 1 2.000 56.295 6.255 12.510
4618 0 1 2.000 56.295 4.170 14.595
4619 0 1 2.000 54.210 6.255 14.595
4620 0 1 2.000 54.210 4.170 16.680
4621 0 1 2.000 56.295 6.255 16.680
4622 0 1 2.000 56.295 4.170 18.765
4623 0 1 2.000 54.210 6.255 18.765
4624 0 1 2.000 54.210 4.170 20.850
4625 0 1 2.000 56.295 6.255 20.850
4626 0 1 2.000 56.295 4.170 22.935
4627 0 1 2.000 54.210 6.255 22.935
4628 0 1 2.000 54.210 4.170 25.020
4629 0 1 2.000 56.295 6.255 25.020
4630 0 1 2.000 56.295 4.170 27.105
4631 0 1 2.000 54.210 6.255 27.105
4632 0 1 2.000 54.210 4.170 29.190
4633 0 1 2.000 56.295 6.255 29.190
4634 0 1 2.000 56.295 4.170 31.275
4635 0 1 2.000 54.210 6.255 31.275
4636 0 1 2.000 54.210 4.170 33.360
4637 0 1 2.000 56.295 6.255 33.360
4638 0 1 2.000 56.295 4.170 35.445
4639 0 1 2.000 54.210 6.255 35.445
4640 0 1 2.000 54.210 4.170 37.530
4641 0 1 2.000 56.295 6.255 37.530
4642 0 1 2.000 56.295 4.170 39.615
4643 0 1 2.000 54.210 6.255 39.615
4644 0 1 2.000 54.210 8.340 0.000
4645 0 1 2.000 56.295 10.425 0.000
4646 0 1 2.000 56.295 8.340 2.085
4647 0 1 2.000 54.210 10.425 2.085
4648 0 1 2.000 54.210 8.340 4.170
4649 0 1 2.000 56.295 10.425 4.170
4650 0 1 2.000 56.295 8.340 6.255
4651 0 1 2.000 54.210 10.425 6.255
4652 0 1 2.000 54.210 8.340 8.340
4653 0 1 2.000 56.295 10.425 8.340
4654 0 1 2.000 56.295 8.340 10.425
4655 0 1 2.000 54.210 10.425 10.425
4656 0 1 2.000 54.210 8.340 12.510
4657 0 1 2.000 56.295 10.425 12.510
4658 0 1 2.000 56.295 8.340 14.595
4659 0 1 2.000 54.210 10.425 14.595
4660 0 1 2.000 54.210 8.340 16.680
4661 0 1 2.000 56.295 10.425 16.680
4662 0 1 2.000 56.295 8.340 18.765
4663 0 1 2.000 54.210 10.425 18.765
4664 0 1 2.000 54.210 8.340 20.850
4665 0 1 2.000 56.295 10.425 20.850
4666 0 1 2.000 56.295 8.340 22.935
4667 0 1 2.000 54.210 10.425 22.935
4668 0 1 2.000 54.210 8.340 25.020
4669 0 1 2.000 56.295 10.425 25.020
4670 0 1 2.000 56.295 8.340 27.105
4671 0 1 2.000 54.210 10.425 27.105
4672 0 1 2.000 54.210 8.340 29.190
4673 0 1 2.000 56.295 10.425 29.190
4674 0 1 2.000 56.295 8.340 31.275
4675 0 1 2.000 54.210 10.425 31.275
4676 0 1 2.000 54.210 8.340 33.360
4677 0 1 2.000 56.295 10.425 33.360
4678 0 1 2.000 56.295 8.340 35.445
4679 0 1 2.000 54.210 10.425 35.445
4680 0 1 2.000 54.210 8.340 37.530
4681 0 1 2.000 54.210 12.510 0.000
4682 0 1 2.000 56.295 14.595 0.000
4683 0 1 2.000 56.295 12.510 2.085
4684 0 1 2.000 54.210 14.595 2.085
4685 0 1 2.000 54.210 12.510 4.170
4686 0 1 2.000 56.295 14.595 4.170
4687 0 1 2.000 56.295 12.510 6.255
4688 0 1 2.000 54.210 14.595 6.255
4689 0 1 2.000 54.210 12.510 8.340
4690 0 1 2.000 56.295 14.595 8.340
4691 0 1 2.000 56.295 12.510 10.425
4692 0 1 2.000 54.210 14.595 10.425
4693 0 1 2.000 54.210 12.510 12.510
4694 0 1 2.000 56.295 14.595 12.510
4695 0 1 2.000 56.295 12.510 14.595
4696 0 1 2.000 54.210 14.595 14.595
4697 0 1 2.000 54.210 12.510 16.680
4698 0 1 2.000 56.295 14.595 16.680
4699 0 1 2.000 56.295 12.510 18.765
4700 0 1 2.000 54.210 14.595 18.765
4701 0 1 2.000 54.210 12.510 20.850
4702 0 1 2.000 56.295 14.595 20.850
4703 0 1 2.000 56.295 12.510 22.935
4704 0 1 2.000 54.210 14.595 22.935
4705 0 1 2.000 54.210 12.510 25.020
4706 0 1 2.000 56.295 14.595 25.020
4707 0 1 2.000 56.295 12.510 27.105
4708 0 1 2.000 54.210 14.595 27.105
4709 0 1 2.000 54.210 12.510 29.190
4710 0 1 2.000 56.295 14.595 29.190
4711 0 1 2.000 56.295 12.510 31.275
4712 0 1 2.000 54.210 14.595 31.275
4713 0 1 2.000 54.210 12.510 33.360
4714 0 1 2.000 54.210 16.680 0.000
4715 0 1 2.000 56.295 18.765 0.000
4716 0 1 2.000 56.295 16.680 2.085
4717 0 1 2.000 54.210 18.765 2.085
4718 0 1 2.000 54.210 16.680 4.170
4719 0 1 2.000 56.295 18.765 4.170
4720 0 1 2.000 56.295 16.680 6.255
4721 0 1 2.000 54.210 18.765 6.255
4722 0 1 2.000 54.210 16.680 8.340
4723 0 1 2.000 56.295 18.765 8.340
4724 0 1 2.000 56.295 16.680 10.425
4725 0 1 2.000 54.210 18.765 10.425
4726 0 1 2.000 54.210 16.680 12.510
4727 0 1 2.000 56.295 18.765 12.510
4728 0 1 2.000 56.295 16.680 14.595
4729 0 1 2.000 54.210 18.765 14.595
4730 0 1 2.000 54.210 16.680 16.680
4731 0 1 2.000 56.295 18.765 16.680
4732 0 1 2.000 56.295 16.680 18.765
4733 0 1 2.000 54.210 18.765 18.765
4734 0 1 2.000 54.210 16.680 20.850
4735 0 1 2.000 56.295 18.765 20.850
4736 0 1 2.000 56.295 16.680 22.935
4737 0 1 2.000 54.210 18.765 22.935
4738 0 1 2.000 54.210 16.680 25.020
4739 0 1 2.000 56.295 18.765 25.020
4740 0 1 2.000 56.295 16.680 27.105
4741 0 1 2.000 54.210 18.765 27.105
4742 0 1 2.000 54.210 16.680 29.190
4743 0 1 2.000 54.210 20.850 0.000
4744 0 1 2.000 56.295 22.935 0.000
4745 0 1 2.000 56.295 20.850 2.085
4746 0 1 2.000 54.210 22.935 2.085
4747 0 1 2.000 54.210 20.850 4.170
4748 0 1 2.000 56.295 22.935 4.170
4749 0 1 2.000 56.295 20.850 6.255
4750 0 1 2.000 54.210 22.935 6.255
4751 0 1 2.000 54.210 20.850 8.340
4752 0 1 2.000 56.295 22.935 8.340
4753 0 1 2.000 56.295 20.850 10.425
4754 0 1 2.000 54.210 22.935 10.425
4755 0 1 2.000 54.210 20.850 12.510
4756 0 1 2.000 56.295 22.935 12.510
4757 0 1 2.000 56.295 20.850 14.595
4758 0 1 2.000 54.210 22.935 14.595
4759 0 1 2.000 54.210 20.850 16.680
4760 0 1 2.000 56.295 22.935 16.680
4761 0 1 2.000 56.295 20.850 18.765
4762 0 1 2.000 54.210 22.935 18.765
4763 0 1 2.000 54.210 20.850 20.850
4764 0 1 2.000 56.295 22.935 20.850
4765 0 1 2.000 56.295 20.850 22.935
4766 0 1 2.000 54.210 22.935 22.935
4767 0 1 2.000 54.210 20.850 25.020
4768 0 1 2.000 56.295 22.935 25.020
4769 0 1 2.000 54.210 22.935 27.105
4770 0 1 2.000 54.210 25.020 0.000
4771 0 1 2.000 56.295 27.105 0.000
4772 0 1 2.000 56.295 25.020 2.085
4773 0 1 2.000 54.210 27.105 2.085
4774 0 1 2.000 54.210 25.020 4.170
4775 0 1 2.000 56.295 27.105 4.170
4776 0 1 2.000 56.295 25.020 6.255
4777 0 1 2.000 54.210 27.105 6.255
4778 0 1 2.000 54.210 25.020 8.340
4779 0 1 2.000 56.295 27.105 8.340
4780 0 1 2.000 56.295 25.020 10.425
4781 0 1 2.000 54.210 27.105 10.425
4782 0 1 2.000 54.210 25.020 12.510
4783 0 1 2.000 56.295 27.105 12.510
4784 0 1 2.000 56.295 25.020 14.595
4785 0 1 2.000 54.210 27.105 14.595
4786 0 1 2.000 54.210 25.020 16.680
4787 0 1 2.000 56.295 27.105 16.680
4788 0 1 2.000 56.295 25.020 18.765
4789 0 1 2.000 54.210 27.105 18.765
4790 0 1 2.000 54.210 25.020 20.850
4791 0 1 2.000 56.295 27.105 20.850
4792 0 1 2.000 56.295 25.020 22.935
4793 0 1 2.000 54.210 27.105 22.935
4794 0 1 2.000 54.210 25.020 25.020
4795 0 1 2.000 56.295 27.105 25.020
4796 0 1 2.000 56.295 25.020 27.105
4797 0 1 2.000 54.210 27.105 27.105
4798 0 1 2.000 54.210 25.020 29.190
4799 0 1 2.000 56.295 27.105 29.190
4800 0 1 2.000 54.210 27.105 31.275
4801 0 1 2.000 54.210 29.190 0.000
4802 0 1 2.000 56.295 31.275 0.000
4803 0 1 2.000 56.295 29.190 2.085
4804 0 1 2.000 54.210 31.275 2.085
4805 0 1 2.000 54.210 29.190 4.170
4806 0 1 2.000 56.295 31.275 4.170
4807 0 1 2.000 56.295 29.190 6.255
4808 0 1 2.000 54.210 31.275 6.255
4809 0 1 2.000 54.210 29.190 8.340
4810 0 1 2.000 56.295 31.275 8.340
4811 0 1 2.000 56.295 29.190 10.425
4812 0 1 2.000 54.210 31.275 10.425
4813 0 1 2.000 54.210 29.190 12.510
4814 0 1 2.000 56.295 31.275 12.510
4815 0 1 2.000 56.295 29.190 14.595
4816 0 1 2.000 54.210 31.275 14.595
4817 0 1 2.000 54.210 29.190 16.680
4818 0 1 2.000 56.295 31.275 16.680
4819 0 1 2.000 56.295 29.190 18.765
4820 0 1 2.000 54.210 31.275 18.765
4821 0 1 2.000 54.210 29.190 20.850
4822 0 1 2.000 56.295 31.275 20.850
4823 0 1 2.000 56.295 29.190 22.935
4824 0 1 2.000 54.210 31.275 22.935
4825 0 1 2.000 54.210 29.190 25.020
4826 0 1 2.000 56.295 31.275 25.020
4827 0 1 2.000 56.295 29.190 27.105
4828 0 1 2.000 54.210 31.275 27.105
4829 0 1 2.000 54.210 29.190 29.190
4830 0 1 2.000 56.295 31.275 29.190
4831 0 1 2.000 56.295 29.190 31.275
4832 0 1 2.000 54.210 31.275 31.275
4833 0 1 2.000 54.210 29.190 33.360
4834 0 1 2.000 56.295 31.275 33.360
4835 0 1 2.000 54.210 31.275 35.445
4836 0 1 2.000 54.210 33.360 0.000
4837 0 1 2.000 56.295 35.445 0.000
4838 0 1 2.000 56.295 33.360 2.085
4839 0 1 2.000 54.210 35.445 2.085
4840 0 1 2.000 54.210 33.360 4.170
4841 0 1 2.000 56.295 35.445 4.170
4842 0 1 2.000 56.295 33.360 6.255
4843 0 1 2.000 54.210 35.445 6.255
4844 0 1 2.000 54.210 33.360 8.340
4845 0 1 2.000 56.295 35.445 8.340
4846 0 1 2.000 56.295 33.360 10.425
4847 0 1 2.000 54.210 35.445 10.425
4848 0 1 2.000 54.210 33.360 12.510
4849 0 1 2.000 56.295 35.445 12.510
4850 0 1 2.000 56.295 33.360 14.595
4851 0 1 2.000 54.210 35.445 14.595
4852 0 1 2.000 54.210 33.360 16.680
4853 0 1 2.000 56.295 35.445 16.680
4854 0 1 2.000 56.295 33.360 18.765
4855 0 1 2.000 54.210 35.445 18.765
4856 0 1 2.000 54.210 33.360 20.850
4857 0 1 2.000 56.295 35.445 20.850
4858 0 1 2.000 56.295 33.360 22.935
4859 0 1 2.000 54.210 35.445 22.935
4860 0 1 2.000 54.210 33.360 25.020
4861 0 1 2.000 56.295 35.445 25.020
4862 0 1 2.000 56.295 33.360 27.105
4863 0 1 2.000 54.210 35.445 27.105
4864 0 1 2.000 54.210 33.360 29.190
4865 0 1 2.000 56.295 35.445 29.190
4866 0 1 2.000 56.295 33.360 31.275
4867 0 1 2.000 54.210 35.445 31.275
4868 0 1 2.000 54.210 33.360 33.360
4869 0 1 2.000 56.295 35.445 33.360
4870 0 1 2.000 56.295 33.360 35.445
4871 0 1 2.000 54.210 35.445 35.445
4872 0 1 2.000 54.210 33.360 37.530
4873 0 1 2.000 56.295 35.445 37.530
4874 0 1 2.000 54.210 35.445 39.615
4875 0 1 2.000 54.210 37.530 0.000
4876 0 1 2.000 56.295 39.615 0.000
4877 0 1 2.000 56.295 37.530 2.085
4878 0 1 2.000 54.210 39.615 2.085
4879 0 1 2.000 54.210 37.530 4.170
4880 0 1 2.000 56.295 39.615 4.170
4881 0 1 2.000 56.295 37.530 6.255
4882 0 1 2.000 54.210 39.615 6.255
4883 0 1 2.000 54.210 37.530 8.340
4884 0 1 2.000 56.295 39.615 8.340
4885 0 1 2.000 56.295 37.530 10.425
4886 0 1 2.000 54.210 39.615 10.425
4887 0 1 2.000 54.210 37.530 12.510
4888 0 1 2.000 56.295 39.615 12.510
4889 0 1 2.000 56.295 37.530 14.595
4890 0 1 2.000 54.210 39.615 14.595
4891 0 1 2.000 54.210 37.530 16.680
4892 0 1 2.000 56.295 39.615 16.680
4893 0 1 2.000 56.295 37.530 18.765
4894 0 1 2.000 54.210 39.615 18.765
4895 0 1 2.000 54.210 37.530 20.850
4896 0 1 2.000 56.295 39.615 20.850
4897 0 1 2.000 56.295 37.530 22.935
4898 0 1 2.000 54.210 39.615 22.935
4899 0 1 2.000 54.210 37.530 25.020
4900 0 1 2.000 56.295 39.615 25.020
4901 0 1 2.000 56.295 37.530 27.105
4902 0 1 2.000 54.210 39.615 27.105
4903 0 1 2.000 54.210 37.530 29.190
4904 0 1 2.000 56.295 39.615 29.190
4905 0 1 2.000 56.295 37.530 31.275
4906 0 1 2.000 54.210 39.615 31.275
4907 0 1 2.000 54.210 37.530 33.360
4908 0 1 2.000 56.295 39.615 33.360
4909 0 1 2.000 56.295 37.530 35.445
4910 0 1 2.000 54.210 39.615 35.445
4911 0 1 2.000 54.210 37.530 37.530
4912 0 1 2.000 56.295 39.615 37.530
4913 0 1 2.000 56.295 37.530 39.615
4914 0 1 2.000 54.210 39.615 39.615
4915 0 1 2.000 58.380 0.000 0.000
4916 0 1 2.000 60.465 2.085 0.000
4917 0 1 2.000 60.465 0.000 2.085
4918 0 1 2.000 58.380 2.085 2.085
4919 0 1 2.000 58.380 0.000 4.170
4920 0 1 2.000 60.465 2.085 4.170
4921 0 1 2.000 60.465 0.000 6.255
4922 0 1 2.000 58.380 2.085 6.255
4923 0 1 2.000 58.380 0.000 8.340
4924 0 1 2.000 60.465 2.085 8.340
4925 0 1 2.000 60.465 0.000 10.425
4926 0 1 2.000 58.380 2.085 10.425
4927 0 1 2.000 58.380 0.000 12.510
4928 0 1 2.000 60.465 2.085 12.510
4929 0 1 2.000 60.465 0.000 14.595
4930 0 1 2.000 58.380 2.085 14.595
4931 0 1 2.000 58.380 0.000 16.680
4932 0 1 2.000 60.465 2.085 16.680
4933 0 1 2.000 60.465 0.000 18.765
4934 0 1 2.000 58.380 2.085 18.765
4935 0 1 2.000 58.380 0.000 20.850
4936 0 1 2.000 60.465 2.085 20.850
4937 0 1 2.000 60.465 0.000 22.935
4938 0 1 2.000 58.380 2.085 22.935
4939 0 1 2.000 58.380 0.000 25.020
4940 0 1 2.000 60.465 2.085 25.020
4941 0 1 2.000 60.465 0.000 27.105
4942 0 1 2.000 58.380 2.085 27.105
4943 0 1 2.000 58.380 0.000 29.190
4944 0 1 2.000 60.465 2.085 29.190
4945 0 1 2.000 60.465 0.000 31.275
4946 0 1 2.000 58.380 2.085 31.275
4947 0 1 2.000 58.380 0.000 33.360
4948 0 1 2.000 60.465 2.085 33.360
4949 0 1 2.000 60.465 0.000 35.445
4950 0 1 2.000 58.380 2.085 35.445
4951 0 1 2.000 58.380 0.000 37.530
4952 0 1 2.000 60.465 2.085 37.530
4953 0 1 2.000 60.465 0.000 39.615
4954 0 1 2.000 58.380 2.085 39.615
4955 0 1 2.000 58.380 4.170 0.000
4956 0 1 2.000 60.465 6.255 0.000
4957 0 1 2.000 60.465 4.170 2.085
4958 0 1 2.000 58.380 6.255 2.085
4959 0 1 2.000 58.380 4.170 4.170
4960 0 1 2.000 60.465 6.255 4.170
4961 0 1 2.000 60.465 4.170 6.255
4962 0 1 2.000 58.380 6.255 6.255
4963 0 1 2.000 58.380 4.170 8.340
4964 0 1 2.000 60.465 6.255 8.340
4965 0 1 2.000 60.465 4.170 10.425
4966 0 1 2.000 58.380 6.255 10.425
4967 0 1 2.000 58.380 4.170 12.510
4968 0 1 2.000 60.465 6.255 12.510
4969 0 1 2.000 60.465 4.170 14.595
4970 0 1 2.000 58.380 6.255 14.595
4971 0 1 2.000 58.380 4.170 16.680
4972 0 1 2.000 60.465 6.255 16.680
4973 0 1 2.000 60.465 4.170 18.765
4974 0 1 2.000 58.380 6.255 18.765
4975 0 1 2.000 58.380 4.170 20.850
4976 0 1 2.000 60.465 6.255 20.850
4977 0 1 2.000 60.465 4.170 22.935
4978 0 1 2.000 58.380 6.255 22.935
4979 0 1 2.000 58.380 4.170 25.020
4980 0 1 2.000 60.465 6.255 25.020
4981 0 1 2.000 60.465 4.170 27.105
4982 0 1 2.000 58.380 6.255 27.105
4983 0 1 2.000 58.380 4.170 29.190
4984 0 1 2.000 60.465 6.255 29.190
4985 0 1 2.000 60.465 4.170 31.275
4986 0 1 2.000 58.380 6.255 31.275
4987 0 1 2.000 58.380 4.170 33.360
4988 0 1 2.000 60.465 6.255 33.360
4989 0 1 2.000 60.465 4.170 35.445
4990 0 1 2.000 58.380 6.255 35.445
4991 0 1 2.000 58.380 4.170 37.530
4992 0 1 2.000 60.465 6.255 37.530
4993 0 1 2.000 60.465 4.170 39.615
4994 0 1 2.000 58.380 6.255 39.615
4995 0 1 2.000 58.380 8.340 0.000
4996 0 1 2.000 60.465 10.425 0.000
4997 0 1 2.000 60.465 8.340 2.085
4998 0 1 2.000 58.380 10.425 2.085
4999 0 1 2.000 58.380 8.340 4.170
5000 0 1 2.000 60.465 10.425 4.170
5001 0 1 2.000 60.465 8.340 6.255
5002 0 1 2.000 58.380 10.425 6.255
5003 0 1 2.000 58.380 8.340 8.340
5004 0 1 2.000 60.465 10.425 8.340
5005 0 1 2.000 60.465 8.340 10.425
5006 0 1 2.000 58.380 10.425 10.425
5007 0 1 2.000 58.380 8.340 12.510
5008 0 1 2.000 60.465 10.425 12.510
5009 0 1 2.000 60.465 8.340 14.595
5010 0 1 2.000 58.380 10.425 14.595
5011 0 1 2.000 58.380 8.340 16.680
5012 0 1 2.000 60.465 10.425 16.680
5013 0 1 2.000 60.465 8.340 18.765
5014 0 1 2.000 58.380 10.425 18.765
5015 0 1 2.000 58.380 8.340 20.850
5016 0 1 2.000 60.465 10.425 20.850
5017 0 1 2.000 60.465 8.340 22.935
5018 0 1 2.000 58.380 10.425 22.935
5019 0 1 2.000 58.380 8.340 25.020
5020 0 1 2.000 60.465 10.425 25.020
5021 0 1 2.000 60.465 8.340 27.105
5022 0 1 2.000 58.380 10.425 27.105
5023 0 1 2.000 58.380 8.340 29.190
5024 0 1 2.000 60.465 10.425 29.190
5025 0 1 2.000 60.465 8.340 31.275
5026 0 1 2.000 58.380 10.425 31.275
5027 0 1 2.000 58.380 8.340 33.360
5028 0 1 2.000 60.465 10.425 33.360
5029 0 1 2.000 60.465 8.340 35.445
5030 0 1 2.000 58.380 10.425 35.445
5031 0 1 2.000 58.380 8.340 37.530
5032 0 1 2.000 58.380 12.510 0.000
5033 0 1 2.000 60.465 14.595 0.000
5034 0 1 2.000 60.465 12.510 2.085
5035 0 1 2.000 58.380 14.595 2.085
5036 0 1 2.000 58.380 12.510 4.170
5037 0 1 2.000 60.465 14.595 4.170
5038 0 1 2.000 60.465 12.510 6.255
5039 0 1 2.000 58.380 14.595 6.255
5040 0 1 2.000 58.380 12.510 8.340
5041 0 1 2.000 60.465 14.595 8.340
5042 0 1 2.000 60.465 12.510 10.425
5043 0 1 2.000 58.380 14.595 10.425
5044 0 1 2.000 58.380 12.510 12.510
5045 0 1 2.000 60.465 14.595 12.510
5046 0 1 2.000 60.465 12.510 14.595
5047 0 1 2.000 58.380 14.595 14.595
5048 0 1 2.000 58.380 12.510 16.680
5049 0 1 2.000 60.465 14.595 16.680
5050 0 1 2.000 60.465 12.510 18.765
5051 0 1 2.000 58.380 14.595 18.765
5052 0 1 2.000 58.380 12.510 20.850
5053 0 1 2.000 60.465 14.595 20.850
5054 0 1 2.000 60.465 12.510 22.935
5055 0 1 2.000 58.380 14.595 22.935
5056 0 1 2.000 58.380 12.510 25.020
5057 0 1 2.000 60.465 14.595 25.020
5058 0 1 2.000 60.465 12.510 27.105
5059 0 1 2.000 58.380 14.595 27.105
5060 0 1 2.000 58.380 12.510 29.190
5061 0 1 2.000 60.465 14.595 29.190
5062 0 1 2.000 60.465 12.510 31.275
5063 0 1 2.000 58.380 14.595 31.275
5064 0 1 2.000 58.380 12.510 33.360
5065 0 1 2.000 58.380 16.680 0.000
5066 0 1 2.000 60.465 18.765 0.000
5067 0 1 2.000 60.465 16.680 2.085
5068 0 1 2.000 58.380 18.765 2.085
5069 0 1 2.000 58.380 16.680 4.170
5070 0 1 2.000 60.465 18.765 4.170
5071 0 1 2.000 60.465 16.680 6.255
5072 0 1 2.000 58.380 18.765 6.255
5073 0 1 2.000 58.380 16.680 8.340
5074 0 1 2.000 60.465 18.765 8.340
5075 0 1 2.000 60.465 16.680 10.425
5076 0 1 2.000 58.380 18.765 10.425
5077 0 1 2.000 58.380 16.680 12.510
5078 0 1 2.000 60.465 18.765 12.510
5079 0 1 2.000 60.465 16.680 14.595
5080 0 1 2.000 58.380 18.765 14.595
5081 0 1 2.000 58.380 16.680 16.680
5082 0 1 2.000 60.465 18.765 16.680
5083 0 1 2.000 60.465 16.680 18.765
5084 0 1 2.000 58.380 18.765 18.765
5085 0 1 2.000 58.380 16.680 20.850
5086 0 1 2.000 60.465 18.765 20.850
5087 0 1 2.000 60.465 16.680 22.935
5088 0 1 2.000 58.380 18.765 22.935
5089 0 1 2.000 58.380 16.680 25.020
5090 0 1 2.000 60.465 18.765 25.020
5091 0 1 2.000 60.465 16.680 27.105
5092 0 1 2.000 58.380 18.765 27.105
5093 0 1 2.000 58.380 16.680 29.190
5094 0 1 2.000 58.380 20.850 0.000
5095 0 1 2.000 60.465 22.935 0.000
5096 0 1 2.000 60.465 20.850 2.085
5097 0 1 2.000 58.380 22.935 2.085
5098 0 1 2.000 58.380 20.850 4.170
5099 0 1 2.000 60.465 22.935 4.170
5100 0 1 2.000 60.465 20.850 6.255
5101 0 1 2.000 58.380 22.935 6.255
5102 0 1 2.000 58.380 20.850 8.340
5103 0 1 2.000 60.465 22.935 8.340
5104 0 1 2.000 60.465 20.850 10.425
5105 0 1 2.000 58.380 22.935 10.425
5106 0 1 2.000 58.380 20.850 12.510
5107 0 1 2.000 60.465 22.935 12.510
5108 0 1 2.000 60.465 20.850 14.595
5109 0 1 2.000 58.380 22.935 14.595
5110 0 1 2.000 58.380 20.850 16.680
5111 0 1 2.000 60.465 22.935 16.680
5112 0 1 2.000 60.465 20.850 18.765
5113 0 1 2.000 58.380 22.935 18.765
5114 0 1 2.000 58.380 20.850 20.850
5115 0 1 2.000 60.465 22.935 20.850
5116 0 1 2.000 60.465 20.850 22.935
5117 0 1 2.000 58.380 22.935 22.935
5118 0 1 2.000 58.380 20.850 25.020
5119 0 1 2.000 60.465 22.935 25.020
5120 0 1 2.000 58.380 22.935 27.105
5121 0 1 2.000 58.380 25.020 0.000
5122 0 1 2.000 60.465 27.105 0.000
5123 0 1 2.000 60.465 25.020 2.085
5124 0 1 2.000 58.380 27.105 2.085
5125 0 1 2.000 58.380 25.020 4.170
5126 0 1 2.000 60.465 27.105 4.170
5127 0 1 2.000 60.465 25.020 6.255
5128 0 1 2.000 58.380 27.105 6.255
5129 0 1 2.000 58.380 25.020 8.340
5130 0 1 2.000 60.465 27.105 8.340
5131 0 1 2.000 60.465 25.020 10.425
5132 0 1 2.000 58.380 27.105 10.425
5133 0 1 2.000 58.380 25.020 12.510
5134 0 1 2.000 60.465 27.105 12.510
5135 0 1 2.000 60.465 25.020 14.595
5136 0 1 2.000 58.380 27.105 14.595
5137 0 1 2.000 58.380 25.020 16.680
5138 0 1 2.000 60.465 27.105 16.680
5139 0 1 2.000 60.465 25.020 18.765
5140 0 1 2.000 58.380 27.105 18.765
5141 0 1 2.000 58.380 25.020 20.850
5142 0 1 2.000 60.465 27.105 20.850
5143 0 1 2.000 60.465 25.020 22.935
5144 0 1 2.000 58.380 27.105 22.935
5145 0 1 2.000 58.380 25.020 25.020
5146 0 1 2.000 60.465 27.105 25.020
5147 0 1 2.000 60.465 25.020 27.105
5148 0 1 2.000 58.380 27.105 27.105
5149 0 1 2.000 58.380 25.020 29.190
5150 0 1 2.000 60.465 27.105 29.190
5151 0 1 2.000 58.380 27.105 31.275
5152 0 1 2.000 58.380 29.190 0.000
5153 0 1 2.000 60.465 31.275 0.000
5154 0 1 2.000 60.465 29.190 2.085
5155 0 1 2.000 58.380 31.275 2.085
5156 0 1 2.000 58.380 29.190 4.170
5157 0 1 2.000 60.465 31.275 4.170
5158 0 1 2.000 60.465 29.190 6.255
5159 0 1 2.000 58.380 31.275 6.255
5160 0 1 2.000 58.380 29.190 8.340
5161 0 1 2.000 60.465 31.275 8.340
5162 0 1 2.000 60.465 29.190 10.425
5163 0 1 2.000 58.380 31.275 10.425
5164 0 1 2.000 58.380 29.190 12.510
5165 0 1 2.000 60.465 31.275 12.510
5166 0 1 2.000 60.465 29.190 14.595
5167 0 1 2.000 58.380 31.275 14.595
5168 0 1 2.000 58.380 29.190 16.680
5169 0 1 2.000 60.465 31.275 16.680
5170 0 1 2.000 60.465 29.190 18.765
5171 0 1 2.000 58.380 31.275 18.765
5172 0 1 2.000 58.380 29.190 20.850
5173 0 1 2.000 60.465 31.275 20.850
5174 0 1 2.000 60.465 29.190 22.935
5175 0 1 2.000 58.380 31.275 22.935
5176 0 1 2.000 58.380 29.190 25.020
5177 0 1 2.000 60.465 31.275 25.020
5178 0 1 2.000 60.465 29.190 27.105
5179 0 1 2.000 58.380 31.275 27.105
5180 0 1 2.000 58.380 29.190 29.190
5181 0 1 2.000 60.465 31.275 29.190
5182 0 1 2.000 60.465 29.190 31.275
5183 0 1 2.000 58.380 31.275 31.275
5184 0 1 2.000 58.380 29.190 33.360
5185 0 1 2.000 60.465 31.275 33.360
5186 0 1 2.000 58.380 31.275 35.445
5187 0 1 2.000 58.380 33.360 0.000
5188 0 1 2.000 60.465 35.445 0.000
5189 0 1 2.000 60.465 33.360 2.085
5190 0 1 2.000 58.380 35.445 2.085
5191 0 1 2.000 58.380 33.360 4.170
5192 0 1 2.000 60.465 35.445 4.170
5193 0 1 2.000 60.465 33.360 6.255
5194 0 1 2.000 58.380 35.445 6.255
5195 0 1 2.000 58.380 33.360 8.340
5196 0 1 2.000 60.465 35.445 8.340
5197 0 1 2.000 60.465 33.360 10.425
5198 0 1 2.000 58.380 35.445 10.425
5199 0 1 2.000 58.380 33.360 12.510
5200 0 1 2.000 60.465 35.445 12.510
5201 0 1 2.000 60.465 33.360 14.595
5202 0 1 2.000 58.380 35.445 14.595
5203 0 1 2.000 58.380 33.360 16.680
5204 0 1 2.000 60.465 35.445 16.680
5205 0 1 2.000 60.465 33.360 18.765
5206 0 1 2.000 58.380 35.445 18.765
5207 0 1 2.000 58.380 33.360 20.850
5208 0 1 2.000 60.465 35.445 20.850
5209 0 1 2.000 60.465 33.360 22.935
5210 0 1 2.000 58.380 35.445 22.935
5211 0 1 2.000 58.380 33.360 25.020
5212 0 1 2.000 60.465 35.445 25.020
5213 0 1 2.000 60.465 33.360 27.105
5214 0 1 2.000 58.380 35.445 27.105
5215 0 1 2.000 58.380 33.360 29.190
5216 0 1 2.000 60.465 35.445 29.190
5217 0 1 2.000 60.465 33.360 31.275
5218 0 1 2.000 58.380 35.445 31.275
5219 0 1 2.000 58.380 33.360 33.360
5220 0 1 2.000 60.465 35.445 33.360
5221 0 1 2.000 60.465 33.360 35.445
5222 0 1 2.000 58.380 35.445 35.445
5223 0 1 2.000 58.380 33.360 37.530
5224 0 1 2.000 60.465 35.445 37.530
5225 0 1 2.000 58.380 35.445 39.615
5226 0 1 2.000 58.380 37.530 0.000
5227 0 1 2.000 60.465 39.615 0.000
5228 0 1 2.000 60.465 37.530 2.085
5229 0 1 2.000 58.380 39.615 2.085
5230 0 1 2.000 58.380 37.530 4.170
5231 0 1 2.000 60.465 39.615 4.170
5232 0 1 2.000 60.465 37.530 6.255
5233 0 1 2.000 58.380 39.615 6.255
5234 0 1 2.000 58.380 37.530 8.340
5235 0 1 2.000 60.465 39.615 8.340
5236 0 1 2.000 60.465 37.530 10.425
5237 0 1 2.000 58.380 39.615 10.425
5238 0 1 2.000 58.380 37.530 12.510
5239 0 1 2.000 60.465 39.615 12.510
5240 0 1 2.000 60.465 37.530 14.595
5241 0 1 2.000 58.380 39.615 14.595
5242 0 1 2.000 58.380 37.530 16.680
5243 0 1 2.000 60.465 39.615 16.680
5244 0 1 2.000 60.465 37.530 18.765
5245 0 1 2.000 58.380 39.615 18.765
5246 0 1 2.000 58.380 37.530 20.850
5247 0 1 2.000 60.465 39.615 20.850
5248 0 1 2.000 60.465 37.530 22.935
5249 0 1 2.000 58.380 39.615 22.935
5250 0 1 2.000 58.380 37.530 25.020
5251 0 1 2.000 60.465 39.615 25.020
5252 0 1 2.000 60.465 37.530 27.105
5253 0 1 2.000 58.380 39.615 27.105
5254 0 1 2.000 58.380 37.530 29.190
5255 0 1 2.000 60.465 39.615 29.190
5256 0 1 2.000 60.465 37.530 31.275
5257 0 1 2.000 58.380 39.615 31.275
5258 0 1 2.000 58.380 37.530 33.360
5259 0 1 2.000 60.465 39.615 33.360
5260 0 1 2.000 60.465 37.530 35.445
5261 0 1 2.000 58.380 39.615 35.445
5262 0 1 2.000 58.380 37.530 37.530
5263 0 1 2.000 60.465 39.615 37.530
5264 0 1 2.000 60.465 37.530 39.615
5265 0 1 2.000 58.380 39.615 39.615
5266 0 1 2.000 62.550 0.000 0.000
5267 0 1 2.000 64.635 2.085 0.000
5268 0 1 2.000 64.635 0.000 2.085
5269 0 1 2.000 62.550 2.085 2.085
5270 0 1 2.000 62.550 0.000 4.170
5271 0 1 2.000 64.635 2.085 4.170
5272 0 1 2.000 64.635 0.000 6.255
5273 0 1 2.000 62.550 2.085 6.255
5274 0 1 2.000 62.550 0.000 8.340
5275 0 1 2.000 64.635 2.085 8.340
5276 0 1 2.000 64.635 0.000 10.425
5277 0 1 2.000 62.550 2.085 10.425
5278 0 1 2.000 62.550 0.000 12.510
5279 0 1 2.000 64.635 2.085 12.510
5280 0 1 2.000 64.635 0.000 14.595
5281 0 1 2.000 62.550 2.085 14.595
5282 0 1 2.000 62.550 0.000 16.680
5283 0 1 2.000 64.635 2.085 16.680
5284 0 1 2.000 64.635 0.000 18.765
5285 0 1 2.000 62.550 2.085 18.765
5286 0 1 2.000 62.550 0.000 20.850
5287 0 1 2.000 64.635 2.085 20.850
5288 0 1 2.000 64.635 0.000 22.935
5289 0 1 2.000 62.550 2.085 22.935
5290 0 1 2.000 62.550 0.000 25.020
5291 0 1 2.000 64.635 2.085 25.020
5292 0 1 2.000 64.635 0.000 27.105
5293 0 1 2.000 62.550 2.085 27.105
5294 0 1 2.000 62.550 0.000 29.190
5295 0 1 2.000 64.635 2.085 29.190
5296 0 1 2.000 64.635 0.000 31.275
5297 0 1 2.000 62.550 2.085 31.275
5298 0 1 2.000 62.550 0.000 33.360
5299 0 1 2.000 64.635 2.085 33.360
5300 0 1 2.000 64.635 0.000 35.445
5301 0 1 2.000 62.550 2.085 35.445
5302 0 1 2.000 62.550 0.000 37.530
5303 0 1 2.000 64.635 2.085 37.530
5304 0 1 2.000 64.635 0.000 39.615
5305 0 1 2.000 62.550 2.085 39.615
5306 0 1 2.000 62.550 4.170 0.000
5307 0 1 2.000 64.635 6.255 0.000
5308 0 1 2.000 64.635 4.170 2.085
5309 0 1 2.000 62.550 6.255 2.085
5310 0 1 2.000 62.550 4.170 4.170
5311 0 1 2.000 64.635 6.255 4.170
5312 0 1 2.000 64.635 4.170 6.255
5313 0 1 2.000 62.550 6.255 6.255
5314 0 1 2.000 62.550 4.170 8.340
5315 0 1 2.000 64.635 6.255 8.340
5316 0 1 2.000 64.635 4.170 10.425
5317 0 1 2.000 62.550 6.255 10.425
5318 0 1 2.000 62.550 4.170 12.510
5319 0 1 2.000 64.635 6.255 12.510
5320 0 1 2.000 64.635 4.170 14.595
5321 0 1 2.000 62.550 6.255 14.595
5322 0 1 2.000 62.550 4.170 16.680
5323 0 1 2.000 64.635 6.255 16.680
5324 0 1 2.000 64.635 4.170 18.765
5325 0 1 2.000 62.550 6.255 18.765
5326 0 1 2.000 62.550 4.170 20.850
5327 0 1 2.000 64.635 6.255 20.850
5328 0 1 2.000 64.635 4.170 22.935
5329 0 1 2.000 62.550 6.255 22.935
5330 0 1 2.000 62.550 4.170 25.020
5331 0 1 2.000 64.635 6.255 25.020
5332 0 1 2.000 64.635 4.170 27.105
5333 0 1 2.000 62.550 6.255 27.105
5334 0 1 2.000 62.550 4.170 29.190
5335 0 1 2.000 64.635 6.255 29.190
5336 0 1 2.000 64.635 4.170 31.275
5337 0 1 2.000 62.550 6.255 31.275
5338 0 1 2.000 62.550 4.170 33.360
5339 0 1 2.000 64.635 6.255 33.360
5340 0 1 2.000 64.635 4.170 35.445
5341 0 1 2.000 62.550 6.255 35.445
5342 0 1 2.000 62.550 4.170 37.530
5343 0 1 2.000 64.635 6.255 37.530
5344 0 1 2.000 64.635 4.170 39.615
5345 0 1 2.000 62.550 6.255 39.615
5346 0 1 2.000 62.550 8.340 0.000
5347 0 1 2.000 64.635 10.425 0.000
5348 0 1 2.000 64.635 8.340 2.085
5349 0 1 2.000 62.550 10.425 2.085
5350 0 1 2.000 62.550 8.340 4.170
5351 0 1 2.000 64.635 10.425 4.170
5352 0 1 2.000 64.635 8.340 6.255
5353 0 1 2.000 62.550 10.425 6.255
5354 0 1 2.000 62.550 8.340 8.340
5355 0 1 2.000 64.635 10.425 8.340
5356 0 1 2.000 64.635 8.340 10.425
5357 0 1 2.000 62.550 10.425 10.425
5358 0 1 2.000 62.550 8.340 12.510
5359 0 1 2.000 64.635 10.425 12.510
5360 0 1 2.000 64.635 8.340 14.595
5361 0 1 2.000 62.550 10.425 14.595
5362 0 1 2.000 62.550 8.340 16.680
5363 0 1 2.000 64.635 10.425 16.680
5364 0 1 2.000 64.635 8.340 18.765
5365 0 1 2.000 62.550 10.425 18.765
5366 0 1 2.000 62.550 8.340 20.850
5367 0 1 2.000 64.635 10.425 20.850
5368 0 1 2.000 64.635 8.340 22.935
5369 0 1 2.000 62.550 10.425 22.935
5370 0 1 2.000 62.550 8.340 25.020
5371 0 1 2.000 64.635 10.425 25.020
5372 0 1 2.000 64.635 8.340 27.105
5373 0 1 2.000 62.550 10.425 27.105
5374 0 1 2.000 62.550 8.340 29.190
5375 0 1 2.000 64.635 10.425 29.190
5376 0 1 2.000 64.635 8.340 31.275
5377 0 1 2.000 62.550 10.425 31.275
5378 0 1 2.000 62.550 8.340 33.360
5379 0 1 2.000 64.635 10.425 33.360
5380 0 1 2.000 64.635 8.340 35.445
5381 0 1 2.000 62.550 10.425 35.445
5382 0 1 2.000 62.550 8.340 37.530
5383 0 1 2.000 62.550 12.510 0.000
5384 0 1 2.000 64.635 14.595 0.000
5385 0 1 2.000 64.635 12.510 2.085
5386 0 1 2.000 62.550 14.595 2.085
5387 0 1 2.000 62.550 12.510 4.170
5388 0 1 2.000 64.635 14.595 4.170
5389 0 1 2.000 64.635 12.510 6.255
5390 0 1 2.000 62.550 14.595 6.255
5391 0 1 2.000 62.550 12.510 8.340
5392 0 1 2.000 64.635 14.595 8.340
5393 0 1 2.000 64.635 12.510 10.425
5394 0 1 2.000 62.550 14.595 10.425
5395 0 1 2.000 62.550 12.510 12.510
5396 0 1 2.000 64.635 14.595 12.510
5397 0 1 2.000 64.635 12.510 14.595
5398 0 1 2.000 62.550 14.595 14.595
5399 0 1 2.000 62.550 12.510 16.680
5400 0 1 2.000 64.635 14.595 16.680
5401 0 1 2.000 64.635 12.510 18.765
5402 0 1 2.000 62.550 14.595 18.765
5403 0 1 2.000 62.550 12.510 20.850
5404 0 1 2.000 64.635 14.595 20.850
5405 0 1 2.000 64.635 12.510 22.935
5406 0 1 2.000 62.550 14.595 22.935
5407 0 1 2.000 62.550 12.510 25.020
5408 0 1 2.000 64.635 14.595 25.020
5409 0 1 2.000 64.635 12.510 27.105
5410 0 1 2.000 62.550 14.595 27.105
5411 0 1 2.000 62.550 12.510 29.190
5412 0 1 2.000 64.635 14.595 29.190
5413 0 1 2.000 64.635 12.510 31.275
5414 0 1 2.000 62.550 14.595 31.275
5415 0 1 2.000 62.550 12.510 33.360
5416 0 1 2.000 62.550 16.680 0.000
5417 0 1 2.000 64.635 18.765 0.000
5418 0 1 2.000 64.635 16.680 2.085
5419 0 1 2.000 62.550 18.765 2.085
5420 0 1 2.000 62.550 16.680 4.170
5421 0 1 2.000 64.635 18.765 4.170
5422 0 1 2.000 64.635 16.680 6.255
5423 0 1 2.000 62.550 18.765 6.255
5424 0 1 2.000 62.550 16.680 8.340
5425 0 1 2.000 64.635 18.765 8.340
5426 0 1 2.000 64.635 16.680 10.425
5427 0 1 2.000 62.550 18.765 10.425
5428 0 1 2.000 62.550 16.680 12.510
5429 0 1 2.000 64.635 18.765 12.510
5430 0 1 2.000 64.635 16.680 14.595
5431 0 1 2.000 62.550 18.765 14.595
5432 0 1 2.000 62.550 16.680 16.680
5433 0 1 2.000 64.635 18.765 16.680
5434 0 1 2.000 64.635 16.680 18.765
5435 0 1 2.000 62.550 18.765 18.765
5436 0 1 2.000 62.550 16.680 20.850
5437 0 1 2.000 64.635 18.765 20.850
5438 0 1 2.000 64.635 16.680 22.935
5439 0 1 2.000 62.550 18.765 22.935
5440 0 1 2.000 62.550 16.680 25.020
5441 0 1 2.000 64.635 18.765 25.020
5442 0 1 2.000 64.635 16.680 27.105
5443 0 1 2.000 62.550 18.765 27.105
5444 0 1 2.000 62.550 16.680 29.190
5445 0 1 2.000 62.550 20.850 0.000
5446 0 1 2.000 64.635 22.935 0.000
5447 0 1 2.000 64.635 20.850 2.085
5448 0 1 2.000 62.550 22.935 2.085
5449 0 1 2.000 62.550 20.850 4.170
5450 0 1 2.000 64.635 22.935 4.170
5451 0 1 2.000 64.635 20.850 6.255
5452 0 1 2.000 62.550 22.935 6.255
5453 0 1 2.000 62.550 20.850 8.340
5454 0 1 2.000 64.635 22.935 8.340
5455 0 1 2.000 64.635 20.850 10.425
5456 0 1 2.000 62.550 22.935 10.425
5457 0 1 2.000 62.550 20.850 12.510
5458 0 1 2.000 64.635 22.935 12.510
5459 0 1 2.000 64.635 20.850 14.595
5460 0 1 2.000 62.550 22.935 14.595
5461 0 1 2.000 62.550 20.850 16.680
5462 0 1 2.000 64.635 22.935 16.680
5463 0 1 2.000 64.635 20.850 18.765
5464 0 1 2.000 62.550 22.935 18.765
5465 0 1 2.000 62.550 20.850 20.850
5466 0 1 2.000 64.635 22.935 20.850
5467 0 1 2.000 64.635 20.850 22.935
5468 0 1 2.000 62.550 22.935 22.935
5469 0 1 2.000 62.550 20.850 25.020
5470 0 1 2.000 64.635 22.935 25.020
5471 0 1 2.000 62.550 22.935 27.105
5472 0 1 2.000 62.550 25.020 0.000
5473 0 1 2.000 64.635 27.105 0.000
5474 0 1 2.000 64.635 25.020 2.085
5475 0 1 2.000 62.550 27.105 2.085
5476 0 1 2.000 62.550 25.020 4.170
5477 0 1 2.000 64.635 27.105 4.170
5478 0 1 2.000 64.635 25.020 6.255
5479 0 1 2.000 62.550 27.105 6.255
5480 0 1 2.000 62.550 25.020 8.340
5481 0 1 2.000 64.635 27.105 8.340
5482 0 1 2.000 64.635 25.020 10.425
5483 0 1 2.000 62.550 27.105 10.425
5484 0 1 2.000 62.550 25.020 12.510
5485 0 1 2.000 64.635 27.105 12.510
5486 0 1 2.000 64.635 25.020 14.595
5487 0 1 2.000 62.550 27.105 14.595
5488 0 1 2.000 62.550 25.020 16.680
5489 0 1 2.000 64.635 27.105 16.680
5490 0 1 2.000 64.635 25.020 18.765
5491 0 1 2.000 62.550 27.105 18.765
5492 0 1 2.000 62.550 25.020 20.850
5493 0 1 2.000 64.635 27.105 20.850
5494 0 1 2.000 64.635 25.020 22.935
5495 0 1 2.000 62.550 27.105 22.935
5496 0 1 2.000 62.550 25.020 25.020
5497 0 1 2.000 64.635 27.105 25.020
5498 0 1 2.000 64.635 25.020 27.105
5499 0 1 2.000 62.550 27.105 27.105
5500 0 1 2.000 62.550 25.020 29.190
5501 0 1 2.000 64.635 27.105 29.190
5502 0 1 2.000 62.550 27.105 31.275
5503 0 1 2.000 62.550 29.190 0.000
5504 0 1 2.000 64.635 31.275 0.000
5505 0 1 2.000 64.635 29.190 2.085
5506 0 1 2.000 62.550 31.275 2.085
5507 0 1 2.000 62.550 29.190 4.170
5508 0 1 2.000 64.635 31.275 4.170
5509 0 1 2.000 64.635 29.190 6.255
5510 0 1 2.000 62.550 31.275 6.255
5511 0 1 2.000 62.550 29.190 8.340
5512 0 1 2.000 64.635 31.275 8.340
5513 0 1 2.000 64.635 29.190 10.425
5514 0 1 2.000 62.550 31.275 10.425
5515 0 1 2.000 62.550 29.190 12.510
5516 0 1 2.000 64.635 31.275 12.510
5517 0 1 2.000 64.635 29.190 14.595
5518 0 1 2.000 62.550 31.275 14.595
5519 0 1 2.000 62.550 29.190 16.680
5520 0 1 2.000 64.635 31.275 16.680
5521 0 1 2.000 64.635 29.190 18.765
5522 0 1 2.000 62.550 31.275 18.765
5523 0 1 2.000 62.550 29.190 20.850
5524 0 1 2.000 64.635 31.275 20.850
5525 0 1 2.000 64.635 29.190 22.935
5526 0 1 2.000 62.550 31.275 22.935
5527 0 1 2.000 62.550 29.190 25.020
5528 0 1 2.000 64.635 31.275 25.020
5529 0 1 2.000 64.635 29.190 27.105
5530 0 1 2.000 62.550 31.275 27.105
5531 0 1 2.000 62.550 29.190 29.190
5532 0 1 2.000 64.635 31.275 29.190
5533 0 1 2.000 64.635 29.190 31.275
5534 0 1 2.000 62.550 31.275 31.275
5535 0 1 2.000 62.550 29.190 33.360
5536 0 1 2.000 64.635 31.275 33.360
5537 0 1 2.000 62.550 31.275 35.445
5538 0 1 2.000 62.550 33.360 0.000
5539 0 1 2.000 64.635 35.445 0.000
5540 0 1 2.000 64.635 33.360 2.085
5541 0 1 2.000 62.550 35.445 2.085
5542 0 1 2.000 62.550 33.360 4.170
5543 0 1 2.000 64.635 35.445 4.170
5544 0 1 2.000 64.635 33.360 6.255
5545 0 1 2.000 62.550 35.445 6.255
5546 0 1 2.000 62.550 33.360 8.340
5547 0 1 2.000 64.635 35.445 8.340
5548 0 1 2.000 64.635 33.360 10.425
5549 0 1 2.000 62.550 35.445 10.425
5550 0 1 2.000 62.550 33.360 12.510
5551 0 1 2.000 64.635 35.445 12.510
5552 0 1 2.000 64.635 33.360 14.595
5553 0 1 2.000 62.550 35.445 14.595
5554 0 1 2.000 62.550 33.360 16.680
5555 0 1 2.000 64.635 35.445 16.680
5556 0 1 2.000 64.635 33.360 18.765
5557 0 1 2.000 62.550 35.445 18.765
5558 0 1 2.000 62.550 33.360 20.850
5559 0 1 2.000 64.635 35.445 20.850
5560 0 1 2.000 64.635 33.360 22.935
5561 0 1 2.000 62.550 35.445 22.935
5562 0 1 2.000 62.550 33.360 25.020
5563 0 1 2.000 64.635 35.445 25.020
5564 0 1 2.000 64.635 33.360 27.105
5565 0 1 2.000 62.550 35.445 27.105
5566 0 1 2.000 62.550 33.360 29.190
5567 0 1 2.000 64.635 35.445 29.190
5568 0 1 2.000 64.635 33.360 31.275
5569 0 1 2.000 62.550 35.445 31.275
5570 0 1 2.000 62.550 33.360 33.360
5571 0 1 2.000 64.635 35.445 33.360
5572 0 1 2.000 64.635 33.360 35.445
5573 0 1 2.000 62.550 35.445 35.445
5574 0 1 2.000 62.550 33.360 37.530
5575 0 1 2.000 64.635 35.445 37.530
5576 0 1 2.000 62.550 35.445 39.615
5577 0 1 2.000 62.550 37.530 0.000
5578 0 1 2.000 64.635 39.615 0.000
5579 0 1 2.000 64.635 37.530 2.085
5580 0 1 2.000 62.550 39.615 2.085
5581 0 1 2.000 62.550 37.530 4.170
5582 0 1 2.000 64.635 39.615 4.170
5583 0 1 2.000 64.635 37.530 6.255
5584 0 1 2.000 62.550 39.615 6.255
5585 0 1 2.000 62.550 37.530 8.340
5586 0 1 2.000 64.635 39.615 8.340
5587 0 1 2.000 64.635 37.530 10.425
5588 0 1 2.000 62.550 39.615 10.425
5589 0 1 2.000 62.550 37.530 12.510
5590 0 1 2.000 64.635 39.615 12.510
5591 0 1 2.000 64.635 37.530 14.595
5592 0 1 2.000 62.550 39.615 14.595
5593 0 1 2.000 62.550 37.530 16.680
5594 0 1 2.000 64.635 39.615 16.680
5595 0 1 2.000 64.635 37.530 18.765
5596 0 1 2.000 62.550 39.615 18.765
5597 0 1 2.000 62.550 37.530 20.850
5598 0 1 2.000 64.635 39.615 20.850
5599 0 1 2.000 64.635 37.530 22.935
5600 0 1 2.000 62.550 39.615 22.935
5601 0 1 2.000 62.550 37.530 25.020
5602 0 1 2.000 64.635 39.615 25.020
5603 0 1 2.000 64.635 37.530 27.105
5604 0 1 2.000 62.550 39.615 27.105
5605 0 1 2.000 62.550 37.530 29.190
5606 0 1 2.000 64.635 39.615 29.190
5607 0 1 2.000 64.635 37.530 31.275
5608 0 1 2.000 62.550 39.615 31.275
5609 0 1 2.000 62.550 37.530 33.360
5610 0 1 2.000 64.635 39.615 33.360
5611 0 1 2.000 64.635 37.530 35.445
5612 0 1 2.000 62.550 39.615 35.445
5613 0 1 2.000 62.550 37.530 37.530
5614 0 1 2.000 64.635 39.615 37.530
5615 0 1 2.000 64.635 37.530 39.615
5616 0 1 2.000 62.550 39.615 39.615
5617 0 1 2.000 66.720 0.000 0.000
5618 0 1 2.000 68.805 2.085 0.000
5619 0 1 2.000 68.805 0.000 2.085
5620 0 1 2.000 66.720 2.085 2.085
5621 0 1 2.000 66.720 0.000 4.170
5622 0 1 2.000 68.805 2.085 4.170
5623 0 1 2.000 68.805 0.000 6.255
5624 0 1 2.000 66.720 2.085 6.255
5625 0 1 2.000 66.720 0.000 8.340
5626 0 1 2.000 68.805 2.085 8.340
5627 0 1 2.000 68.805 0.000 10.425
5628 0 1 2.000 66.720 2.085 10.425
5629 0 1 2.000 66.720 0.000 12.510
5630 0 1 2.000 68.805 2.085 12.510
5631 0 1 2.000 68.805 0.000 14.595
5632 0 1 2.000 66.720 2.085 14.595
5633 0 1 2.000 66.720 0.000 16.680
5634 0 1 2.000 68.805 2.085 16.680
5635 0 1 2.000 68.805 0.000 18.765
5636 0 1 2.000 66.720 2.085 18.765
5637 0 1 2.000 66.720 0.000 20.850
5638 0 1 2.000 68.805 2.085 20.850
5639 0 1 2.000 68.805 0.000 22.935
5640 0 1 2.000 66.720 2.085 22.935
5641 0 1 2.000 66.720 0.000 25.020
5642 0 1 2.000 68.805 2.085 25.020
5643 0 1 2.000 68.805 0.000 27.105
5644 0 1 2.000 66.720 2.085 27.105
5645 0 1 2.000 66.720 0.000 29.190
5646 0 1 2.000 68.805 2.085 29.190
5647 0 1 2.000 68.805 0.000 31.275
5648 0 1 2.000 66.720 2.085 31.275
5649 0 1 2.000 66.720 0.000 33.360
5650 0 1 2.000 68.805 2.085 33.360
5651 0 1 2.000 68.805 0.000 35.445
5652 0 1 2.000 66.720 2.085 35.445
5653 0 1 2.000 66.720 0.000 37.530
5654 0 1 2.000 68.805 2.085 37.530
5655 0 1 2.000 68.805 0.000 39.615
5656 0 1 2.000 66.720 2.085 39.615
5657 0 1 2.000 66.720 4.170 0.000
5658 0 1 2.000 68.805 6.255 0.000
5659 0 1 2.000 68.805 4.170 2.085
5660 0 1 2.000 66.720 6.255 2.085
5661 0 1 2.000 66.720 4.170 4.170
5662 0 1 2.000 68.805 6.255 4.170
5663 0 1 2.000 68.805 4.170 6.255
5664 0 1 2.000 66.720 6.255 6.255
5665 0 1 2.000 66.720 4.170 8.340
5666 0 1 2.000 68.805 6.255 8.340
5667 0 1 2.000 68.805 4.170 10.425
5668 0 1 2.000 66.720 6.255 10.425
5669 0 1 2.000 66.720 4.170 12.510
5670 0 1 2.000 68.805 6.255 12.510
5671 0 1 2.000 68.805 4.170 14.595
5672 0 1 2.000 66.720 6.255 14.595
5673 0 1 2.000 66.720 4.170 16.680
5674 0 1 2.000 68.805 6.255 16.680
5675 0 1 2.000 68.805 4.170 18.765
5676 0 1 2.000 66.720 6.255 18.765
5677 0 1 2.000 66.720 4.170 20.850
5678 0 1 2.000 68.805 6.255 20.850
5679 0 1 2.000 68.805 4.170 22.935
5680 0 1 2.000 66.720 6.255 22.935
5681 0 1 2.000 66.720 4.170 25.020
5682 0 1 2.000 68.805 6.255 25.020
5683 0 1 2.000 68.805 4.170 27.105
5684 0 1 2.000 66.720 6.255 27.105
5685 0 1 2.000 66.720 4.170 29.190
5686 0 1 2.000 68.805 6.255 29.190
5687 0 1 2.000 68.805 4.170 31.275
5688 0 1 2.000 66.720 6.255 31.275
5689 0 1 2.000 66.720 4.170 33.360
5690 0 1 2.000 68.805 6.255 33.360
5691 0 1 2.000 68.805 4.170 35.445
5692 0 1 2.000 66.720 6.255 35.445
5693 0 1 2.000 66.720 4.170 37.530
5694 0 1 2.000 68.805 6.255 37.530
5695 0 1 2.000 68.805 4.170 39.615
5696 0 1 2.000 66.720 6.255 39.615
5697 0 1 2.000 66.720 8.340 0.000
5698 0 1 2.000 68.805 10.425 0.000
5699 0 1 2.000 68.805 8.340 2.085
5700 0 1 2.000 66.720 10.425 2.085
5701 0 1 2.000 66.720 8.340 4.170
5702 0 1 2.000 68.805 10.425 4.170
5703 0 1 2.000 68.805 8.340 6.255
5704 0 1 2.000 66.720 10.425 6.255
5705 0 1 2.000 66.720 8.340 8.340
5706 0 1 2.000 68.805 10.425 8.340
5707 0 1 2.000 68.805 8.340 10.425
5708 0 1 2.000 66.720 10.425 10.425
5709 0 1 2.000 66.720 8.340 12.510
5710 0 1 2.000 68.805 10.425 12.510
5711 0 1 2.000 68.805 8.340 14.595
5712 0 1 2.000 66.720 10.425 14.595
5713 0 1 2.000 66.720 8.340 16.680
5714 0 1 2.000 68.805 10.425 16.680
5715 0 1 2.000 68.805 8.340 18.765
5716 0 1 2.000 66.720 10.425 18.765
5717 0 1 2.000 66.720 8.340 20.850
5718 0 1 2.000 68.805 10.425 20.850
5719 0 1 2.000 68.805 8.340 22.935
5720 0 1 2.000 66.720 10.425 22.935
5721 0 1 2.000 66.720 8.340 25.020
5722 0 1 2.000 68.805 10.425 25.020
5723 0 1 2.000 68.805 8.340 27.105
5724 0 1 2.000 66.720 10.425 27.105
5725 0 1 2.000 66.720 8.340 29.190
5726 0 1 2.000 68.805 10.425 29.190
5727 0 1 2.000 68.805 8.340 31.275
5728 0 1 2.000 66.720 10.425 31.275
5729 0 1 2.000 66.720 8.340 33.360
5730 0 1 2.000 68.805 10.425 33.360
5731 0 1 2.000 68.805 8.340 35.445
5732 0 1 2.000 66.720 10.425 35.445
5733 0 1 2.000 66.720 8.340 37.530
5734 0 1 2.000 66.720 12.510 0.000
5735 0 1 2.000 68.805 14.595 0.000
5736 0 1 2.000 68.805 12.510 2.085
5737 0 1 2.000 66.720 14.595 2.085
5738 0 1 2.000 66.720 12.510 4.170
5739 0 1 2.000 68.805 14.595 4.170
5740 0 1 2.000 68.805 12.510 6.255
5741 0 1 2.000 66.720 14.595 6.255
5742 0 1 2.000 66.720 12.510 8.340
5743 0 1 2.000 68.805 14.595 8.340
5744 0 1 2.000 68.805 12.510 10.425
5745 0 1 2.000 66.720 14.595 10.425
5746 0 1 2.000 66.720 12.510 12.510
5747 0 1 2.000 68.805 14.595 12.510
5748 0 1 2.000 68.805 12.510 14.595
5749 0 1 2.000 66.720 14.595 14.595
5750 0 1 2.000 66.720 12.510 16.680
5751 0 1 2.000 68.805 14.595 16.680
5752 0 1 2.000 68.805 12.510 18.765
5753 0 1 2.000 66.720 14.595 18.765
5754 0 1 2.000 66.720 12.510 20.850
5755 0 1 2.000 68.805 14.595 20.850
5756 0 1 2.000 68.805 12.510 22.935
5757 0 1 2.000 66.720 14.595 22.935
5758 0 1 2.000 66.720 12.510 25.020
5759 0 1 2.000 68.805 14.595 25.020
5760 0 1 2.000 68.805 12.510 27.105
5761 0 1 2.000 66.720 14.595 27.105
5762 0 1 2.000 66.720 12.510 29.190
5763 0 1 2.000 68.805 14.595 29.190
5764 0 1 2.000 68.805 12.510 31.275
5765 0 1 2.000 66.720 14.595 31.275
5766 0 1 2.000 66.720 12.510 33.360
5767 0 1 2.000 66.720 16.680 0.000
5768 0 1 2.000 68.805 18.765 0.000
5769 0 1 2.000 68.805 16.680 2.085
5770 0 1 2.000 66.720 18.765 2.085
5771 0 1 2.000 66.720 16.680 4.170
5772 0 1 2.000 68.805 18.765 4.170
5773 0 1 2.000 68.805 16.680 6.255
5774 0 1 2.000 66.720 18.765 6.255
5775 0 1 2.000 66.720 16.680 8.340
5776 0 1 2.000 68.805 18.765 8.340
5777 0 1 2.000 68.805 16.680 10.425
5778 0 1 2.000 66.720 18.765 10.425
5779 0 1 2.000 66.720 16.680 12.510
5780 0 1 2.000 68.805 18.765 12.510
5781 0 1 2.000 68.805 16.680 14.595
5782 0 1 2.000 66.720 18.765 14.595
5783 0 1 2.000 66.720 16.680 16.680
5784 0 1 2.000 68.805 18.765 16.680
5785 0 1 2.000 68.805 16.680 18.765
5786 0 1 2.000 66.720 18.765 18.765
5787 0 1 2.000 66.720 16.680 20.850
5788 0 1 2.000 68.805 18.765 20.850
5789 0 1 2.000 68.805 16.680 22.935
5790 0 1 2.000 66.720 18.765 22.935
5791 0 1 2.000 66.720 16.680 25.020
5792 0 1 2.000 68.805 18.765 25.020
5793 0 1 2.000 68.805 16.680 27.105
5794 0 1 2.000 66.720 18.765 27.105
5795 0 1 2.000 66.720 16.680 29.190
5796 0 1 2.000 66.720 20.850 0.000
5797 0 1 2.000 68.805 22.935 0.000
5798 0 1 2.000 68.805 20.850 2.085
5799 0 1 2.000 66.720 22.935 2.085
5800 0 1 2.000 66.720 20.850 4.170
5801 0 1 2.000 68.805 22.935 4.170
5802 0 1 2.000 68.805 20.850 6.255
5803 0 1 2.000 66.720 22.935 6.255
5804 0 1 2.000 66.720 20.850 8.340
5805 0 1 2.000 68.805 22.935 8.340
5806 0 1 2.000 68.805 20.850 10.425
5807 0 1 2.000 66.720 22.935 10.425
5808 0 1 2.000 66.720 20.850 12.510
5809 0 1 2.000 68.805 22.935 12.510
5810 0 1 2.000 68.805 20.850 14.595
5811 0 1 2.000 66.720 22.935 14.595
5812 0 1 2.000 66.720 20.850 16.680
5813 0 1 2.000 68.805 22.935 16.680
5814 0 1 2.000 68.805 20.850 18.765
5815 0 1 2.000 66.720 22.935 18.765
5816 0 1 2.000 66.720 20.850 20.850
5817 0 1 2.000 68.805 22.935 20.850
5818 0 1 2.000 68.805 20.850 22.935
5819 0 1 2.000 66.720 22.935 22.935
5820 0 1 2.000 66.720 20.850 25.020
5821 0 1 2.000 68.805 22.935 25.020
5822 0 1 2.000 66.720 22.935 27.105
5823 0 1 2.000 66.720 25.020 0.000
5824 0 1 2.000 68.805 27.105 0.000
5825 0 1 2.000 68.805 25.020 2.085
5826 0 1 2.000 66.720 27.105 2.085
5827 0 1 2.000 66.720 25.020 4.170
5828 0 1 2.000 68.805 27.105 4.170
5829 0 1 2.000 68.805 25.020 6.255
5830 0 1 2.000 66.720 27.105 6.255
5831 0 1 2.000 66.720 25.020 8.340
5832 0 1 2.000 68.805 27.105 8.340
5833 0 1 2.000 68.805 25.020 10.425
5834 0 1 2.000 66.720 27.105 10.425
5835 0 1 2.000 66.720 25.020 12.510
5836 0 1 2.000 68.805 27.105 12.510
5837 0 1 2.000 68.805 25.020 14.595
5838 0 1 2.000 66.720 27.105 14.595
5839 0 1 2.000 66.720 25.020 16.680
5840 0 1 2.000 68.805 27.105 16.680
5841 0 1 2.000 68.805 25.020 18.765
5842 0 1 2.000 66.720 27.105 18.765
5843 0 1 2.000 66.720 25.020 20.850
5844 0 1 2.000 68.805 27.105 20.850
5845 0 1 2.000 68.805 25.020 22.935
5846 0 1 2.000 66.720 27.105 22.935
5847 0 1 2.000 66.720 25.020 25.020
5848 0 1 2.000 68.805 27.105 25.020
5849 0 1 2.000 68.805 25.020 27.105
5850 0 1 2.000 66.720 27.105 27.105
5851 0 1 2.000 66.720 25.020 29.190
5852 0 1 2.000 68.805 27.105 29.190
5853 0 1 2.000 66.720 27.105 31.275
5854 0 1 2.000 66.720 29.190 0.000
5855 0 1 2.000 68.805 31.275 0.000
5856 0 1 2.000 68.805 29.190 2.085
5857 0 1 2.000 66.720 31.275 2.085
5858 0 1 2.000 66.720 29.190 4.170
5859 0 1 2.000 68.805 31.275 4.170
5860 0 1 2.000 68.805 29.190 6.255
5861 0 1 2.000 66.720 31.275 6.255
5862 0 1 2.000 66.720 29.190 8.340
5863 0 1 2.000 68.805 31.275 8.340
5864 0 1 2.000 68.805 29.190 10.425
5865 0 1 2.000 66.720 31.275 10.425
5866 0 1 2.000 66.720 29.190 12.510
5867 0 1 2.000 68.805 31.275 12.510
5868 0 1 2.000 68.805 29.190 14.595
5869 0 1 2.000 66.720 31.275 14.595
5870 0 1 2.000 66.720 29.190 16.680
5871 0 1 2.000 68.805 31.275 16.680
5872 0 1 2.000 68.805 29.190 18.765
5873 0 1 2.000 66.720 31.275 18.765
5874 0 1 2.000 66.720 29.190 20.850
5875 0 1 2.000 68.805 31.275 20.850
5876 0 1 2.000 68.805 29.190 22.935
5877 0 1 2.000 66.720 31.275 22.935
5878 0 1 2.000 66.720 29.190 25.020
5879 0 1 2.000 68.805 31.275 25.020
5880 0 1 2.000 68.805 29.190 27.105
5881 0 1 2.000 66.720 31.275 27.105
5882 0 1 2.000 66.720 29.190 29.190
5883 0 1 2.000 68.805 31.275 29.190
5884 0 1 2.000 68.805 29.190 31.275
5885 0 1 2.000 66.720 31.275 31.275
5886 0 1 2.000 66.720 29.190 33.360
5887 0 1 2.000 68.805 31.275 33.360
5888 0 1 2.000 66.720 31.275 35.445
5889 0 1 2.000 66.720 33.360 0.000
5890 0 1 2.000 68.805 35.445 0.000
5891 0 1 2.000 68.805 33.360 2.085
5892 0 1 2.000 66.720 35.445 2.085
5893 0 1 2.000 66.720 33.360 4.170
5894 0 1 2.000 68.805 35.445 4.170
5895 0 1 2.000 68.805 33.360 6.255
5896 0 1 2.000 66.720 35.445 6.255
5897 0 1 2.000 66.720 33.360 8.340
5898 0 1 2.000 68.805 35.445 8.340
5899 0 1 2.000 68.805 33.360 10.425
5900 0 1 2.000 66.720 35.445 10.425
5901 0 1 2.000 66.720 33.360 12.510
5902 0 1 2.000 68.805 35.445 12.510
5903 0 1 2.000 68.805 33.360 14.595
5904 0 1 2.000 66.720 35.445 14.595
5905 0 1 2.000 66.720 33.360 16.680
5906 0 1 2.000 68.805 35.445 16.680
5907 0 1 2.000 68.805 33.360 18.765
5908 0 1 2.000 66.720 35.445 18.765
5909 0 1 2.000 66.720 33.360 20.850
5910 0 1 2.000 68.805 35.445 20.850
5911 0 1 2.000 68.805 33.360 22.935
5912 0 1 2.000 66.720 35.445 22.935
5913 0 1 2.000 66.720 33.360 25.020
5914 0 1 2.000 68.805 35.445 25.020
5915 0 1 2.000 68.805 33.360 27.105
5916 0 1 2.000 66.720 35.445 27.105
5917 0 1 2.000 66.720 33.360 29.190
5918 0 1 2.000 68.805 35.445 29.190
5919 0 1 2.000 68.805 33.360 31.275
5920 0 1 2.000 66.720 35.445 31.275
5921 0 1 2.000 66.720 33.360 33.360
5922 0 1 2.000 68.805 35.445 33.360
5923 0 1 2.000 68.805 33.360 35.445
5924 0 1 2.000 66.720 35.445 35.445
5925 0 1 2.000 66.720 33.360 37.530
5926 0 1 2.000 68.805 35.445 37.530
5927 0 1 2.000 66.720 35.445 39.615
5928 0 1 2.000 66.720 37.530 0.000
5929 0 1 2.000 68.805 39.615 0.000
5930 0 1 2.000 68.805 37.530 2.085
5931 0 1 2.000 66.720 39.615 2.085
5932 0 1 2.000 66.720 37.530 4.170
5933 0 1 2.000 68.805 39.615 4.170
5934 0 1 2.000 68.805 37.530 6.255
5935 0 1 2.000 66.720 39.615 6.255
5936 0 1 2.000 66.720 37.530 8.340
5937 0 1 2.000 68.805 39.615 8.340
5938 0 1 2.000 68.805 37.530 10.425
5939 0 1 2.000 66.720 39.615 10.425
5940 0 1 2.000 66.720 37.530 12.510
5941 0 1 2.000 68.805 39.615 12.510
5942 0 1 2.000 68.805 37.530 14.595
5943 0 1 2.000 66.720 39.615 14.595
5944 0 1 2.000 66.720 37.530 16.680
5945 0 1 2.000 68.805 39.615 16.680
5946 0 1 2.000 68.805 37.530 18.765
5947 0 1 2.000 66.720 39.615 18.765
5948 0 1 2.000 66.720 37.530 20.850
5949 0 1 2.000 68.805 39.615 20.850
5950 0 1 2.000 68.805 37.530 22.935
5951 0 1 2.000 66.720 39.615 22.935
5952 0 1 2.000 66.720 37.530 25.020
5953 0 1 2.000 68.805 39.615 25.020
5954 0 1 2.000 68.805 37.530 27.105
5955 0 1 2.000 66.720 39.615 27.105
5956 0 1 2.000 66.720 37.530 29.190
5957 0 1 2.000 68.805 39.615 29.190
5958 0 1 2.000 68.805 37.530 31.275
5959 0 1 2.000 66.720 39.615 31.275
5960 0 1 2.000 66.720 37.530 33.360
5961 0 1 2.000 68.805 39.615 33.360
5962 0 1 2.000 68.805 37.530 35.445
5963 0 1 2.000 66.720 39.615 35.445
5964 0 1 2.000 66.720 37.530 37.530
5965 0 1 2.000 68.805 39.615 37.530
5966 0 1 2.000 68.805 37.530 39.615
5967 0 1 2.000 66.720 39.615 39.615
5968 0 1 2.000 70.890 0.000 0.000
5969 0 1 2.000 72.975 2.085 0.000
5970 0 1 2.000 72.975 0.000 2.085
5971 0 1 2.000 70.890 2.085 2.085
5972 0 1 2.000 70.890 0.000 4.170
5973 0 1 2.000 72.975 2.085 4.170
5974 0 1 2.000 72.975 0.000 6.255
5975 0 1 2.000 70.890 2.085 6.255
5976 0 1 2.000 70.890 0.000 8.340
5977 0 1 2.000 72.975 2.085 8.340
5978 0 1 2.000 72.975 0.000 10.425
5979 0 1 2.000 70.890 2.085 10.425
5980 0 1 2.000 70.890 0.000 12.510
5981 0 1 2.000 72.975 2.085 12.510
5982 0 1 2.000 72.975 0.000 14.595
5983 0 1 2.000 70.890 2.085 14.595
5984 0 1 2.000 70.890 0.000 16.680
5985 0 1 2.000 72.975 2.085 16.680
5986 0 1 2.000 72.975 0.000 18.765
5987 0 1 2.000 70.890 2.085 18.765
5988 0 1 2.000 70.890 0.000 20.850
5989 0 1 2.000 72.975 2.085 20.850
5990 0 1 2.000 72.975 0.000 22.935
5991 0 1 2.000 70.890 2.085 22.935
5992 0 1 2.000 70.890 0.000 25.020
5993 0 1 2.000 72.975 2.085 25.020
5994 0 1 2.000 72.975 0.000 27.105
5995 0 1 2.000 70.890 2.085 27.105
5996 0 1 2.000 70.890 0.000 29.190
5997 0 1 2.000 72.975 2.085 29.190
5998 0 1 2.000 72.975 0.000 31.275
5999 0 1 2.000 70.890 2.085 31.275
6000 0 1 2.000 70.890 0.000 33.360
6001 0 1 2.000 72.975 2.085 33.360
6002 0 1 2.000 72.975 0.000 35.445
6003 0 1 2.000 70.890 2.085 35.445
6004 0 1 2.000 70.890 0.000 37.530
6005 0 1 2.000 72.975 2.085 37.530
6006 0 1 2.000 72.975 0.000 39.615
6007 0 1 2.000 70.890 2.085 39.615
6008 0 1 2.000 70.890 4.170 0.000
6009 0 1 2.000 72.975 6.255 0.000
6010 0 1 2.000 72.975 4.170 2.085
6011 0 1 2.000 70.890 6.255 2.085
6012 0 1 2.000 70.890 4.170 4.170
6013 0 1 2.000 72.975 6.255 4.170
6014 0 1 2.000 72.975 4.170 6.255
6015 0 1 2.000 70.890 6.255 6.255
6016 0 1 2.000 70.890 4.170 8.340
6017 0 1 2.000 72.975 6.255 8.340
6018 0 1 2.000 72.975 4.170 10.425
6019 0 1 2.000 70.890 6.255 10.425
6020 0 1 2.000 70.890 4.170 12.510
6021 0 1 2.000 72.975 6.255 12.510
6022 0 1 2.000 72.975 4.170 14.595
6023 0 1 2.000 70.890 6.255 14.595
6024 0 1 2.000 70.890 4.170 16.680
6025 0 1 2.000 72.975 6.255 16.680
6026 0 1 2.000 72.975 4.170 18.765
6027 0 1 2.000 70.890 6.255 18.765
6028 0 1 2.000 70.890 4.170 20.850
6029 0 1 2.000 72.975 6.255 20.850
6030 0 1 2.000 72.975 4.170 22.935
6031 0 1 2.000 70.890 6.255 22.935
6032 0 1 2.000 70.890 4.170 25.020
6033 0 1 2.000 72.975 6.255 25.020
6034 0 1 2.000 72.975 4.170 27.105
6035 0 1 2.000 70.890 6.255 27.105
6036 0 1 2.000 70.890 4.170 29.190
6037 0 1 2.000 72.975 6.255 29.190
6038 0 1 2.000 72.975 4.170 31.275
6039 0 1 2.000 70.890 6.255 31.275
6040 0 1 2.000 70.890 4.170 33.360
6041 0 1 2.000 72.975 6.255 33.360
6042 0 1 2.000 72.975 4.170 35.445
6043 0 1 2.000 70.890 6.255 35.445
6044 0 1 2.000 70.890 4.170 37.530
6045 0 1 2.000 72.975 6.255 37.530
6046 0 1 2.000 72.975 4.170 39.615
6047 0 1 2.000 70.890 6.255 39.615
6048 0 1 2.000 70.890 8.340 0.000
6049 0 1 2.000 72.975 10.425 0.000
6050 0 1 2.000 72.975 8.340 2.085
6051 0 1 2.000 70.890 10.425 2.085
6052 0 1 2.000 70.890 8.340 4.170
6053 0 1 2.000 72.975 10.425 4.170
6054 0 1 2.000 72.975 8.340 6.255
6055 0 1 2.000 70.890 10.425 6.255
6056 0 1 2.000 70.890 8.340 8.340
6057 0 1 2.000 72.975 10.425 8.340
6058 0 1 2.000 72.975 8.340 10.425
6059 0 1 2.000 70.890 10.425 10.425
6060 0 1 2.000 70.890 8.340 12.510
6061 0 1 2.000 72.975 10.425 12.510
6062 0 1 2.000 72.975 8.340 14.595
6063 0 1 2.000 70.890 10.425 14.595
6064 0 1 2.000 70.890 8.340 16.680
6065 0 1 2.000 72.975 10.425 16.680
6066 0 1 2.000 72.975 8.340 18.765
6067 0 1 2.000 70.890 10.425 18.765
6068 0 1 2.000 70.890 8.340 20.850
6069 0 1 2.000 72.975 10.425 20.850
6070 0 1 2.000 72.975 8.340 22.935
6071 0 1 2.000 70.890 10.425 22.935
6072 0 1 2.000 70.890 8.340 25.020
6073 0 1 2.000 72.975 10.425 25.020
6074 0 1 2.000 72.975 8.340 27.105
6075 0 1 2.000 70.890 10.425 27.105
6076 0 1 2.000 70.890 8.340 29.190
6077 0 1 2.000 72.975 10.425 29.190
6078 0 1 2.000 72.975 8.340 31.275
6079 0 1 2.000 70.890 10.425 31.275
6080 0 1 2.000 70.890 8.340 33.360
6081 0 1 2.000 72.975 10.425 33.360
6082 0 1 2.000 72.975 8.340 35.445
6083 0 1 2.000 70.890 10.425 35.445
6084 0 1 2.000 70.890 8.340 37.530
6085 0 1 2.000 70.890 12.510 0.000
6086 0 1 2.000 72.975 14.595 0.000
6087 0 1 2.000 72.975 12.510 2.085
6088 0 1 2.000 70.890 14.595 2.085
6089 0 1 2.000 70.890 12.510 4.170
6090 0 1 2.000 72.975 14.595 4.170
6091 0 1 2.000 72.975 12.510 6.255
6092 0 1 2.000 70.890 14.595 6.255
6093 0 1 2.000 70.890 12.510 8.340
6094 0 1 2.000 72.975 14.595 8.340
6095 0 1 2.000 72.975 12.510 10.425
6096 0 1 2.000 70.890 14.595 10.425
6097 0 1 2.000 70.890 12.510 12.510
6098 0 1 2.000 72.975 14.595 12.510
6099 0 1 2.000 72.975 12.510 14.595
6100 0 1 2.000 70.890 14.595 14.595
6101 0 1 2.000 70.890 12.510 16.680
6102 0 1 2.000 72.975 14.595 16.680
6103 0 1 2.000 72.975 12.510 18.765
6104 0 1 2.000 70.890 14.595 18.765
6105 0 1 2.000 70.890 12.510 20.850
6106 0 1 2.000 72.975 14.595 20.850
6107 0 1 2.000 72.975 12.510 22.935
6108 0 1 2.000 70.890 14.595 22.935
6109 0 1 2.000 70.890 12.510 25.020
6110 0 1 2.000 72.975 14.595 25.020
6111 0 1 2.000 72.975 12.510 27.105
6112 0 1 2.000 70.890 14.595 27.105
6113 0 1 2.000 70.890 12.510 29.190
6114 0 1 2.000 72.975 14.595 29.190
6115 0 1 2.000 72.975 12.510 31.275
6116 0 1 2.000 70.890 14.595 31.275
6117 0 1 2.000 70.890 12.510 33.360
6118 0 1 2.000 70.890 16.680 0.000
6119 0 1 2.000 72.975 18.765 0.000
6120 0 1 2.000 72.975 16.680 2.085
6121 0 1 2.000 70.890 18.765 2.085
6122 0 1 2.000 70.890 16.680 4.170
6123 0 1 2.000 72.975 18.765 4.170
6124 0 1 2.000 72.975 16.680 6.255
6125 0 1 2.000 70.890 18.765 6.255
6126 0 1 2.000 70.890 16.680 8.340
6127 0 1 2.000 72.975 18.765 8.340
6128 0 1 2.000 72.975 16.680 10.425
6129 0 1 2.000 70.890 18.765 10.425
6130 0 1 2.000 70.890 16.680 12.510
6131 0 1 2.000 72.975 18.765 12.510
6132 0 1 2.000 72.975 16.680 14.595
6133 0 1 2.000 70.890 18.765 14.595
6134 0 1 2.000 70.890 16.680 16.680
6135 0 1 2.000 72.975 18.765 16.680
6136 0 1 2.000 72.975 16.680 18.765
6137 0 1 2.000 70.890 18.765 18.765
6138 0 1 2.000 70.890 16.680 20.850
6139 0 1 2.000 72.975 18.765 20.850
6140 0 1 2.000 72.975 16.680 22.935
6141 0 1 2.000 70.890 18.765 22.935
6142 0 1 2.000 70.890 16.680 25.020
6143 0 1 2.000 72.975 18.765 25.020
6144 0 1 2.000 72.975 16.680 27.105
6145 0 1 2.000 70.890 18.765 27.105
6146 0 1 2.000 70.890 16.680 29.190
6147 0 1 2.000 70.890 20.850 0.000
6148 0 1 2.000 72.975 22.935 0.000
6149 0 1 2.000 72.975 20.850 2.085
6150 0 1 2.000 70.890 22.935 2.085
6151 0 1 2.000 70.890 20.850 4.170
6152 0 1 2.000 72.975 22.935 4.170
6153 0 1 2.000 72.975 20.850 6.255
6154 0 1 2.000 70.890 22.935 6.255
6155 0 1 2.000 70.890 20.850 8.340
6156 0 1 2.000 72.975 22.935 8.340
6157 0 1 2.000 72.975 20.850 10.425
6158 0 1 2.000 70.890 22.935 10.425
6159 0 1 2.000 70.890 20.850 12.510
6160 0 1 2.000 72.975 22.935 12.510
6161 0 1 2.000 72.975 20.850 14.595
6162 0 1 2.000 70.890 22.935 14.595
6163 0 1 2.000 70.890 20.850 16.680
6164 0 1 2.000 72.975 22.935 16.680
6165 0 1 2.000 72.975 20.850 18.765
6166 0 1 2.000 70.890 22.935 18.765
6167 0 1 2.000 70.890 20.850 20.850
6168 0 1 2.000 72.975 22.935 20.850
6169 0 1 2.000 72.975 20.850 22.935
6170 0 1 2.000 70.890 22.935 22.935
6171 0 1 2.000 70.890 20.850 25.020
6172 0 1 2.000 72.975 22.935 25.020
6173 0 1 2.000 70.890 22.935 27.105
6174 0 1 2.000 70.890 25.020 0.000
6175 0 1 2.000 72.975 27.105 0.000
6176 0 1 2.000 72.975 25.020 2.085
6177 0 1 2.000 70.890 27.105 2.085
6178 0 1 2.000 70.890 25.020 4.170
6179 0 1 2.000 72.975 27.105 4.170
6180 0 1 2.000 72.975 25.020 6.255
6181 0 1 2.000 70.890 27.105 6.255
6182 0 1 2.000 70.890 25.020 8.340
6183 0 1 2.000 72.975 27.105 8.340
6184 0 1 2.000 72.975 25.020 10.425
6185 0 1 2.000 70.890 27.105 10.425
6186 0 1 2.000 70.890 25.020 12.510
6187 0 1 2.000 72.975 27.105 12.510
6188 0 1 2.000 72.975 25.020 14.595
6189 0 1 2.000 70.890 27.105 14.595
6190 0 1 2.000 70.890 25.020 16.680
6191 0 1 2.000 72.975 27.105 16.680
6192 0 1 2.000 72.975 25.020 18.765
6193 0 1 2.000 70.890 27.105 18.765
6194 0 1 2.000 70.890 25.020 20.850
6195 0 1 2.000 72.975 27.105 20.850
6196 0 1 2.000 72.975 25.020 22.935
6197 0 1 2.000 70.890 27.105 22.935
6198 0 1 2.000 70.890 25.020 25.020
6199 0 1 2.000 72.975 27.105 25.020
6200 0 1 2.000 72.975 25.020 27.105
6201 0 1 2.000 70.890 27.105 27.105
6202 0 1 2.000 70.890 25.020 29.190
6203 0 1 2.000 72.975 27.105 29.190
6204 0 1 2.000 70.890 27.105 31.275
6205 0 1 2.000 70.890 29.190 0.000
6206 0 1 2.000 72.975 31.275 0.000
6207 0 1 2.000 72.975 29.190 2.085
6208 0 1 2.000 70.890 31.275 2.085
6209 0 1 2.000 70.890 29.190 4.170
6210 0 1 2.000 72.975 31.275 4.170
6211 0 1 2.000 72.975 29.190 6.255
6212 0 1 2.000 70.890 31.275 6.255
6213 0 1 2.000 70.890 29.190 8.340
6214 0 1 2.000 72.975 31.275 8.340
6215 0 1 2.000 72.975 29.190 10.425
6216 0 1 2.000 70.890 31.275 10.425
6217 0 1 2.000 70.890 29.190 12.510
6218 0 1 2.000 72.975 31.275 12.510
6219 0 1 2.000 72.975 29.190 14.595
6220 0 1 2.000 70.890 31.275 14.595
6221 0 1 2.000 70.890 29.190 16.680
6222 0 1 2.000 72.975 31.275 16.680
6223 0 1 2.000 72.975 29.190 18.765
6224 0 1 2.000 70.890 31.275 18.765
6225 0 1 2.000 70.890 29.190 20.850
6226 0 1 2.000 72.975 31.275 20.850
6227 0 1 2.000 72.975 29.190 22.935
6228 0 1 2.000 70.890 31.275 22.935
6229 0 1 2.000 70.890 29.190 25.020
6230 0 1 2.000 72.975 31.275 25.020
6231 0 1 2.000 72.975 29.190 27.105
6232 0 1 2.000 70.890 31.275 27.105
6233 0 1 2.000 70.890 29.190 29.190
6234 0 1 2.000 72.975 31.275 29.190
6235 0 1 2.000 72.975 29.190 31.275
6236 0 1 2.000 70.890 31.275 31.275
6237 0 1 2.000 70.890 29.190 33.360
6238 0 1 2.000 72.975 31.275 33.360
6239 0 1 2.000 70.890 31.275 35.445
6240 0 1 2.000 70.890 33.360 0.000
6241 0 1 2.000 72.975 35.445 0.000
6242 0 1 2.000 72.975 33.360 2.085
6243 0 1 2.000 70.890 35.445 2.085
6244 0 1 2.000 70.890 33.360 4.170
6245 0 1 2.000 72.975 35.445 4.170
6246 0 1 2.000 72.975 33.360 6.255
6247 0 1 2.000 70.890 35.445 6.255
6248 0 1 2.000 70.890 33.360 8.340
6249 0 1 2.000 72.975 35.445 8.340
6250 0 1 2.000 72.975 33.360 10.425
6251 0 1 2.000 70.890 35.445 10.425
6252 0 1 2.000 70.890 33.360 12.510
6253 0 1 2.000 72.975 35.445 12.510
6254 0 1 2.000 72.975 33.360 14.595
6255 0 1 2.000 70.890 35.445 14.595
6256 0 1 2.000 70.890 33.360 16.680
6257 0 1 2.000 72.975 35.445 16.680
6258 0 1 2.000 72.975 33.360 18.765
6259 0 1 2.000 70.890 35.445 18.765
6260 0 1 2.000 70.890 33.360 20.850
6261 0 1 2.000 72.975 35.445 20.850
6262 0 1 2.000 72.975 33.360 22.935
6263 0 1 2.000 70.890 35.445 22.935
6264 0 1 2.000 70.890 33.360 25.020
6265 0 1 2.000 72.975 35.445 25.020
6266 0 1 2.000 72.975 33.360 27.105
6267 0 1 2.000 70.890 35.445 27.105
6268 0 1 2.000 70.890 33.360 29.190
6269 0 1 2.000 72.975 35.445 29.190
6270 0 1 2.000 72.975 33.360 31.275
6271 0 1 2.000 70.890 35.445 31.275
6272 0 1 2.000 70.890 33.360 33.360
6273 0 1 2.000 72.975 35.445 33.360
6274 0 1 2.000 72.975 33.360 35.445
6275 0 1 2.000 70.890 35.445 35.445
6276 0 1 2.000 70.890 33.360 37.530
6277 0 1 2.000 72.975 35.445 37.530
6278 0 1 2.000 70.890 35.445 39.615
6279 0 1 2.000 70.890 37.530 0.000
6280 0 1 2.000 72.975 39.615 0.000
6281 0 1 2.000 72.975 37.530 2.085
6282 0 1 2.000 70.890 39.615 2.085
6283 0 1 2.000 70.890 37.530 4.170
6284 0 1 2.000 72.975 39.615 4.170
6285 0 1 2.000 72.975 37.530 6.255
6286 0 1 2.000 70.890 39.615 6.255
6287 0 1 2.000 70.890 37.530 8.340
6288 0 1 2.000 72.975 39.615 8.340
6289 0 1 2.000 72.975 37.530 10.425
6290 0 1 2.000 70.890 39.615 10.425
6291 0 1 2.000 70.890 37.530 12.510
6292 0 1 2.000 72.975 39.615 12.510
6293 0 1 2.000 72.975 37.530 14.595
6294 0 1 2.000 70.890 39.615 14.595
6295 0 1 2.000 70.890 37.530 16.680
6296 0 1 2.000 72.975 39.615 16.680
6297 0 1 2.000 72.975 37.530 18.765
6298 0 1 2.000 70.890 39.615 18.765
6299 0 1 2.000 70.890 37.530 20.850
6300 0 1 2.000 72.975 39.615 20.850
6301 0 1 2.000 72.975 37.530 22.935
6302 0 1 2.000 70.890 39.615 22.935
6303 0 1 2.000 70.890 37.530 25.020
6304 0 1 2.000 72.975 39.615 25.020
6305 0 1 2.000 72.975 37.530 27.105
6306 0 1 2.000 70.890 39.615 27.105
6307 0 1 2.000 70.890 37.530 29.190
6308 0 1 2.000 72.975 39.615 29.190
6309 0 1 2.000 72.975 37.530 31.275
6310 0 1 2.000 70.890 39.615 31.275
6311 0 1 2.000 70.890 37.530 33.360
6312 0 1 2.000 72.975 39.615 33.360
6313 0 1 2.000 72.975 37.530 35.445
6314 0 1 2.000 70.890 39.615 35.445
6315 0 1 2.000 70.890 37.530 37.530
6316 0 1 2.000 72.975 39.615 37.530
6317 0 1 2.000 72.975 37.530 39.615
6318 0 1 2.000 70.890 39.615 39.615
6319 0 1 2.000 75.060 0.000 0.000
6320 0 1 2.000 77.145 2.085 0.000
6321 0 1 2.000 77.145 0.000 2.085
6322 0 1 2.000 75.060 2.085 2.085
6323 0 1 2.000 75.060 0.000 4.170
6324 0 1 2.000 77.145 2.085 4.170
6325 0 1 2.000 77.145 0.000 6.255
6326 0 1 2.000 75.060 2.085 6.255
6327 0 1 2.000 75.060 0.000 8.340
6328 0 1 2.000 77.145 2.085 8.340
6329 0 1 2.000 77.145 0.000 10.425
6330 0 1 2.000 75.060 2.085 10.425
6331 0 1 2.000 75.060 0.000 12.510
6332 0 1 2.000 77.145 2.085 12.510
6333 0 1 2.000 77.145 0.000 14.595
6334 0 1 2.000 75.060 2.085 14.595
6335 0 1 2.000 75.060 0.000 16.680
6336 0 1 2.000 77.145 2.085 16.680
6337 0 1 2.000 77.145 0.000 18.765
6338 0 1 2.000 75.060 2.085 18.765
6339 0 1 2.000 75.060 0.000 20.850
6340 0 1 2.000 77.145 2.085 20.850
6341 0 1 2.000 77.145 0.000 22.935
6342 0 1 2.000 75.060 2.085 22.935
6343 0 1 2.000 75.060 0.000 25.020
6344 0 1 2.000 77.145 2.085 25.020
6345 0 1 2.000 77.145 0.000 27.105
6346 0 1 2.000 75.060 2.085 27.105
6347 0 1 2.000 75.060 0.000 29.190
6348 0 1 2.000 77.145 2.085 29.190
6349 0 1 2.000 77.145 0.000 31.275
6350 0 1 2.000 75.060 2.085 31.275
6351 0 1 2.000 75.060 0.000 33.360
6352 0 1 2.000 77.145 2.085 33.360
6353 0 1 2.000 77.145 0.000 35.445
6354 0 1 2.000 75.060 2.085 35.445
6355 0 1 2.000 75.060 0.000 37.530
6356 0 1 2.000 77.145 2.085 37.530
6357 0 1 2.000 77.145 0.000 39.615
6358 0 1 2.000 75.060 2.085 39.615
6359 0 1 2.000 75.060 4.170 0.000
6360 0 1 2.000 77.145 6.255 0.000
6361 0 1 2.000 77.145 4.170 2.085
6362 0 1 2.000 75.060 6.255 2.085
6363 0 1 2.000 75.060 4.170 4.170
6364 0 1 2.000 77.145 6.255 4.170
6365 0 1 2.000 77.145 4.170 6.255
6366 0 1 2.000 75.060 6.255 6.255
6367 0 1 2.000 75.060 4.170 8.340
6368 0 1 2.000 77.145 6.255 8.340
6369 0 1 2.000 77.145 4.170 10.425
6370 0 1 2.000 75.060 6.255 10.425
6371 0 1 2.000 75.060 4.170 12.510
6372 0 1 2.000 77.145 6.255 12.510
6373 0 1 2.000 77.145 4.170 14.595
6374 0 1 2.000 75.060 6.255 14.595
6375 0 1 2.000 75.060 4.170 16.680
6376 0 1 2.000 77.145 6.255 16.680
6377 0 1 2.000 77.145 4.170 18.765
6378 0 1 2.000 75.060 6.255 18.765
6379 0 1 2.000 75.060 4.170 20.850
6380 0 1 2.000 77.145 6.255 20.850
6381 0 1 2.000 77.145 4.170 22.935
6382 0 1 2.000 75.060 6.255 22.935
6383 0 1 2.000 75.060 4.170 25.020
6384 0 1 2.000 77.145 6.255 25.020
6385 0 1 2.000 77.145 4.170 27.105
6386 0 1 2.000 75.060 6.255 27.105
6387 0 1 2.000 75.060 4.170 29.190
6388 0 1 2.000 77.145 6.255 29.190
6389 0 1 2.000 77.145 4.170 31.275
6390 0 1 2.000 75.060 6.255 31.275
6391 0 1 2.000 75.060 4.170 33.360
6392 0 1 2.000 77.145 6.255 33.360
6393 0 1 2.000 77.145 4.170 35.445
6394 0 1 2.000 75.060 6.255 35.445
6395 0 1 2.000 75.060 4.170 37.530
6396 0 1 2.000 77.145 6.255 37.530
6397 0 1 2.000 77.145 4.170 39.615
6398 0 1 2.000 75.060 6.255 39.615
6399 0 1 2.000 75.060 8.340 0.000
6400 0 1 2.000 77.145 10.425 0.000
6401 0 1 2.000 77.145 8.340 2.085
6402 0 1 2.000 75.060 10.425 2.085
6403 0 1 2.000 75.060 8.340 4.170
6404 0 1 2.000 77.145 10.425 4.170
6405 0 1 2.000 77.145 8.340 6.255
6406 0 1 2.000 75.060 10.425 6.255
6407 0 1 2.000 75.060 8.340 8.340
6408 0 1 2.000 77.145 10.425 8.340
6409 0 1 2.000 77.145 8.340 10.425
6410 0 1 2.000 75.060 10.425 10.425
6411 0 1 2.000 75.060 8.340 12.510
6412 0 1 2.000 77.145 10.425 12.510
6413 0 1 2.000 77.145 8.340 14.595
6414 0 1 2.000 75.060 10.425 14.595
6415 0 1 2.000 75.060 8.340 16.680
6416 0 1 2.000 77.145 10.425 16.680
6417 0 1 2.000 77.145 8.340 18.765
6418 0 1 2.000 75.060 10.425 18.765
6419 0 1 2.000 75.060 8.340 20.850
6420 0 1 2.000 77.145 10.425 20.850
6421 0 1 2.000 77.145 8.340 22.935
6422 0 1 2.000 75.060 10.425 22.935
6423 0 1 2.000 75.060 8.340 25.020
6424 0 1 2.000 77.145 10.425 25.020
6425 0 1 2.000 77.145 8.340 27.105
6426 0 1 2.000 75.060 10.425 27.105
6427 0 1 2.000 75.060 8.340 29.190
6428 0 1 2.000 77.145 10.425 29.190
6429 0 1 2.000 77.145 8.340 31.275
6430 0 1 2.000 75.060 10.425 31.275
6431 0 1 2.000 75.060 8.340 33.360
6432 0 1 2.000 77.145 10.425 33.360
6433 0 1 2.000 77.145 8.340 35.445
6434 0 1 2.000 75.060 10.425 35.445
6435 0 1 2.000 75.060 8.340 37.530
6436 0 1 2.000 75.060 12.510 0.000
6437 0 1 2.000 77.145 14.595 0.000
6438 0 1 2.000 77.145 12.510 2.085
6439 0 1 2.000 75.060 14.595 2.085
6440 0 1 2.000 75.060 12.510 4.170
6441 0 1 2.000 77.145 14.595 4.170
6442 0 1 2.000 77.145 12.510 6.255
6443 0 1 2.000 75.060 14.595 6.255
6444 0 1 2.000 75.060 12.510 8.340
6445 0 1 2.000 77.145 14.595 8.340
6446 0 1 2.000 77.145 12.510 10.425
6447 0 1 2.000 75.060 14.595 10.425
6448 0 1 2.000 75.060 12.510 12.510
6449 0 1 2.000 77.145 14.595 12.510
6450 0 1 2.000 77.145 12.510 14.595
6451 0 1 2.000 75.060 14.595 14.595
6452 0 1 2.000 75.060 12.510 16.680
6453 0 1 2.000 77.145 14.595 16.680
6454 0 1 2.000 77.145 12.510 18.765
6455 0 1 2.000 75.060 14.595 18.765
6456 0 1 2.000 75.060 12.510 20.850
6457 0 1 2.000 77.145 14.595 20.850
6458 0 1 2.000 77.145 12.510 22.935
6459 0 1 2.000 75.060 14.595 22.935
6460 0 1 2.000 75.060 12.510 25.020
6461 0 1 2.000 77.145 14.595 25.020
6462 0 1 2.000 77.145 12.510 27.105
6463 0 1 2.000 75.060 14.595 27.105
6464 0 1 2.000 75.060 12.510 29.190
6465 0 1 2.000 77.145 14.595 29.190
6466 0 1 2.000 77.145 12.510 31.275
6467 0 1 2.000 75.060 14.595 31.275
6468 0 1 2.000 75.060 12.510 33.360
6469 0 1 2.000 75.060 16.680 0.000
6470 0 1 2.000 77.145 18.765 0.000
6471 0 1 2.000 77.145 16.680 2.085
6472 0 1 2.000 75.060 18.765 2.085
6473 0 1 2.000 75.060 16.680 4.170
6474 0 1 2.000 77.145 18.765 4.170
6475 0 1 2.000 77.145 16.680 6.255
6476 0 1 2.000 75.060 18.765 6.255
6477 0 1 2.000 75.060 16.680 8.340
6478 0 1 2.000 77.145 18.765 8.340
6479 0 1 2.000 77.145 16.680 10.425
6480 0 1 2.000 75.060 18.765 10.425
6481 0 1 2.000 75.060 16.680 12.510
6482 0 1 2.000 77.145 18.765 12.510
6483 0 1 2.000 77.145 16.680 14.595
6484 0 1 2.000 75.060 18.765 14.595
6485 0 1 2.000 75.060 16.680 16.680
6486 0 1 2.000 77.145 18.765 16.680
6487 0 1 2.000 77.145 16.680 18.765
6488 0 1 2.000 75.060 18.765 18.765
6489 0 1 2.000 75.060 16.680 20.850
6490 0 1 2.000 77.145 18.765 20.850
6491 0 1 2.000 77.145 16.680 22.935
6492 0 1 2.000 75.060 18.765 22.935
6493 0 1 2.000 75.060 16.680 25.020
6494 0 1 2.000 77.145 18.765 25.020
6495 0 1 2.000 77.145 16.680 27.105
6496 0 1 2.000 75.060 18.765 27.105
6497 0 1 2.000 75.060 16.680 29.190
6498 0 1 2.000 75.060 20.850 0.000
6499 0 1 2.000 77.145 22.935 0.000
6500 0 1 2.000 77.145 20.850 2.085
6501 0 1 2.000 75.060 22.935 2.085
6502 0 1 2.000 75.060 20.850 4.170
6503 0 1 2.000 77.145 22.935 4.170
6504 0 1 2.000 77.145 20.850 6.255
6505 0 1 2.000 75.060 22.935 6.255
6506 0 1 2.000 75.060 20.850 8.340
6507 0 1 2.000 77.145 22.935 8.340
6508 0 1 2.000 77.145 20.850 10.425
6509 0 1 2.000 75.060 22.935 10.425
6510 0 1 2.000 75.060 20.850 12.510
6511 0 1 2.000 77.145 22.935 12.510
6512 0 1 2.000 77.145 20.850 14.595
6513 0 1 2.000 75.060 22.935 14.595
6514 0 1 2.000 75.060 20.850 16.680
6515 0 1 2.000 77.145 22.935 16.680
6516 0 1 2.000 77.145 20.850 18.765
6517 0 1 2.000 75.060 22.935 18.765
6518 0 1 2.000 75.060 20.850 20.850
6519 0 1 2.000 77.145 22.935 20.850
6520 0 1 2.000 77.145 20.850 22.935
6521 0 1 2.000 75.060 22.935 22.935
6522 0 1 2.000 75.060 20.850 25.020
6523 0 1 2.000 77.145 22.935 25.020
6524 0 1 2.000 75.060 22.935 27.105
6525 0 1 2.000 75.060 25.020 0.000
6526 0 1 2.000 77.145 27.105 0.000
6527 0 1 2.000 77.145 25.020 2.085
6528 0 1 2.000 75.060 27.105 2.085
6529 0 1 2.000 75.060 25.020 4.170
6530 0 1 2.000 77.145 27.105 4.170
6531 0 1 2.000 77.145 25.020 6.255
6532 0 1 2.000 75.060 27.105 6.255
6533 0 1 2.000 75.060 25.020 8.340
6534 0 1 2.000 77.145 27.105 8.340
6535 0 1 2.000 77.145 25.020 10.425
6536 0 1 2.000 75.060 27.105 10.425
6537 0 1 2.000 75.060 25.020 12.510
6538 0 1 2.000 77.145 27.105 12.510
6539 0 1 2.000 77.145 25.020 14.595
6540 0 1 2.000 75.060 27.105 14.595
6541 0 1 2.000 75.060 25.020 16.680
6542 0 1 2.000 77.145 27.105 16.680
6543 0 1 2.000 77.145 25.020 18.765
6544 0 1 2.000 75.060 27.105 18.765
6545 0 1 2.000 75.060 25.020 20.850
6546 0 1 2.000 77.145 27.105 20.850
6547 0 1 2.000 77.145 25.020 22.935
6548 0 1 2.000 75.060 27.105 22.935
6549 0 1 2.000 75.060 25.020 25.020
6550 0 1 2.000 77.145 27.105 25.020
6551 0 1 2.000 77.145 25.020 27.105
6552 0 1 2.000 75.060 27.105 27.105
6553 0 1 2.000 75.060 25.020 29.190
6554 0 1 2.000 77.145 27.105 29.190
6555 0 1 2.000 75.060 27.105 31.275
6556 0 1 2.000 75.060 29.190 0.000
6557 0 1 2.000 77.145 31.275 0.000
6558 0 1 2.000 77.145 29.190 2.085
6559 0 1 2.000 75.060 31.275 2.085
6560 0 1 2.000 75.060 29.190 4.170
6561 0 1 2.000 77.145 31.275 4.170
6562 0 1 2.000 77.145 29.190 6.255
6563 0 1 2.000 75.060 31.275 6.255
6564 0 1 2.000 75.060 29.190 8.340
6565 0 1 2.000 77.145 31.275 8.340
6566 0 1 2.000 77.145 29.190 10.425
6567 0 1 2.000 75.060 31.275 10.425
6568 0 1 2.000 75.060 29.190 12.510
6569 0 1 2.000 77.145 31.275 12.510
6570 0 1 2.000 77.145 29.190 14.595
6571 0 1 2.000 75.060 31.275 14.595
6572 0 1 2.000 75.060 29.190 16.680
6573 0 1 2.000 77.145 31.275 16.680
6574 0 1 2.000 77.145 29.190 18.765
6575 0 1 2.000 75.060 31.275 18.765
6576 0 1 2.000 75.060 29.190 20.850
6577 0 1 2.000 77.145 31.275 20.850
6578 0 1 2.000 77.145 29.190 22.935
6579 0 1 2.000 75.060 31.275 22.935
6580 0 1 2.000 75.060 29.190 25.020
6581 0 1 2.000 77.145 31.275 25.020
6582 0 1 2.000 77.145 29.190 27.105
6583 0 1 2.000 75.060 31.275 27.105
6584 0 1 2.000 75.060 29.190 29.190
6585 0 1 2.000 77.145 31.275 29.190
6586 0 1 2.000 77.145 29.190 31.275
6587 0 1 2.000 75.060 31.275 31.275
6588 0 1 2.000 75.060 29.190 33.360
6589 0 1 2.000 77.145 31.275 33.360
6590 0 1 2.000 75.060 31.275 35.445
6591 0 1 2.000 75.060 33.360 0.000
6592 0 1 2.000 77.145 35.445 0.000
6593 0 1 2.000 77.145 33.360 2.085
6594 0 1 2.000 75.060 35.445 2.085
6595 0 1 2.000 75.060 33.360 4.170
6596 0 1 2.000 77.145 35.445 4.170
6597 0 1 2.000 77.145 33.360 6.255
6598 0 1 2.000 75.060 35.445 6.255
6599 0 1 2.000 75.060 33.360 8.340
6600 0 1 2.000 77.145 35.445 8.340
6601 0 1 2.000 77.145 33.360 10.425
6602 0 1 2.000 75.060 35.445 10.425
6603 0 1 2.000 75.060 33.360 12.510
6604 0 1 2.000 77.145 35.445 12.510
6605 0 1 2.000 77.145 33.360 14.595
6606 0 1 2.000 75.060 35.445 14.595
6607 0 1 2.000 75.060 33.360 16.680
6608 0 1 2.000 77.145 35.445 16.680
6609 0 1 2.000 77.145 33.360 18.765
6610 0 1 2.000 75.060 35.445 18.765
6611 0 1 2.000 75.060 33.360 20.850
6612 0 1 2.000 77.145 35.445 20.850
6613 0 1 2.000 77.145 33.360 22.935
6614 0 1 2.000 75.060 35.445 22.935
6615 0 1 2.000 75.060 33.360 25.020
6616 0 1 2.000 77.145 35.445 25.020
6617 0 1 2.000 77.145 33.360 27.105
6618 0 1 2.000 75.060 35.445 27.105
6619 0 1 2.000 75.060 33.360 29.190
6620 0 1 2.000 77.145 35.445 29.190
6621 0 1 2.000 77.145 33.360 31.275
6622 0 1 2.000 75.060 35.445 31.275
6623 0 1 2.000 75.060 33.360 33.360
6624 0 1 2.000 77.145 35.445 33.360
6625 0 1 2.000 77.145 33.360 35.445
6626 0 1 2.000 75.060 35.445 35.445
6627 0 1 2.000 75.060 33.360 37.530
6628 0 1 2.000 77.145 35.445 37.530
6629 0 1 2.000 75.060 35.445 39.615
6630 0 1 2.000 75.060 37.530 0.000
6631 0 1 2.000 77.145 39.615 0.000
6632 0 1 2.000 77.145 37.530 2.085
6633 0 1 2.000 75.060 39.615 2.085
6634 0 1 2.000 75.060 37.530 4.170
6635 0 1 2.000 77.145 39.615 4.170
6636 0 1 2.000 77.145 37.530 6.255
6637 0 1 2.000 75.060 39.615 6.255
6638 0 1 2.000 75.060 37.530 8.340
6639 0 1 2.000 77.145 39.615 8.340
6640 0 1 2.000 77.145 37.530 10.425
6641 0 1 2.000 75.060 39.615 10.425
6642 0 1 2.000 75.060 37.530 12.510
6643 0 1 2.000 77.145 39.615 12.510
6644 0 1 2.000 77.145 37.530 14.595
6645 0 1 2.000 75.060 39.615 14.595
6646 0 1 2.000 75.060 37.530 16.680
6647 0 1 2.000 77.145 39.615 16.680
6648 0 1 2.000 77.145 37.530 18.765
6649 0 1 2.000 75.060 39.615 18.765
6650 0 1 2.000 75.060 37.530 20.850
6651 0 1 2.000 77.145 39.615 20.850
6652 0 1 2.000 77.145 37.530 22.935
6653 0 1 2.000 75.060 39.615 22.935
6654 0 1 2.000 75.060 37.530 25.020
6655 0 1 2.000 77.145 39.615 25.020
6656 0 1 2.000 77.145 37.530 27.105
6657 0 1 2.000 75.060 39.615 27.105
6658 0 1 2.000 75.060 37.530 29.190
6659 0 1 2.000 77.145 39.615 29.190
6660 0 1 2.000 77.145 37.530 31.275
6661 0 1 2.000 75.060 39.615 31.275
6662 0 1 2.000 75.060 37.530 33.360
6663 0 1 2.000 77.145 39.615 33.360
6664 0 1 2.000 77.145 37.530 35.445
6665 0 1 2.000 75.060 39.615 35.445
6666 0 1 2.000 75.060 37.530 37.530
6667 0 1 2.000 77.145 39.615 37.530
6668 0 1 2.000 77.145 37.530 39.615
6669 0 1 2.000 75.060 39.615 39.615
6670 0 1 2.000 79.230 0.000 0.000
6671 0 1 2.000 81.315 2.085 0.000
6672 0 1 2.000 81.315 0.000 2.085
6673 0 1 2.000 79.230 2.085 2.085
6674 0 1 2.000 79.230 0.000 4.170
6675 0 1 2.000 81.315 2.085 4.170
6676 0 1 2.000 81.315 0.000 6.255
6677 0 1 2.000 79.230 2.085 6.255
6678 0 1 2.000 79.230 0.000 8.340
6679 0 1 2.000 81.315 2.085 8.340
6680 0 1 2.000 81.315 0.000 10.425
6681 0 1 2.000 79.230 2.085 10.425
6682 0 1 2.000 79.230 0.000 12.510
6683 0 1 2.000 81.315 2.085 12.510
6684 0 1 2.000 81.315 0.000 14.595
6685 0 1 2.000 79.230 2.085 14.595
6686 0 1 2.000 79.230 0.000 16.680
6687 0 1 2.000 81.315 2.085 16.680
6688 0 1 2.000 81.315 0.000 18.765
6689 0 1 2.000 79.230 2.085 18.765
6690 0 1 2.000 79.230 0.000 20.850
6691 0 1 2.000 81.315 2.085 20.850
6692 0 1 2.000 81.315 0.000 22.935
6693 0 1 2.000 79.230 2.085 22.935
6694 0 1 2.000 79.230 0.000 25.020
6695 0 1 2.000 81.315 2.085 25.020
6696 0 1 2.000 81.315 0.000 27.105
6697 0 1 2.000 79.230 2.085 27.105
6698 0 1 2.000 79.230 0.000 29.190
6699 0 1 2.000 81.315 2.085 29.190
6700 0 1 2.000 81.315 0.000 31.275
6701 0 1 2.000 79.230 2.085 31.275
6702 0 1 2.000 79.230 0.000 33.360
6703 0 1 2.000 81.315 2.085 33.360
6704 0 1 2.000 81.315 0.000 35.445
6705 0 1 2.000 79.230 2.085 35.445
6706 0 1 2.000 79.230 0.000 37.530
6707 0 1 2.000 81.315 2.085 37.530
6708 0 1 2.000 81.315 0.000 39.615
6709 0 1 2.000 79.230 2.085 39.615
6710 0 1 2.000 79.230 4.170 0.000
6711 0 1 2.000 81.315 6.255 0.000
6712 0 1 2.000 81.315 4.170 2.085
6713 0 1 2.000 79.230 6.255 2.085
6714 0 1 2.000 79.230 4.170 4.170
6715 0 1 2.000 81.315 6.255 4.170
6716 0 1 2.000 81.315 4.170 6.255
6717 0 1 2.000 79.230 6.255 6.255
6718 0 1 2.000 79.230 4.170 8.340
6719 0 1 2.000 81.315 6.255 8.340
6720 0 1 2.000 81.315 4.170 10.425
6721 0 1 2.000 79.230 6.255 10.425
6722 0 1 2.000 79.230 4.170 12.510
6723 0 1 2.000 81.315 6.255 12.510
6724 0 1 2.000 81.315 4.170 14.595
6725 0 1 2.000 79.230 6.255 14.595
6726 0 1 2.000 79.230 4.170 16.680
6727 0 1 2.000 81.315 6.255 16.680
6728 0 1 2.000 81.315 4.170 18.765
6729 0 1 2.000 79.230 6.255 18.765
6730 0 1 2.000 79.230 4.170 20.850
6731 0 1 2.000 81.315 6.255 20.850
6732 0 1 2.000 81.315 4.170 22.935
6733 0 1 2.000 79.230 6.255 22.935
6734 0 1 2.000 79.230 4.170 25.020
6735 0 1 2.000 81.315 6.255 25.020
6736 0 1 2.000 81.315 4.170 27.105
6737 0 1 2.000 79.230 6.255 27.105
6738 0 1 2.000 79.230 4.170 29.190
6739 0 1 2.000 81.315 6.255 29.190
6740 0 1 2.000 81.315 4.170 31.275
6741 0 1 2.000 79.230 6.255 31.275
6742 0 1 2.000 79.230 4.170 33.360
6743 0 1 2.000 81.315 6.255 33.360
6744 0 1 2.000 81.315 4.170 35.445
6745 0 1 2.000 79.230 6.255 35.445
6746 0 1 2.000 79.230 4.170 37.530
6747 0 1 2.000 81.315 6.255 37.530
6748 0 1 2.000 81.315 4.170 39.615
6749 0 1 2.000 79.230 6.255 39.615
6750 0 1 2.000 79.230 8.340 0.000
6751 0 1 2.000 81.315 10.425 0.000
6752 0 1 2.000 81.315 8.340 2.085
6753 0 1 2.000 79.230 10.425 2.085
6754 0 1 2.000 79.230 8.340 4.170
6755 0 1 2.000 81.315 10.425 4.170
6756 0 1 2.000 81.315 8.340 6.255
6757 0 1 2.000 79.230 10.425 6.255
6758 0 1 2.000 79.230 8.340 8.340
6759 0 1 2.000 81.315 10.425 8.340
6760 0 1 2.000 81.315 8.340 10.425
6761 0 1 2.000 79.230 10.425 10.425
6762 0 1 2.000 79.230 8.340 12.510
6763 0 1 2.000 81.315 10.425 12.510
6764 0 1 2.000 81.315 8.340 14.595
6765 0 1 2.000 79.230 10.425 14.595
6766 0 1 2.000 79.230 8.340 16.680
6767 0 1 2.000 81.315 10.425 16.680
6768 0 1 2.000 81.315 8.340 18.765
6769 0 1 2.000 79.230 10.425 18.765
6770 0 1 2.000 79.230 8.340 20.850
6771 0 1 2.000 81.315 10.425 20.850
6772 0 1 2.000 81.315 8.340 22.935
6773 0 1 2.000 79.230 10.425 22.935
6774 0 1 2.000 79.230 8.340 25.020
6775 0 1 2.000 81.315 10.425 25.020
6776 0 1 2.000 81.315 8.340 27.105
6777 0 1 2.000 79.230 10.425 27.105
6778 0 1 2.000 79.230 8.340 29.190
6779 0 1 2.000 81.315 10.425 29.190
6780 0 1 2.000 81.315 8.340 31.275
6781 0 1 2.000 79.230 10.425 31.275
6782 0 1 2.000 79.230 8.340 33.360
6783 0 1 2.000 81.315 10.425 33.360
6784 0 1 2.000 81.315 8.340 35.445
6785 0 1 2.000 79.230 10.425 35.445
6786 0 1 2.000 79.230 8.340 37.530
6787 0 1 2.000 79.230 12.510 0.000
6788 0 1 2.000 81.315 14.595 0.000
6789 0 1 2.000 81.315 12.510 2.085
6790 0 1 2.000 79.230 14.595 2.085
6791 0 1 2.000 79.230 12.510 4.170
6792 0 1 2.000 81.315 14.595 4.170
6793 0 1 2.000 81.315 12.510 6.255
6794 0 1 2.000 79.230 14.595 6.255
6795 0 1 2.000 79.230 12.510 8.340
6796 0 1 2.000 81.315 14.595 8.340
6797 0 1 2.000 81.315 12.510 10.425
6798 0 1 2.000 79.230 14.595 10.425
6799 0 1 2.000 79.230 12.510 12.510
6800 0 1 2.000 81.315 14.595 12.510
6801 0 1 2.000 81.315 12.510 14.595
6802 0 1 2.000 79.230 14.595 14.595
6803 0 1 2.000 79.230 12.510 16.680
6804 0 1 2.000 81.315 14.595 16.680
6805 0 1 2.000 81.315 12.510 18.765
6806 0 1 2.000 79.230 14.595 18.765
6807 0 1 2.000 79.230 12.510 20.850
6808 0 1 2.000 81.315 14.595 20.850
6809 0 1 2.000 81.315 12.510 22.935
6810 0 1 2.000 79.230 14.595 22.935
6811 0 1 2.000 79.230 12.510 25.020
6812 0 1 2.000 81.315 14.595 25.020
6813 0 1 2.000 81.315 12.510 27.105
6814 0 1 2.000 79.230 14.595 27.105
6815 0 1 2.000 79.230 12.510 29.190
6816 0 1 2.000 81.315 14.595 29.190
6817 0 1 2.000 81.315 12.510 31.275
6818 0 1 2.000 79.230 14.595 31.275
6819 0 1 2.000 79.230 12.510 33.360
6820 0 1 2.000 79.230 16.680 0.000
6821 0 1 2.000 81.315 18.765 0.000
6822 0 1 2.000 81.315 16.680 2.085
6823 0 1 2.000 79.230 18.765 2.085
6824 0 1 2.000 79.230 16.680 4.170
6825 0 1 2.000 81.315 18.765 4.170
6826 0 1 2.000 81.315 16.680 6.255
6827 0 1 2.000 79.230 18.765 6.255
6828 0 1 2.000 79.230 16.680 8.340
6829 0 1 2.000 81.315 18.765 8.340
6830 0 1 2.000 81.315 16.680 10.425
6831 0 1 2.000 79.230 18.765 10.425
6832 0 1 2.000 79.230 16.680 12.510
6833 0 1 2.000 81.315 18.765 12.510
6834 0 1 2.000 81.315 16.680 14.595
6835 0 1 2.000 79.230 18.765 14.595
6836 0 1 2.000 79.230 16.680 16.680
6837 0 1 2.000 81.315 18.765 16.680
6838 0 1 2.000 81.315 16.680 18.765
6839 0 1 2.000 79.230 18.765 18.765
6840 0 1 2.000 79.230 16.680 20.850
6841 0 1 2.000 81.315 18.765 20.850
6842 0 1 2.000 81.315 16.680 22.935
6843 0 1 2.000 79.230 18.765 22.935
6844 0 1 2.000 79.230 16.680 25.020
6845 0 1 2.000 81.315 18.765 25.020
6846 0 1 2.000 81.315 16.680 27.105
6847 0 1 2.000 79.230 18.765 27.105
6848 0 1 2.000 79.230 16.680 29.190
6849 0 1 2.000 79.230 20.850 0.000
6850 0 1 2.000 81.315 22.935 0.000
6851 0 1 2.000 81.315 20.850 2.085
6852 0 1 2.000 79.230 22.935 2.085
6853 0 1 2.000 79.230 20.850 4.170
6854 0 1 2.000 81.315 22.935 4.170
6855 0 1 2.000 81.315 20.850 6.255
6856 0 1 2.000 79.230 22.935 6.255
6857 0 1 2.000 79.230 20.850 8.340
6858 0 1 2.000 81.315 22.935 8.340
6859 0 1 2.000 81.315 20.850 10.425
6860 0 1 2.000 79.230 22.935 10.425
6861 0 1 2.000 79.230 20.850 12.510
6862 0 1 2.000 81.315 22.935 12.510
6863 0 1 2.000 81.315 20.850 14.595
6864 0 1 2.000 79.230 22.935 14.595
6865 0 1 2.000 79.230 20.850 16.680
6866 0 1 2.000 81.315 22.935 16.680
6867 0 1 2.000 81.315 20.850 18.765
6868 0 1 2.000 79.230 22.935 18.765
6869 0 1 2.000 79.230 20.850 20.850
6870 0 1 2.000 81.315 22.935 20.850
6871 0 1 2.000 81.315 20.850 22.935
6872 0 1 2.000 79.230 22.935 22.935
6873 0 1 2.000 79.230 20.850 25.020
6874 0 1 2.000 81.315 22.935 25.020
6875 0 1 2.000 79.230 22.935 27.105
6876 0 1 2.000 79.230 25.020 0.000
6877 0 1 2.000 81.315 27.105 0.000
6878 0 1 2.000 81.315 25.020 2.085
6879 0 1 2.000 79.230 27.105 2.085
6880 0 1 2.000 79.230 25.020 4.170
6881 0 1 2.000 81.315 27.105 4.170
6882 0 1 2.000 81.315 25.020 6.255
6883 0 1 2.000 79.230 27.105 6.255
6884 0 1 2.000 79.230 25.020 8.340
6885 0 1 2.000 81.315 27.105 8.340
6886 0 1 2.000 81.315 25.020 10.425
6887 0 1 2.000 79.230 27.105 10.425
6888 0 1 2.000 79.230 25.020 12.510
6889 0 1 2.000 81.315 27.105 12.510
6890 0 1 2.000 81.315 25.020 14.595
6891 0 1 2.000 79.230 27.105 14.595
6892 0 1 2.000 79.230 25.020 16.680
6893 0 1 2.000 81.315 27.105 16.680
6894 0 1 2.000 81.315 25.020 18.765
6895 0 1 2.000 79.230 27.105 18.765
6896 0 1 2.000 79.230 25.020 20.850
6897 0 1 2.000 81.315 27.105 20.850
6898 0 1 2.000 81.315 25.020 22.935
6899 0 1 2.000 79.230 27.105 22.935
6900 0 1 2.000 79.230 25.020 25.020
6901 0 1 2.000 81.315 27.105 25.020
6902 0 1 2.000 81.315 25.020 27.105
6903 0 1 2.000 79.230 27.105 27.105
6904 0 1 2.000 79.230 25.020 29.190
6905 0 1 2.000 81.315 27.105 29.190
6906 0 1 2.000 79.230 27.105 31.275
6907 0 1 2.000 79.230 29.190 0.000
6908 0 1 2.000 81.315 31.275 0.000
6909 0 1 2.000 81.315 29.190 2.085
6910 0 1 2.000 79.230 31.275 2.085
6911 0 1 2.000 79.230 29.190 4.170
6912 0 1 2.000 81.315 31.275 4.170
6913 0 1 2.000 81.315 29.190 6.255
6914 0 1 2.000 79.230 31.275 6.255
6915 0 1 2.000 79.230 29.190 8.340
6916 0 1 2.000 81.315 31.275 8.340
6917 0 1 2.000 81.315 29.190 10.425
6918 0 1 2.000 79.230 31.275 10.425
6919 0 1 2.000 79.230 29.190 12.510
6920 0 1 2.000 81.315 31.275 12.510
6921 0 1 2.000 81.315 29.190 14.595
6922 0 1 2.000 79.230 31.275 14.595
6923 0 1 2.000 79.230 29.190 16.680
6924 0 1 2.000 81.315 31.275 16.680
6925 0 1 2.000 81.315 29.190 18.765
6926 0 1 2.000 79.230 31.275 18.765
6927 0 1 2.000 79.230 29.190 20.850
6928 0 1 2.000 81.315 31.275 20.850
6929 0 1 2.000 81.315 29.190 22.935
6930 0 1 2.000 79.230 31.275 22.935
6931 0 1 2.000 79.230 29.190 25.020
6932 0 1 2.000 81.315 31.275 25.020
6933 0 1 2.000 81.315 29.190 27.105
6934 0 1 2.000 79.230 31.275 27.105
6935 0 1 2.000 79.230 29.190 29.190
6936 0 1 2.000 81.315 31.275 29.190
6937 0 1 2.000 81.315 29.190 31.275
6938 0 1 2.000 79.230 31.275 31.275
6939 0 1 2.000 79.230 29.190 33.360
6940 0 1 2.000 81.315 31.275 33.360
6941 0 1 2.000 79.230 31.275 35.445
6942 0 1 2.000 79.230 33.360 0.000
6943 0 1 2.000 81.315 35.445 0.000
6944 0 1 2.000 81.315 33.360 2.085
6945 0 1 2.000 79.230 35.445 2.085
6946 0 1 2.000 79.230 33.360 4.170
6947 0 1 2.000 81.315 35.445 4.170
6948 0 1 2.000 81.315 33.360 6.255
6949 0 1 2.000 79.230 35.445 6.255
6950 0 1 2.000 79.230 33.360 8.340
6951 0 1 2.000 81.315 35.445 8.340
6952 0 1 2.000 81.315 33.360 10.425
6953 0 1 2.000 79.230 35.445 10.425
6954 0 1 2.000 79.230 33.360 12.510
6955 0 1 2.000 81.315 35.445 12.510
6956 0 1 2.000 81.315 33.360 14.595
6957 0 1 2.000 79.230 35.445 14.595
6958 0 1 2.000 79.230 33.360 16.680
6959 0 1 2.000 81.315 35.445 16.680
6960 0 1 2.000 81.315 33.360 18.765
6961 0 1 2.000 79.230 35.445 18.765
6962 0 1 2.000 79.230 33.360 20.850
6963 0 1 2.000 81.315 35.445 20.850
6964 0 1 2.000 81.315 33.360 22.935
6965 0 1 2.000 79.230 35.445 22.935
6966 0 1 2.000 79.230 33.360 25.020
6967 0 1 2.000 81.315 35.445 25.020
6968 0 1 2.000 81.315 33.360 27.105
6969 0 1 2.000 79.230 35.445 27.105
6970 0 1 2.000 79.230 33.360 29.190
6971 0 1 2.000 81.315 35.445 29.190
6972 0 1 2.000 81.315 33.360 31.275
6973 0 1 2.000 79.230 35.445 31.275
6974 0 1 2.000 79.230 33.360 33.360
6975 0 1 2.000 81.315 35.445 33.360
6976 0 1 2.000 81.315 33.360 35.445
6977 0 1 2.000 79.230 35.445 35.445
6978 0 1 2.000 79.230 33.360 37.530
6979 0 1 2.000 81.315 35.445 37.530
6980 0 1 2.000 79.230 35.445 39.615
6981 0 1 2.000 79.230 37.530 0.000
6982 0 1 2.000 81.315 39.615 0.000
6983 0 1 2.000 81.315 37.530 2.085
6984 0 1 2.000 79.230 39.615 2.085
6985 0 1 2.000 79.230 37.530 4.170
6986 0 1 2.000 81.315 39.615 4.170
6987 0 1 2.000 81.315 37.530 6.255
6988 0 1 2.000 79.230 39.615 6.255
6989 0 1 2.000 79.230 37.530 8.340
6990 0 1 2.000 81.315 39.615 8.340
6991 0 1 2.000 81.315 37.530 10.425
6992 0 1 2.000 79.230 39.615 10.425
6993 0 1 2.000 79.230 37.530 12.510
6994 0 1 2.000 81.315 39.615 12.510
6995 0 1 2.000 81.315 37.530 14.595
6996 0 1 2.000 79.230 39.615 14.595
6997 0 1 2.000 79.230 37.530 16.680
6998 0 1 2.000 81.315 39.615 16.680
6999 0 1 2.000 81.315 37.530 18.765
7000 0 1 2.000 79.230 39.615 18.765
7001 0 1 2.000 79.230 37.530 20.850
7002 0 1 2.000 81.315 39.615 20.850
7003 0 1 2.000 81.315 37.530 22.935
7004 0 1 2.000 79.230 39.615 22.935
7005 0 1 2.000 79.230 37.530 25.020
7006 0 1 2.000 81.315 39.615 25.020
7007 0 1 2.000 81.315 37.530 27.105
7008 0 1 2.000 79.230 39.615 27.105
7009 0 1 2.000 79.230 37.530 29.190
7010 0 1 2.000 81.315 39.615 29.190
7011 0 1 2.000 81.315 37.530 31.275
7012 0 1 2.000 79.230 39.615 31.275
7013 0 1 2.000 79.230 37.530 33.360
7014 0 1 2.000 81.315 39.615 33.360
7015 0 1 2.000 81.315 37.530 35.445
7016 0 1 2.000 79.230 39.615 35.445
7017 0 1 2.000 79.230 37.530 37.530
7018 0 1 2.000 81.315 39.615 37.530
7019 0 1 2.000 81.315 37.530 39.615
7020 0 1 2.000 79.230 39.615 39.615
7021 0 1 2.000 83.400 0.000 0.000
7022 0 1 2.000 85.485 2.085 0.000
7023 0 1 2.000 85.485 0.000 2.085
7024 0 1 2.000 83.400 2.085 2.085
7025 0 1 2.000 83.400 0.000 4.170
7026 0 1 2.000 85.485 2.085 4.170
7027 0 1 2.000 85.485 0.000 6.255
7028 0 1 2.000 83.400 2.085 6.255
7029 0 1 2.000 83.400 0.000 8.340
7030 0 1 2.000 85.485 2.085 8.340
7031 0 1 2.000 85.485 0.000 10.425
7032 0 1 2.000 83.400 2.085 10.425
7033 0 1 2.000 83.400 0.000 12.510
7034 0 1 2.000 85.485 2.085 12.510
7035 0 1 2.000 85.485 0.000 14.595
7036 0 1 2.000 83.400 2.085 14.595
7037 0 1 2.000 83.400 0.000 16.680
7038 0 1 2.000 85.485 2.085 16.680
7039 0 1 2.000 85.485 0.000 18.765
7040 0 1 2.000 83.400 2.085 18.765
7041 0 1 2.000 83.400 0.000 20.850
7042 0 1 2.000 85.485 2.085 20.850
7043 0 1 2.000 85.485 0.000 22.935
7044 0 1 2.000 83.400 2.085 22.935
7045 0 1 2.000 83.400 0.000 25.020
7046 0 1 2.000 85.485 2.085 25.020
7047 0 1 2.000 85.485 0.000 27.105
7048 0 1 2.000 83.400 2.085 27.105
7049 0 1 2.000 83.400 0.000 29.190
7050 0 1 2.000 85.485 2.085 29.190
7051 0 1 2.000 85.485 0.000 31.275
7052 0 1 2.000 83.400 2.085 31.275
7053 0 1 2.000 83.400 0.000 33.360
7054 0 1 2.000 85.485 2.085 33.360
7055 0 1 2.000 85.485 0.000 35.445
7056 0 1 2.000 83.400 2.085 35.445
7057 0 1 2.000 83.400 0.000 37.530
7058 0 1 2.000 85.485 2.085 37.530
7059 0 1 2.000 85.485 0.000 39.615
7060 0 1 2.000 83.400 2.085 39.615
7061 0 1 2.000 83.400 4.170 0.000
7062 0 1 2.000 85.485 6.255 0.000
7063 0 1 2.000 85.485 4.170 2.085
7064 0 1 2.000 83.400 6.255 2.085
7065 0 1 2.000 83.400 4.170 4.170
7066 0 1 2.000 85.485 6.255 4.170
7067 0 1 2.000 85.485 4.170 6.255
7068 0 1 2.000 83.400 6.255 6.255
7069 0 1 2.000 83.400 4.170 8.340
7070 0 1 2.000 85.485 6.255 8.340
7071 0 1 2.000 85.485 4.170 10.425
7072 0 1 2.000 83.400 6.255 10.425
7073 0 1 2.000 83.400 4.170 12.510
7074 0 1 2.000 85.485 6.255 12.510
7075 0 1 2.000 85.485 4.170 14.595
7076 0 1 2.000 83.400 6.255 14.595
7077 0 1 2.000 83.400 4.170 16.680
7078 0 1 2.000 85.485 6.255 16.680
7079 0 1 2.000 85.485 4.170 18.765
7080 0 1 2.000 83.400 6.255 18.765
7081 0 1 2.000 83.400 4.170 20.850
7082 0 1 2.000 85.485 6.255 20.850
7083 0 1 2.000 85.485 4.170 22.935
7084 0 1 2.000 83.400 6.255 22.935
7085 0 1 2.000 83.400 4.170 25.020
7086 0 1 2.000 85.485 6.255 25.020
7087 0 1 2.000 85.485 4.170 27.105
7088 0 1 2.000 83.400 6.255 27.105
7089 0 1 2.000 83.400 4.170 29.190
7090 0 1 2.000 85.485 6.255 29.190
7091 0 1 2.000 85.485 4.170 31.275
7092 0 1 2.000 83.400 6.255 31.275
7093 0 1 2.000 83.400 4.170 33.360
7094 0 1 2.000 85.485 6.255 33.360
7095 0 1 2.000 85.485 4.170 35.445
7096 0 1 2.000 83.400 6.255 35.445
7097 0 1 2.000 83.400 4.170 37.530
7098 0 1 2.000 85.485 6.255 37.530
7099 0 1 2.000 85.485 4.170 39.615
7100 0 1 2.000 83.400 6.255 39.615
7101 0 1 2.000 83.400 8.340 0.000
7102 0 1 2.000 85.485 10.425 0.000
7103 0 1 2.000 85.485 8.340 2.085
7104 0 1 2.000 83.400 10.425 2.085
7105 0 1 2.000 83.400 8.340 4.170
7106 0 1 2.000 85.485 10.425 4.170
7107 0 1 2.000 85.485 8.340 6.255
7108 0 1 2.000 83.400 10.425 6.255
7109 0 1 2.000 83.400 8.340 8.340
7110 0 1 2.000 85.485 10.425 8.340
7111 0 1 2.000 85.485 8.340 10.425
7112 0 1 2.000 83.400 10.425 10.425
7113 0 1 2.000 83.400 8.340 12.510
7114 0 1 2.000 85.485 10.425 12.510
7115 0 1 2.000 85.485 8.340 14.595
7116 0 1 2.000 83.400 10.425 14.595
7117 0 1 2.000 83.400 8.340 16.680
7118 0 1 2.000 85.485 10.425 16.680
7119 0 1 2.000 85.485 8.340 18.765
7120 0 1 2.000 83.400 10.425 18.765
7121 0 1 2.000 83.400 8.340 20.850
7122 0 1 2.000 85.485 10.425 20.850
7123 0 1 2.000 85.485 8.340 22.935
7124 0 1 2.000 83.400 10.425 22.935
7125 0 1 2.000 83.400 8.340 25.020
7126 0 1 2.000 85.485 10.425 25.020
7127 0 1 2.000 85.485 8.340 27.105
7128 0 1 2.000 83.400 10.425 27.105
7129 0 1 2.000 83.400 8.340 29.190
7130 0 1 2.000 85.485 10.425 29.190
7131 0 1 2.000 85.485 8.340 31.275
7132 0 1 2.000 83.400 10.425 31.275
7133 0 1 2.000 83.400 8.340 33.360
7134 0 1 2.000 85.485 10.425 33.360
7135 0 1 2.000 85.485 8.340 35.445
7136 0 1 2.000 83.400 10.425 35.445
7137 0 1 2.000 83.400 8.340 37.530
7138 0 1 2.000 83.400 12.510 0.000
7139 0 1 2.000 85.485 14.595 0.000
7140 0 1 2.000 85.485 12.510 2.085
7141 0 1 2.000 83.400 14.595 2.085
7142 0 1 2.000 83.400 12.510 4.170
7143 0 1 2.000 85.485 14.595 4.170
7144 0 1 2.000 85.485 12.510 6.255
7145 0 1 2.000 83.400 14.595 6.255
7146 0 1 2.000 83.400 12.510 8.340
7147 0 1 2.000 85.485 14.595 8.340
7148 0 1 2.000 85.485 12.510 10.425
7149 0 1 2.000 83.400 14.595 10.425
7150 0 1 2.000 83.400 12.510 12.510
7151 0 1 2.000 85.485 14.595 12.510
7152 0 1 2.000 85.485 12.510 14.595
7153 0 1 2.000 83.400 14.595 14.595
7154 0 1 2.000 83.400 12.510 16.680
7155 0 1 2.000 85.485 14.595 16.680
7156 0 1 2.000 85.485 12.510 18.765
7157 0 1 2.000 83.400 14.595 18.765
7158 0 1 2.000 83.400 12.510 20.850
7159 0 1 2.000 85.485 14.595 20.850
7160 0 1 2.000 85.485 12.510 22.935
7161 0 1 2.000 83.400 14.595 22.935
7162 0 1 2.000 83.400 12.510 25.020
7163 0 1 2.000 85.485 14.595 25.020
7164 0 1 2.000 85.485 12.510 27.105
7165 0 1 2.000 83.400 14.595 27.105
7166 0 1 2.000 83.400 12.510 29.190
7167 0 1 2.000 85.485 14.595 29.190
7168 0 1 2.000 85.485 12.510 31.275
7169 0 1 2.000 83.400 14.595 31.275
7170 0 1 2.000 83.400 12.510 33.360
7171 0 1 2.000 83.400 16.680 0.000
7172 0 1 2.000 85.485 18.765 0.000
7173 0 1 2.000 85.485 16.680 2.085
7174 0 1 2.000 83.400 18.765 2.085
7175 0 1 2.000 83.400 16.680 4.170
7176 0 1 2.000 85.485 18.765 4.170
7177 0 1 2.000 85.485 16.680 6.255
7178 0 1 2.000 83.400 18.765 6.255
7179 0 1 2.000 83.400 16.680 8.340
7180 0 1 2.000 85.485 18.765 8.340
7181 0 1 2.000 85.485 16.680 10.425
7182 0 1 2.000 83.400 18.765 10.425
7183 0 1 2.000 83.400 16.680 12.510
7184 0 1 2.000 85.485 18.765 12.510
7185 0 1 2.000 85.485 16.680 14.595
7186 0 1 2.000 83.400 18.765 14.595
7187 0 1 2.000 83.400 16.680 16.680
7188 0 1 2.000 85.485 18.765 16.680
7189 0 1 2.000 85.485 16.680 18.765
7190 0 1 2.000 83.400 18.765 18.765
7191 0 1 2.000 83.400 16.680 20.850
7192 0 1 2.000 85.485 18.765 20.850
7193 0 1 2.000 85.485 16.680 22.935
7194 0 1 2.000 83.400 18.765 22.935
7195 0 1 2.000 83.400 16.680 25.020
7196 0 1 2.000 85.485 18.765 25.020
7197 0 1 2.000 85.485 16.680 27.105
7198 0 1 2.000 83.400 18.765 27.105
7199 0 1 2.000 83.400 16.680 29.190
7200 0 1 2.000 83.400 20.850 0.000
7201 0 1 2.000 85.485 22.935 0.000
7202 0 1 2.000 85.485 20.850 2.085
7203 0 1 2.000 83.400 22.935 2.085
7204 0 1 2.000 83.400 20.850 4.170
7205 0 1 2.000 85.485 22.935 4.170
7206 0 1 2.000 85.485 20.850 6.255
7207 0 1 2.000 83.400 22.935 6.255
7208 0 1 2.000 83.400 20.850 8.340
7209 0 1 2.000 85.485 22.935 8.340
7210 0 1 2.000 85.485 20.850 10.425
7211 0 1 2.000 83.400 22.935 10.425
7212 0 1 2.000 83.400 20.850 12.510
7213 0 1 2.000 85.485 22.935 12.510
7214 0 1 2.000 85.485 20.850 14.595
7215 0 1 2.000 83.400 22.935 14.595
7216 0 1 2.000 83.400 20.850 16.680
7217 0 1 2.000 85.485 22.935 16.680
7218 0 1 2.000 85.485 20.850 18.765
7219 0 1 2.000 83.400 22.935 18.765
7220 0 1 2.000 83.400 20.850 20.850
7221 0 1 2.000 85.485 22.935 20.850
7222 0 1 2.000 85.485 20.850 22.935
7223 0 1 2.000 83.400 22.935 22.935
7224 0 1 2.000 83.400 20.850 25.020
7225 0 1 2.000 85.485 22.935 25.020
7226 0 1 2.000 83.400 22.935 27.105
7227 0 1 2.000 83.400 25.020 0.000
7228 0 1 2.000 85.485 27.105 0.000
7229 0 1 2.000 85.485 25.020 2.085
7230 0 1 2.000 83.400 27.105 2.085
7231 0 1 2.000 83.400 25.020 4.170
7232 0 1 2.000 85.485 27.105 4.170
7233 0 1 2.000 85.485 25.020 6.255
7234 0 1 2.000 83.400 27.105 6.255
7235 0 1 2.000 83.400 25.020 8.340
7236 0 1 2.000 85.485 27.105 8.340
7237 0 1 2.000 85.485 25.020 10.425
7238 0 1 2.000 83.400 27.105 10.425
7239 0 1 2.000 83.400 25.020 12.510
7240 0 1 2.000 85.485 27.105 12.510
7241 0 1 2.000 85.485 25.020 14.595
7242 0 1 2.000 83.400 27.105 14.595
7243 0 1 2.000 83.400 25.020 16.680
7244 0 1 2.000 85.485 27.105 16.680
7245 0 1 2.000 85.485 25.020 18.765
7246 0 1 2.000 83.400 27.105 18.765
7247 0 1 2.000 83.400 25.020 20.850
7248 0 1 2.000 85.485 27.105 20.850
7249 0 1 2.000 85.485 25.020 22.935
7250 0 1 2.000 83.400 27.105 22.935
7251 0 1 2.000 83.400 25.020 25.020
7252 0 1 2.000 85.485 27.105 25.020
7253 0 1 2.000 85.485 25.020 27.105
7254 0 1 2.000 83.400 27.105 27.105
7255 0 1 2.000 83.400 25.020 29.190
7256 0 1 2.000 85.485 27.105 29.190
7257 0 1 2.000 83.400 27.105 31.275
7258 0 1 2.000 83.400 29.190 0.000
7259 0 1 2.000 85.485 31.275 0.000
7260 0 1 2.000 85.485 29.190 2.085
7261 0 1 2.000 83.400 31.275 2.085
7262 0 1 2.000 83.400 29.190 4.170
7263 0 1 2.000 85.485 31.275 4.170
7264 0 1 2.000 85.485 29.190 6.255
7265 0 1 2.000 83.400 31.275 6.255
7266 0 1 2.000 83.400 29.190 8.340
7267 0 1 2.000 85.485 31.275 8.340
7268 0 1 2.000 85.485 29.190 10.425
7269 0 1 2.000 83.400 31.275 10.425
7270 0 1 2.000 83.400 29.190 12.510
7271 0 1 2.000 85.485 31.275 12.510
7272 0 1 2.000 85.485 29.190 14.595
7273 0 1 2.000 83.400 31.275 14.595
7274 0 1 2.000 83.400 29.190 16.680
7275 0 1 2.000 85.485 31.275 16.680
7276 0 1 2.000 85.485 29.190 18.765
7277 0 1 2.000 83.400 31.275 18.765
7278 0 1 2.000 83.400 29.190 20.850
7279 0 1 2.000 85.485 31.275 20.850
7280 0 1 2.000 85.485 29.190 22.935
7281 0 1 2.000 83.400 31.275 22.935
7282 0 1 2.000 83.400 29.190 25.020
7283 0 1 2.000 85.485 31.275 25.020
7284 0 1 2.000 85.485 29.190 27.105
7285 0 1 2.000 83.400 31.275 27.105
7286 0 1 2.000 83.400 29.190 29.190
7287 0 1 2.000 85.485 31.275 29.190
7288 0 1 2.000 85.485 29.190 31.275
7289 0 1 2.000 83.400 31.275 31.275
7290 0 1 2.000 83.400 29.190 33.360
7291 0 1 2.000 85.485 31.275 33.360
7292 0 1 2.000 83.400 31.275 35.445
7293 0 1 2.000 83.400 33.360 0.000
7294 0 1 2.000 85.485 35.445 0.000
7295 0 1 2.000 85.485 33.360 2.085
7296 0 1 2.000 83.400 35.445 2.085
7297 0 1 2.000 83.400 33.360 4.170
7298 0 1 2.000 85.485 35.445 4.170
7299 0 1 2.000 85.485 33.360 6.255
7300 0 1 2.000 83.400 35.445 6.255
7301 0 1 2.000 83.400 33.360 8.340
7302 0 1 2.000 85.485 35.445 8.340
7303 0 1 2.000 85.485 33.360 10.425
7304 0 1 2.000 83.400 35.445 10.425
7305 0 1 2.000 83.400 33.360 12.510
7306 0 1 2.000 85.485 35.445 12.510
7307 0 1 2.000 85.485 33.360 14.595
7308 0 1 2.000 83.400 35.445 14.595
7309 0 1 2.000 83.400 33.360 16.680
7310 0 1 2.000 85.485 35.445 16.680
7311 0 1 2.000 85.485 33.360 18.765
7312 0 1 2.000 83.400 35.445 18.765
7313 0 1 2.000 83.400 33.360 20.850
7314 0 1 2.000 85.485 35.445 20.850
7315 0 1 2.000 85.485 33.360 22.935
7316 0 1 2.000 83.400 35.445 22.935
7317 0 1 2.000 83.400 33.360 25.020
7318 0 1 2.000 85.485 35.445 25.020
7319 0 1 2.000 85.485 33.360 27.105
7320 0 1 2.000 83.400 35.445 27.105
7321 0 1 2.000 83.400 33.360 29.190
7322 0 1 2.000 85.485 35.445 29.190
7323 0 1 2.000 85.485 33.360 31.275
7324 0 1 2.000 83.400 35.445 31.275
7325 0 1 2.000 83.400 33.360 33.360
7326 0 1 2.000 85.485 35.445 33.360
7327 0 1 2.000 85.485 33.360 35.445
7328 0 1 2.000 83.400 35.445 35.445
7329 0 1 2.000 83.400 33.360 37.530
7330 0 1 2.000 85.485 35.445 37.530
7331 0 1 2.000 83.400 35.445 39.615
7332 0 1 2.000 83.400 37.530 0.000
7333 0 1 2.000 85.485 39.615 0.000
7334 0 1 2.000 85.485 37.530 2.085
7335 0 1 2.000 83.400 39.615 2.085
7336 0 1 2.000 83.400 37.530 4.170
7337 0 1 2.000 85.485 39.615 4.170
7338 0 1 2.000 85.485 37.530 6.255
7339 0 1 2.000 83.400 39.615 6.255
7340 0 1 2.000 83.400 37.530 8.340
7341 0 1 2.000 85.485 39.615 8.340
7342 0 1 2.000 85.485 37.530 10.425
7343 0 1 2.000 83.400 39.615 10.425
7344 0 1 2.000 83.400 37.530 12.510
7345 0 1 2.000 85.485 39.615 12.510
7346 0 1 2.000 85.485 37.530 14.595
7347 0 1 2.000 83.400 39.615 14.595
7348 0 1 2.000 83.400 37.530 16.680
7349 0 1 2.000 85.485 39.615 16.680
7350 0 1 2.000 85.485 37.530 18.765
7351 0 1 2.000 83.400 39.615 18.765
7352 0 1 2.000 83.400 37.530 20.850
7353 0 1 2.000 85.485 39.615 20.850
7354 0 1 2.000 85.485 37.530 22.935
7355 0 1 2.000 83.400 39.615 22.935
7356 0 1 2.000 83.400 37.530 25.020
7357 0 1 2.000 85.485 39.615 25.020
7358 0 1 2.000 85.485 37.530 27.105
7359 0 1 2.000 83.400 39.615 27.105
7360 0 1 2.000 83.400 37.530 29.190
7361 0 1 2.000 85.485 39.615 29.190
7362 0 1 2.000 85.485 37.530 31.275
7363 0 1 2.000 83.400 39.615 31.275
7364 0 1 2.000 83.400 37.530 33.360
7365 0 1 2.000 85.485 39.615 33.360
7366 0 1 2.000 85.485 37.530 35.445
7367 0 1 2.000 83.400 39.615 35.445
7368 0 1 2.000 83.400 37.530 37.530
7369 0 1 2.000 85.485 39.615 37.530
7370 0 1 2.000 85.485 37.530 39.615
7371 0 1 2.000 83.400 39.615 39.615
7372 0 1 2.000 87.570 0.000 0.000
7373 0 1 2.000 89.655 2.085 0.000
7374 0 1 2.000 89.655 0.000 2.085
7375 0 1 2.000 87.570 2.085 2.085
7376 0 1 2.000 87.570 0.000 4.170
7377 0 1 2.000 89.655 2.085 4.170
7378 0 1 2.000 89.655 0.000 6.255
7379 0 1 2.000 87.570 2.085 6.255
7380 0 1 2.000 87.570 0.000 8.340
7381 0 1 2.000 89.655 2.085 8.340
7382 0 1 2.000 89.655 0.000 10.425
7383 0 1 2.000 87.570 2.085 10.425
7384 0 1 2.000 87.570 0.000 12.510
7385 0 1 2.000 89.655 2.085 12.510
7386 0 1 2.000 89.655 0.000 14.595
7387 0 1 2.000 87.570 2.085 14.595
7388 0 1 2.000 87.570 0.000 16.680
7389 0 1 2.000 89.655 2.085 16.680
7390 0 1 2.000 89.655 0.000 18.765
7391 0 1 2.000 87.570 2.085 18.765
7392 0 1 2.000 87.570 0.000 20.850
7393 0 1 2.000 89.655 2.085 20.850
7394 0 1 2.000 89.655 0.000 22.935
7395 0 1 2.000 87.570 2.085 22.935
7396 0 1 2.000 87.570 0.000 25.020
7397 0 1 2.000 89.655 2.085 25.020
7398 0 1 2.000 89.655 0.000 27.105
7399 0 1 2.000 87.570 2.085 27.105
7400 0 1 2.000 87.570 0.000 29.190
7401 0 1 2.000 89.655 2.085 29.190
7402 0 1 2.000 89.655 0.000 31.275
7403 0 1 2.000 87.570 2.085 31.275
7404 0 1 2.000 87.570 0.000 33.360
7405 0 1 2.000 89.655 2.085 33.360
7406 0 1 2.000 89.655 0.000 35.445
7407 0 1 2.000 87.570 2.085 35.445
7408 0 1 2.000 87.570 0.000 37.530
7409 0 1 2.000 89.655 2.085 37.530
7410 0 1 2.000 89.655 0.000 39.615
7411 0 1 2.000 87.570 2.085 39.615
7412 0 1 2.000 87.570 4.170 0.000
7413 0 1 2.000 89.655 6.255 0.000
7414 0 1 2.000 89.655 4.170 2.085
7415 0 1 2.000 87.570 6.255 2.085
7416 0 1 2.000 87.570 4.170 4.170
7417 0 1 2.000 89.655 6.255 4.170
7418 0 1 2.000 89.655 4.170 6.255
7419 0 1 2.000 87.570 6.255 6.255
7420 0 1 2.000 87.570 4.170 8.340
7421 0 1 2.000 89.655 6.255 8.340
7422 0 1 2.000 89.655 4.170 10.425
7423 0 1 2.000 87.570 6.255 10.425
7424 0 1 2.000 87.570 4.170 12.510
7425 0 1 2.000 89.655 6.255 12.510
7426 0 1 2.000 89.655 4.170 14.595
7427 0 1 2.000 87.570 6.255 14.595
7428 0 1 2.000 87.570 4.170 16.680
7429 0 1 2.000 89.655 6.255 16.680
7430 0 1 2.000 89.655 4.170 18.765
7431 0 1 2.000 87.570 6.255 18.765
7432 0 1 2.000 87.570 4.170 20.850
7433 0 1 2.000 89.655 6.255 20.850
7434 0 1 2.000 89.655 4.170 22.935
7435 0 1 2.000 87.570 6.255 22.935
7436 0 1 2.000 87.570 4.170 25.020
7437 0 1 2.000 89.655 6.255 25.020
7438 0 1 2.000 89.655 4.170 27.105
7439 0 1 2.000 87.570 6.255 27.105
7440 0 1 2.000 87.570 4.170 29.190
7441 0 1 2.000 89.655 6.255 29.190
7442 0 1 2.000 89.655 4.170 31.275
7443 0 1 2.000 87.570 6.255 31.275
7444 0 1 2.000 87.570 4.170 33.360
7445 0 1 2.000 89.655 6.255 33.360
7446 0 1 2.000 89.655 4.170 35.445
7447 0 1 2.000 87.570 6.255 35.445
7448 0 1 2.000 87.570 4.170 37.530
7449 0 1 2.000 89.655 6.255 37.530
7450 0 1 2.000 89.655 4.170 39.615
7451 0 1 2.000 87.570 6.255 39.615
7452 0 1 2.000 87.570 8.340 0.000
7453 0 1 2.000 89.655 10.425 0.000
7454 0 1 2.000 89.655 8.340 2.085
7455 0 1 2.000 87.570 10.425 2.085
7456 0 1 2.000 87.570 8.340 4.170
7457 0 1 2.000 89.655 10.425 4.170
7458 0 1 2.000 89.655 8.340 6.255
7459 0 1 2.000 87.570 10.425 6.255
7460 0 1 2.000 87.570 8.340 8.340
7461 0 1 2.000 89.655 10.425 8.340
7462 0 1 2.000 89.655 8.340 10.425
7463 0 1 2.000 87.570 10.425 10.425
7464 0 1 2.000 87.570 8.340 12.510
7465 0 1 2.000 89.655 10.425 12.510
7466 0 1 2.000 89.655 8.340 14.595
7467 0 1 2.000 87.570 10.425 14.595
7468 0 1 2.000 87.570 8.340 16.680
7469 0 1 2.000 89.655 10.425 16.680
7470 0 1 2.000 89.655 8.340 18.765
7471 0 1 2.000 87.570 10.425 18.765
7472 0 1 2.000 87.570 8.340 20.850
7473 0 1 2.000 89.655 10.425 20.850
7474 0 1 2.000 89.655 8.340 22.935
7475 0 1 2.000 87.570 10.425 22.935
7476 0 1 2.000 87.570 8.340 25.020
7477 0 1 2.000 89.655 10.425 25.020
7478 0 1 2.000 89.655 8.340 27.105
7479 0 1 2.000 87.570 10.425 27.105
7480 0 1 2.000 87.570 8.340 29.190
7481 0 1 2.000 89.655 10.425 29.190
7482 0 1 2.000 89.655 8.340 31.275
7483 0 1 2.000 87.570 10.425 31.275
7484 0 1 2.000 87.570 8.340 33.360
7485 0 1 2.000 89.655 10.425 33.360
7486 0 1 2.000 89.655 8.340 35.445
7487 0 1 2.000 87.570 10.425 35.445
7488 0 1 2.000 87.570 8.340 37.530
7489 0 1 2.000 87.570 12.510 0.000
7490 0 1 2.000 89.655 14.595 0.000
7491 0 1 2.000 89.655 12.510 2.085
7492 0 1 2.000 87.570 14.595 2.085
7493 0 1 2.000 87.570 12.510 4.170
7494 0 1 2.000 89.655 14.595 4.170
7495 0 1 2.000 89.655 12.510 6.255
7496 0 1 2.000 87.570 14.595 6.255
7497 0 1 2.000 87.570 12.510 8.340
7498 0 1 2.000 89.655 14.595 8.340
7499 0 1 2.000 89.655 12.510 10.425
7500 0 1 2.000 87.570 14.595 10.425
7501 0 1 2.000 87.570 12.510 12.510
7502 0 1 2.000 89.655 14.595 12.510
7503 0 1 2.000 89.655 12.510 14.595
7504 0 1 2.000 87.570 14.595 14.595
7505 0 1 2.000 87.570 12.510 16.680
7506 0 1 2.000 89.655 14.595 16.680
7507 0 1 2.000 89.655 12.510 18.765
7508 0 1 2.000 87.570 14.595 18.765
7509 0 1 2.000 87.570 12.510 20.850
7510 0 1 2.000 89.655 14.595 20.850
7511 0 1 2.000 89.655 12.510 22.935
7512 0 1 2.000 87.570 14.595 22.935
7513 0 1 2.000 87.570 12.510 25.020
7514 0 1 2.000 89.655 14.595 25.020
7515 0 1 2.000 89.655 12.510 27.105
7516 0 1 2.000 87.570 14.595 27.105
7517 0 1 2.000 87.570 12.510 29.190
7518 0 1 2.000 89.655 14.595 29.190
7519 0 1 2.000 89.655 12.510 31.275
7520 0 1 2.000 87.570 14.595 31.275
7521 0 1 2.000 87.570 12.510 33.360
7522 0 1 2.000 87.570 16.680 0.000
7523 0 1 2.000 89.655 18.765 0.000
7524 0 1 2.000 89.655 16.680 2.085
7525 0 1 2.000 87.570 18.765 2.085
7526 0 1 2.000 87.570 16.680 4.170
7527 0 1 2.000 89.655 18.765 4.170
7528 0 1 2.000 89.655 16.680 6.255
7529 0 1 2.000 87.570 18.765 6.255
7530 0 1 2.000 87.570 16.680 8.340
7531 0 1 2.000 89.655 18.765 8.340
7532 0 1 2.000 89.655 16.680 10.425
7533 0 1 2.000 87.570 18.765 10.425
7534 0 1 2.000 87.570 16.680 12.510
7535 0 1 2.000 89.655 18.765 12.510
7536 0 1 2.000 89.655 16.680 14.595
7537 0 1 2.000 87.570 18.765 14.595
7538 0 1 2.000 87.570 16.680 16.680
7539 0 1 2.000 89.655 18.765 16.680
7540 0 1 2.000 89.655 16.680 18.765
7541 0 1 2.000 87.570 18.765 18.765
7542 0 1 2.000 87.570 16.680 20.850
7543 0 1 2.000 89.655 18.765 20.850
7544 0 1 2.000 89.655 16.680 22.935
7545 0 1 2.000 87.570 18.765 22.935
7546 0 1 2.000 87.570 16.680 25.020
7547 0 1 2.000 89.655 18.765 25.020
7548 0 1 2.000 89.655 16.680 27.105
7549 0 1 2.000 87.570 18.765 27.105
7550 0 1 2.000 87.570 16.680 29.190
7551 0 1 2.000 87.570 20.850 0.000
7552 0 1 2.000 89.655 22.935 0.000
7553 0 1 2.000 89.655 20.850 2.085
7554 0 1 2.000 87.570 22.935 2.085
7555 0 1 2.000 87.570 20.850 4.170
7556 0 1 2.000 89.655 22.935 4.170
7557 0 1 2.000 89.655 20.850 6.255
7558 0 1 2.000 87.570 22.935 6.255
7559 0 1 2.000 87.570 20.850 8.340
7560 0 1 2.000 89.655 22.935 8.340
7561 0 1 2.000 89.655 20.850 10.425
7562 0 1 2.000 87.570 22.935 10.425
7563 0 1 2.000 87.570 20.850 12.510
7564 0 1 2.000 89.655 22.935 12.510
7565 0 1 2.000 89.655 20.850 14.595
7566 0 1 2.000 87.570 22.935 14.595
7567 0 1 2.000 87.570 20.850 16.680
7568 0 1 2.000 89.655 22.935 16.680
7569 0 1 2.000 89.655 20.850 18.765
7570 0 1 2.000 87.570 22.935 18.765
7571 0 1 2.000 87.570 20.850 20.850
7572 0 1 2.000 89.655 22.935 20.850
7573 0 1 2.000 89.655 20.850 22.935
7574 0 1 2.000 87.570 22.935 22.935
7575 0 1 2.000 87.570 20.850 25.020
7576 0 1 2.000 89.655 22.935 25.020
7577 0 1 2.000 87.570 22.935 27.105
7578 0 1 2.000 87.570 25.020 0.000
7579 0 1 2.000 89.655 27.105 0.000
7580 0 1 2.000 89.655 25.020 2.085
7581 0 1 2.000 87.570 27.105 2.085
7582 0 1 2.000 87.570 25.020 4.170
7583 0 1 2.000 89.655 27.105 4.170
7584 0 1 2.000 89.655 25.020 6.255
7585 0 1 2.000 87.570 27.105 6.255
7586 0 1 2.000 87.570 25.020 8.340
7587 0 1 2.000 89.655 27.105 8.340
7588 0 1 2.000 89.655 25.020 10.425
7589 0 1 2.000 87.570 27.105 10.425
7590 0 1 2.000 87.570 25.020 12.510
7591 0 1 2.000 89.655 27.105 12.510
7592 0 1 2.000 89.655 25.020 14.595
7593 0 1 2.000 87.570 27.105 14.595
7594 0 1 2.000 87.570 25.020 16.680
7595 0 1 2.000 89.655 27.105 16.680
7596 0 1 2.000 89.655 25.020 18.765
7597 0 1 2.000 87.570 27.105 18.765
7598 0 1 2.000 87.570 25.020 20.850
7599 0 1 2.000 89.655 27.105 20.850
7600 0 1 2.000 89.655 25.020 22.935
7601 0 1 2.000 87.570 27.105 22.935
7602 0 1 2.000 87.570 25.020 25.020
7603 0 1 2.000 89.655 27.105 25.020
7604 0 1 2.000 89.655 25.020 27.105
7605 0 1 2.000 87.570 27.105 27.105
7606 0 1 2.000 87.570 25.020 29.190
7607 0 1 2.000 89.655 27.105 29.190
7608 0 1 2.000 87.570 27.105 31.275
7609 0 1 2.000 87.570 29.190 0.000
7610 0 1 2.000 89.655 31.275 0.000
7611 0 1 2.000 89.655 29.190 2.085
7612 0 1 2.000 87.570 31.275 2.085
7613 0 1 2.000 87.570 29.190 4.170
7614 0 1 2.000 89.655 31.275 4.170
7615 0 1 2.000 89.655 29.190 6.255
7616 0 1 2.000 87.570 31.275 6.255
7617 0 1 2.000 87.570 29.190 8.340
7618 0 1 2.000 89.655 31.275 8.340
7619 0 1 2.000 89.655 29.190 10.425
7620 0 1 2.000 87.570 31.275 10.425
7621 0 1 2.000 87.570 29.190 12.510
7622 0 1 2.000 89.655 31.275 12.510
7623 0 1 2.000 89.655 29.190 14.595
7624 0 1 2.000 87.570 31.275 14.595
7625 0 1 2.000 87.570 29.190 16.680
7626 0 1 2.000 89.655 31.275 16.680
7627 0 1 2.000 89.655 29.190 18.765
7628 0 1 2.000 87.570 31.275 18.765
7629 0 1 2.000 87.570 29.190 20.850
7630 0 1 2.000 89.655 31.275 20.850
7631 0 1 2.000 89.655 29.190 22.935
7632 0 1 2.000 87.570 31.275 22.935
7633 0 1 2.000 87.570 29.190 25.020
7634 0 1 2.000 89.655 31.275 25.020
7635 0 1 2.000 89.655 29.190 27.105
7636 0 1 2.000 87.570 31.275 27.105
7637 0 1 2.000 87.570 29.190 29.190
7638 0 1 2.000 89.655 31.275 29.190
7639 0 1 2.000 89.655 29.190 31.275
7640 0 1 2.000 87.570 31.275 31.275
7641 0 1 2.000 87.570 29.190 33.360
7642 0 1 2.000 89.655 31.275 33.360
7643 0 1 2.000 87.570 31.275 35.445
7644 0 1 2.000 87.570 33.360 0.000
7645 0 1 2.000 89.655 35.445 0.000
7646 0 1 2.000 89.655 33.360 2.085
7647 0 1 2.000 87.570 35.445 2.085
7648 0 1 2.000 87.570 33.360 4.170
7649 0 1 2.000 89.655 35.445 4.170
7650 0 1 2.000 89.655 33.360 6.255
7651 0 1 2.000 87.570 35.445 6.255
7652 0 1 2.000 87.570 33.360 8.340
7653 0 1 2.000 89.655 35.445 8.340
7654 0 1 2.000 89.655 33.360 10.425
7655 0 1 2.000 87.570 35.445 10.425
7656 0 1 2.000 87.570 33.360 12.510
7657 0 1 2.000 89.655 35.445 12.510
7658 0 1 2.000 89.655 33.360 14.595
7659 0 1 2.000 87.570 35.445 14.595
7660 0 1 2.000 87.570 33.360 16.680
7661 0 1 2.000 89.655 35.445 16.680
7662 0 1 2.000 89.655 33.360 18.765
7663 0 1 2.000 87.570 35.445 18.765
7664 0 1 2.000 87.570 33.360 20.850
7665 0 1 2.000 89.655 35.445 20.850
7666 0 1 2.000 89.655 33.360 22.935
7667 0 1 2.000 87.570 35.445 22.935
7668 0 1 2.000 87.570 33.360 25.020
7669 0 1 2.000 89.655 35.445 25.020
7670 0 1 2.000 89.655 33.360 27.105
7671 0 1 2.000 87.570 35.445 27.105
7672 0 1 2.000 87.570 33.360 29.190
7673 0 1 2.000 89.655 35.445 29.190
7674 0 1 2.000 89.655 33.360 31.275
7675 0 1 2.000 87.570 35.445 31.275
7676 0 1 2.000 87.570 33.360 33.360
7677 0 1 2.000 89.655 35.445 33.360
7678 0 1 2.000 89.655 33.360 35.445
7679 0 1 2.000 87.570 35.445 35.445
7680 0 1 2.000 87.570 33.360 37.530
7681 0 1 2.000 89.655 35.445 37.530
7682 0 1 2.000 87.570 35.445 39.615
7683 0 1 2.000 87.570 37.530 0.000
7684 0 1 2.000 89.655 39.615 0.000
7685 0 1 2.000 89.655 37.530 2.085
7686 0 1 2.000 87.570 39.615 2.085
7687 0 1 2.000 87.570 37.530 4.170
7688 0 1 2.000 89.655 39.615 4.170
7689 0 1 2.000 89.655 37.530 6.255
7690 0 1 2.000 87.570 39.615 6.255
7691 0 1 2.000 87.570 37.530 8.340
7692 0 1 2.000 89.655 39.615 8.340
7693 0 1 2.000 89.655 37.530 10.425
7694 0 1 2.000 87.570 39.615 10.425
7695 0 1 2.000 87.570 37.530 12.510
7696 0 1 2.000 89.655 39.615 12.510
7697 0 1 2.000 89.655 37.530 14.595
7698 0 1 2.000 87.570 39.615 14.595
7699 0 1 2.000 87.570 37.530 16.680
7700 0 1 2.000 89.655 39.615 16.680
7701 0 1 2.000 89.655 37.530 18.765
7702 0 1 2.000 87.570 39.615 18.765
7703 0 1 2.000 87.570 37.530 20.850
7704 0 1 2.000 89.655 39.615 20.850
7705 0 1 2.000 89.655 37.530 22.935
7706 0 1 2.000 87.570 39.615 22.935
7707 0 1 2.000 87.570 37.530 25.020
7708 0 1 2.000 89.655 39.615 25.020
7709 0 1 2.000 89.655 37.530 27.105
7710 0 1 2.000 87.570 39.615 27.105
7711 0 1 2.000 87.570 37.530 29.190
7712 0 1 2.000 89.655 39.615 29.190
7713 0 1 2.000 89.655 37.530 31.275
7714 0 1 2.000 87.570 39.615 31.275
7715 0 1 2.000 87.570 37.530 33.360
7716 0 1 2.000 89.655 39.615 33.360
7717 0 1 2.000 89.655 37.530 35.445
7718 0 1 2.000 87.570 39.615 35.445
7719 0 1 2.000 87.570 37.530 37.530
7720 0 1 2.000 89.655 39.615 37.530
7721 0 1 2.000 89.655 37.530 39.615
7722 0 1 2.000 87.570 39.615 39.615
7723 0 1 2.000 91.740 0.000 0.000
7724 0 1 2.000 93.825 2.085 0.000
7725 0 1 2.000 93.825 0.000 2.085
7726 0 1 2.000 91.740 2.085 2.085
7727 0 1 2.000 91.740 0.000 4.170
7728 0 1 2.000 93.825 2.085 4.170
7729 0 1 2.000 93.825 0.000 6.255
7730 0 1 2.000 91.740 2.085 6.255
7731 0 1 2.000 91.740 0.000 8.340
7732 0 1 2.000 93.825 2.085 8.340
7733 0 1 2.000 93.825 0.000 10.425
7734 0 1 2.000 91.740 2.085 10.425
7735 0 1 2.000 91.740 0.000 12.510
7736 0 1 2.000 93.825 2.085 12.510
7737 0 1 2.000 93.825 0.000 14.595
7738 0 1 2.000 91.740 2.085 14.595
7739 0 1 2.000 91.740 0.000 16.680
7740 0 1 2.000 93.825 2.085 16.680
7741 0 1 2.000 93.825 0.000 18.765
7742 0 1 2.000 91.740 2.085 18.765
7743 0 1 2.000 91.740 0.000 20.850
7744 0 1 2.000 93.825 2.085 20.850
7745 0 1 2.000 93.825 0.000 22.935
7746 0 1 2.000 91.740 2.085 22.935
7747 0 1 2.000 91.740 0.000 25.020
7748 0 1 2.000 93.825 2.085 25.020
7749 0 1 2.000 93.825 0.000 27.105
7750 0 1 2.000 91.740 2.085 27.105
7751 0 1 2.000 91.740 0.000 29.190
7752 0 1 2.000 93.825 2.085 29.190
7753 0 1 2.000 93.825 0.000 31.275
7754 0 1 2.000 91.740 2.085 31.275
7755 0 1 2.000 91.740 0.000 33.360
7756 0 1 2.000 93.825 2.085 33.360
7757 0 1 2.000 93.825 0.000 35.445
7758 0 1 2.000 91.740 2.085 35.445
7759 0 1 2.000 91.740 0.000 37.530
7760 0 1 2.000 93.825 2.085 37.530
7761 0 1 2.000 93.825 0.000 39.615
7762 0 1 2.000 91.740 2.085 39.615
7763 0 1 2.000 91.740 4.170 0.000
7764 0 1 2.000 93.825 6.255 0.000
7765 0 1 2.000 93.825 4.170 2.085
7766 0 1 2.000 91.740 6.255 2.085
7767 0 1 2.000 91.740 4.170 4.170
7768 0 1 2.000 93.825 6.255 4.170
7769 0 1 2.000 93.825 4.170 6.255
7770 0 1 2.000 91.740 6.255 6.255
7771 0 1 2.000 91.740 4.170 8.340
7772 0 1 2.000 93.825 6.255 8.340
7773 0 1 2.000 93.825 4.170 10.425
7774 0 1 2.000 91.740 6.255 10.425
7775 0 1 2.000 91.740 4.170 12.510
7776 0 1 2.000 93.825 6.255 12.510
7777 0 1 2.000 93.825 4.170 14.595
7778 0 1 2.000 91.740 6.255 14.595
7779 0 1 2.000 91.740 4.170 16.680
7780 0 1 2.000 93.825 6.255 16.680
7781 0 1 2.000 93.825 4.170 18.765
7782 0 1 2.000 91.740 6.255 18.765
7783 0 1 2.000 91.740 4.170 20.850
7784 0 1 2.000 93.825 6.255 20.850
7785 0 1 2.000 93.825 4.170 22.935
7786 0 1 2.000 91.740 6.255 22.935
7787 0 1 2.000 91.740 4.170 25.020
7788 0 1 2.000 93.825 6.255 25.020
7789 0 1 2.000 93.825 4.170 27.105
7790 0 1 2.000 91.740 6.255 27.105
7791 0 1 2.000 91.740 4.170 29.190
7792 0 1 2.000 93.825 6.255 29.190
7793 0 1 2.000 93.825 4.170 31.275
7794 0 1 2.000 91.740 6.255 31.275
7795 0 1 2.000 91.740 4.170 33.360
7796 0 1 2.000 93.825 6.255 33.360
7797 0 1 2.000 93.825 4.170 35.445
7798 0 1 2.000 91.740 6.255 35.445
7799 0 1 2.000 91.740 4.170 37.530
7800 0 1 2.000 93.825 6.255 37.530
7801 0 1 2.000 93.825 4.170 39.615
7802 0 1 2.000 91.740 6.255 39.615
7803 0 1 2.000 91.740 8.340 0.000
7804 0 1 2.000 93.825 10.425 0.000
7805 0 1 2.000 93.825 8.340 2.085
7806 0 1 2.000 91.740 10.425 2.085
7807 0 1 2.000 91.740 8.340 4.170
7808 0 1 2.000 93.825 10.425 4.170
7809 0 1 2.000 93.825 8.340 6.255
7810 0 1 2.000 91.740 10.425 6.255
7811 0 1 2.000 91.740 8.340 8.340
7812 0 1 2.000 93.825 10.425 8.340
7813 0 1 2.000 93.825 8.340 10.425
7814 0 1 2.000 91.740 10.425 10.425
7815 0 1 2.000 91.740 8.340 12.510
7816 0 1 2.000 93.825 10.425 12.510
7817 0 1 2.000 93.825 8.340 14.595
7818 0 1 2.000 91.740 10.425 14.595
7819 0 1 2.000 91.740 8.340 16.680
7820 0 1 2.000 93.825 10.425 16.680
7821 0 1 2.000 93.825 8.340 18.765
7822 0 1 2.000 91.740 10.425 18.765
7823 0 1 2.000 91.740 8.340 20.850
7824 0 1 2.000 93.825 10.425 20.850
7825 0 1 2.000 93.825 8.340 22.935
7826 0 1 2.000 91.740 10.425 22.935
7827 0 1 2.000 91.740 8.340 25.020
7828 0 1 2.000 93.825 10.425 25.020
7829 0 1 2.000 93.825 8.340 27.105
7830 0 1 2.000 91.740 10.425 27.105
7831 0 1 2.000 91.740 8.340 29.190
7832 0 1 2.000 93.825 10.425 29.190
7833 0 1 2.000 93.825 8.340 31.275
7834 0 1 2.000 91.740 10.425 31.275
7835 0 1 2.000 91.740 8.340 33.360
7836 0 1 2.000 93.825 10.425 33.360
7837 0 1 2.000 93.825 8.340 35.445
7838 0 1 2.000 91.740 10.425 35.445
7839 0 1 2.000 91.740 8.340 37.530
7840 0 1 2.000 91.740 12.510 0.000
7841 0 1 2.000 93.825 14.595 0.000
7842 0 1 2.000 93.825 12.510 2.085
7843 0 1 2.000 91.740 14.595 2.085
7844 0 1 2.000 91.740 12.510 4.170
7845 0 1 2.000 93.825 14.595 4.170
7846 0 1 2.000 93.825 12.510 6.255
7847 0 1 2.000 91.740 14.595 6.255
7848 0 1 2.000 91.740 12.510 8.340
7849 0 1 2.000 93.825 14.595 8.340
7850 0 1 2.000 93.825 12.510 10.425
7851 0 1 2.000 91.740 14.595 10.425
7852 0 1 2.000 91.740 12.510 12.510
7853 0 1 2.000 93.825 14.595 12.510
7854 0 1 2.000 93.825 12.510 14.595
7855 0 1 2.000 91.740 14.595 14.595
7856 0 1 2.000 91.740 12.510 16.680
7857 0 1 2.000 93.825 14.595 16.680
7858 0 1 2.000 93.825 12.510 18.765
7859 0 1 2.000 91.740 14.595 18.765
7860 0 1 2.000 91.740 12.510 20.850
7861 0 1 2.000 93.825 14.595 20.850
7862 0 1 2.000 93.825 12.510 22.935
7863 0 1 2.000 91.740 14.595 22.935
7864 0 1 2.000 91.740 12.510 25.020
7865 0 1 2.000 93.825 14.595 25.020
7866 0 1 2.000 93.825 12.510 27.105
7867 0 1 2.000 91.740 14.595 27.105
7868 0 1 2.000 91.740 12.510 29.190
7869 0 1 2.000 93.825 14.595 29.190
7870 0 1 2.000 93.825 12.510 31.275
7871 0 1 2.000 91.740 14.595 31.275
7872 0 1 2.000 91.740 12.510 33.360
7873 0 1 2.000 91.740 16.680 0.000
7874 0 1 2.000 93.825 18.765 0.000
7875 0 1 2.000 93.825 16.680 2.085
7876 0 1 2.000 91.740 18.765 2.085
7877 0 1 2.000 91.740 16.680 4.170
7878 0 1 2.000 93.825 18.765 4.170
7879 0 1 2.000 93.825 16.680 6.255
7880 0 1 2.000 91.740 18.765 6.255
7881 0 1 2.000 91.740 16.680 8.340
7882 0 1 2.000 93.825 18.765 8.340
7883 0 1 2.000 93.825 16.680 10.425
7884 0 1 2.000 91.740 18.765 10.425
7885 0 1 2.000 91.740 16.680 12.510
7886 0 1 2.000 93.825 18.765 12.510
7887 0 1 2.000 93.825 16.680 14.595
7888 0 1 2.000 91.740 18.765 14.595
7889 0 1 2.000 91.740 16.680 16.680
7890 0 1 2.000 93.825 18.765 16.680
7891 0 1 2.000 93.825 16.680 18.765
7892 0 1 2.000 91.740 18.765 18.765
7893 0 1 2.000 91.740 16.680 20.850
7894 0 1 2.000 93.825 18.765 20.850
7895 0 1 2.000 93.825 16.680 22.935
7896 0 1 2.000 91.740 18.765 22.935
7897 0 1 2.000 91.740 16.680 25.020
7898 0 1 2.000 93.825 18.765 25.020
7899 0 1 2.000 93.825 16.680 27.105
7900 0 1 2.000 91.740 18.765 27.105
7901 0 1 2.000 91.740 16.680 29.190
7902 0 1 2.000 91.740 20.850 0.000
7903 0 1 2.000 93.825 22.935 0.000
7904 0 1 2.000 93.825 20.850 2.085
7905 0 1 2.000 91.740 22.935 2.085
7906 0 1 2.000 91.740 20.850 4.170
7907 0 1 2.000 93.825 22.935 4.170
7908 0 1 2.000 93.825 20.850 6.255
7909 0 1 2.000 91.740 22.935 6.255
7910 0 1 2.000 91.740 20.850 8.340
7911 0 1 2.000 93.825 22.935 8.340
7912 0 1 2.000 93.825 20.850 10.425
7913 0 1 2.000 91.740 22.935 10.425
7914 0 1 2.000 91.740 20.850 12.510
7915 0 1 2.000 93.825 22.935 12.510
7916 0 1 2.000 93.825 20.850 14.595
7917 0 1 2.000 91.740 22.935 14.595
7918 0 1 2.000 91.740 20.850 16.680
7919 0 1 2.000 93.825 22.935 16.680
7920 0 1 2.000 93.825 20.850 18.765
7921 0 1 2.000 91.740 22.935 18.765
7922 0 1 2.000 91.740 20.850 20.850
7923 0 1 2.000 93.825 22.935 20.850
7924 0 1 2.000 93.825 20.850 22.935
7925 0 1 2.000 91.740 22.935 22.935
7926 0 1 2.000 91.740 20.850 25.020
7927 0 1 2.000 93.825 22.935 25.020
7928 0 1 2.000 91.740 22.935 27.105
7929 0 1 2.000 91.740 25.020 0.000
7930 0 1 2.000 93.825 27.105 0.000
7931 0 1 2.000 93.825 25.020 2.085
7932 0 1 2.000 91.740 27.105 2.085
7933 0 1 2.000 91.740 25.020 4.170
7934 0 1 2.000 93.825 27.105 4.170
7935 0 1 2.000 93.825 25.020 6.255
7936 0 1 2.000 91.740 27.105 6.255
7937 0 1 2.000 91.740 25.020 8.340
7938 0 1 2.000 93.825 27.105 8.340
7939 0 1 2.000 93.825 25.020 10.425
7940 0 1 2.000 91.740 27.105 10.425
7941 0 1 2.000 91.740 25.020 12.510
7942 0 1 2.000 93.825 27.105 12.510
7943 0 1 2.000 93.825 25.020 14.595
7944 0 1 2.000 91.740 27.105 14.595
7945 0 1 2.000 91.740 25.020 16.680
7946 0 1 2.000 93.825 27.105 16.680
7947 0 1 2.000 93.825 25.020 18.765
7948 0 1 2.000 91.740 27.105 18.765
7949 0 1 2.000 91.740 25.020 20.850
7950 0 1 2.000 93.825 27.105 20.850
7951 0 1 2.000 93.825 25.020 22.935
7952 0 1 2.000 91.740 27.105 22.935
7953 0 1 2.000 91.740 25.020 25.020
7954 0 1 2.000 93.825 27.105 25.020
7955 0 1 2.000 93.825 25.020 27.105
7956 0 1 2.000 91.740 27.105 27.105
7957 0 1 2.000 91.740 25.020 29.190
7958 0 1 2.000 93.825 27.105 29.190
7959 0 1 2.000 91.740 27.105 31.275
7960 0 1 2.000 91.740 29.190 0.000
7961 0 1 2.000 93.825 31.275 0.000
7962 0 1 2.000 93.825 29.190 2.085
7963 0 1 2.000 91.740 31.275 2.085
7964 0 1 2.000 91.740 29.190 4.170
7965 0 1 2.000 93.825 31.275 4.170
7966 0 1 2.000 93.825 29.190 6.255
7967 0 1 2.000 91.740 31.275 6.255
7968 0 1 2.000 91.740 29.190 8.340
7969 0 1 2.000 93.825 31.275 8.340
7970 0 1 2.000 93.825 29.190 10.425
7971 0 1 2.000 91.740 31.275 10.425
7972 0 1 2.000 91.740 29.190 12.510
7973 0 1 2.000 93.825 31.275 12.510
7974 0 1 2.000 93.825 29.190 14.595
7975 0 1 2.000 91.740 31.275 14.595
7976 0 1 2.000 91.740 29.190 16.680
7977 0 1 2.000 93.825 31.275 16.680
7978 0 1 2.000 93.825 29.190 18.765
7979 0 1 2.000 91.740 31.275 18.765
7980 0 1 2.000 91.740 29.190 20.850
7981 0 1 2.000 93.825 31.275 20.850
7982 0 1 2.000 93.825 29.190 22.935
7983 0 1 2.000 91.740 31.275 22.935
7984 0 1 2.000 91.740 29.190 25.020
7985 0 1 2.000 93.825 31.275 25.020
7986 0 1 2.000 93.825 29.190 27.105
7987 0 1 2.000 91.740 31.275 27.105
7988 0 1 2.000 91.740 29.190 29.190
7989 0 1 2.000 93.825 31.275 29.190
7990 0 1 2.000 93.825 29.190 31.275
7991 0 1 2.000 91.740 31.275 31.275
7992 0 1 2.000 91.740 29.190 33.360
7993 0 1 2.000 93.825 31.275 33.360
7994 0 1 2.000 91.740 31.275 35.445
7995 0 1 2.000 91.740 33.360 0.000
7996 0 1 2.000 93.825 35.445 0.000
7997 0 1 2.000 93.825 33.360 2.085
7998 0 1 2.000 91.740 35.445 2.085
7999 0 1 2.000 91.740 33.360 4.170
8000 0 1 2.000 93.825 35.445 4.170
8001 0 1 2.000 93.825 33.360 6.255
8002 0 1 2.000 91.740 35.445 6.255
8003 0 1 2.000 91.740 33.360 8.340
8004 0 1 2.000 93.825 35.445 8.340
8005 0 1 2.000 93.825 33.360 10.425
8006 0 1 2.000 91.740 35.445 10.425
8007 0 1 2.000 91.740 33.360 12.510
8008 0 1 2.000 93.825 35.445 12.510
8009 0 1 2.000 93.825 33.360 14.595
8010 0 1 2.000 91.740 35.445 14.595
8011 0 1 2.000 91.740 33.360 16.680
8012 0 1 2.000 93.825 35.445 16.680
8013 0 1 2.000 93.825 33.360 18.765
8014 0 1 2.000 91.740 35.445 18.765
8015 0 1 2.000 91.740 33.360 20.850
8016 0 1 2.000 93.825 35.445 20.850
8017 0 1 2.000 93.825 33.360 22.935
8018 0 1 2.000 91.740 35.445 22.935
8019 0 1 2.000 91.740 33.360 25.020
8020 0 1 2.000 93.825 35.445 25.020
8021 0 1 2.000 93.825 33.360 27.105
8022 0 1 2.000 91.740 35.445 27.105
8023 0 1 2.000 91.740 33.360 29.190
8024 0 1 2.000 93.825 35.445 29.190
8025 0 1 2.000 93.825 33.360 31.275
8026 0 1 2.000 91.740 35.445 31.275
8027 0 1 2.000 91.740 33.360 33.360
8028 0 1 2.000 93.825 35.445 33.360
8029 0 1 2.000 93.825 33.360 35.445
8030 0 1 2.000 91.740 35.445 35.445
8031 0 1 2.000 91.740 33.360 37.530
8032 0 1 2.000 93.825 35.445 37.530
8033 0 1 2.000 91.740 35.445 39.615
8034 0 1 2.000 91.740 37.530 0.000
8035 0 1 2.000 93.825 39.615 0.000
8036 0 1 2.000 93.825 37.530 2.085
8037 0 1 2.000 91.740 39.615 2.085
8038 0 1 2.000 91.740 37.530 4.170
8039 0 1 2.000 93.825 39.615 4.170
8040 0 1 2.000 93.825 37.530 6.255
8041 0 1 2.000 91.740 39.615 6.255
8042 0 1 2.000 91.740 37.530 8.340
8043 0 1 2.000 93.825 39.615 8.340
8044 0 1 2.000 93.825 37.530 10.425
8045 0 1 2.000 91.740 39.615 10.425
8046 0 1 2.000 91.740 37.530 12.510
8047 0 1 2.000 93.825 39.615 12.510
8048 0 1 2.000 93.825 37.530 14.595
8049 0 1 2.000 91.740 39.615 14.595
8050 0 1 2.000 91.740 37.530 16.680
8051 0 1 2.000 93.825 39.615 16.680
8052 0 1 2.000 93.825 37.530 18.765
8053 0 1 2.000 91.740 39.615 18.765
8054 0 1 2.000 91.740 37.530 20.850
8055 0 1 2.000 93.825 39.615 20.850
8056 0 1 2.000 93.825 37.530 22.935
8057 0 1 2.000 91.740 39.615 22.935
8058 0 1 2.000 91.740 37.530 25.020
8059 0 1 2.000 93.825 39.615 25.020
8060 0 1 2.000 93.825 37.530 27.105
8061 0 1 2.000 91.740 39.615 27.105
8062 0 1 2.000 91.740 37.530 29.190
8063 0 1 2.000 93.825 39.615 29.190
8064 0 1 2.000 93.825 37.530 31.275
8065 0 1 2.000 91.740 39.615 31.275
8066 0 1 2.000 91.740 37.530 33.360
8067 0 1 2.000 93.825 39.615 33.360
8068 0 1 2.000 93.825 37.530 35.445
8069 0 1 2.000 91.740 39.615 35.445
8070 0 1 2.000 91.740 37.530 37.530
8071 0 1 2.000 93.825 39.615 37.530
8072 0 1 2.000 93.825 37.530 39.615
8073 0 1 2.000 91.740 39.615 39.615
8074 0 1 2.000 95.910 0.000 0.000
8075 0 1 2.000 97.995 2.085 0.000
8076 0 1 2.000 97.995 0.000 2.085
8077 0 1 2.000 95.910 2.085 2.085
8078 0 1 2.000 95.910 0.000 4.170
8079 0 1 2.000 97.995 2.085 4.170
8080 0 1 2.000 97.995 0.000 6.255
8081 0 1 2.000 95.910 2.085 6.255
8082 0 1 2.000 95.910 0.000 8.340
8083 0 1 2.000 97.995 2.085 8.340
8084 0 1 2.000 97.995 0.000 10.425
8085 0 1 2.000 95.910 2.085 10.425
8086 0 1 2.000 95.910 0.000 12.510
8087 0 1 2.000 97.995 2.085 12.510
8088 0 1 2.000 97.995 0.000 14.595
8089 0 1 2.000 95.910 2.085 14.595
8090 0 1 2.000 95.910 0.000 16.680
8091 0 1 2.000 97.995 2.085 16.680
8092 0 1 2.000 97.995 0.000 18.765
8093 0 1 2.000 95.910 2.085 18.765
8094 0 1 2.000 95.910 0.000 20.850
8095 0 1 2.000 97.995 2.085 20.850
8096 0 1 2.000 97.995 0.000 22.935
8097 0 1 2.000 95.910 2.085 22.935
8098 0 1 2.000 95.910 0.000 25.020
8099 0 1 2.000 97.995 2.085 25.020
8100 0 1 2.000 97.995 0.000 27.105
8101 0 1 2.000 95.910 2.085 27.105
8102 0 1 2.000 95.910 0.000 29.190
8103 0 1 2.000 97.995 2.085 29.190
8104 0 1 2.000 97.995 0.000 31.275
8105 0 1 2.000 95.910 2.085 31.275
8106 0 1 2.000 95.910 0.000 33.360
8107 0 1 2.000 97.995 2.085 33.360
8108 0 1 2.000 97.995 0.000 35.445
8109 0 1 2.000 95.910 2.085 35.445
8110 0 1 2.000 95.910 0.000 37.530
8111 0 1 2.000 97.995 2.085 37.530
8112 0 1 2.000 97.995 0.000 39.615
8113 0 1 2.000 95.910 2.085 39.615
8114 0 1 2.000 95.910 4.170 0.000
8115 0 1 2.000 97.995 6.255 0.000
8116 0 1 2.000 97.995 4.170 2.085
8117 0 1 2.000 95.910 6.255 2.085
8118 0 1 2.000 95.910 4.170 4.170
8119 0 1 2.000 97.995 6.255 4.170
8120 0 1 2.000 97.995 4.170 6.255
8121 0 1 2.000 95.910 6.255 6.255
8122 0 1 2.000 95.910 4.170 8.340
8123 0 1 2.000 97.995 6.255 8.340
8124 0 1 2.000 97.995 4.170 10.425
8125 0 1 2.000 95.910 6.255 10.425
8126 0 1 2.000 95.910 4.170 12.510
8127 0 1 2.000 97.995 6.255 12.510
8128 0 1 2.000 97.995 4.170 14.595
8129 0 1 2.000 95.910 6.255 14.595
8130 0 1 2.000 95.910 4.170 16.680
8131 0 1 2.000 97.995 6.255 16.680
8132 0 1 2.000 97.995 4.170 18.765
8133 0 1 2.000 95.910 6.255 18.765
8134 0 1 2.000 95.910 4.170 20.850
8135 0 1 2.000 97.995 6.255 20.850
8136 0 1 2.000 97.995 4.170 22.935
8137 0 1 2.000 95.910 6.255 22.935
8138 0 1 2.000 95.910 4.170 25.020
8139 0 1 2.000 97.995 6.255 25.020
8140 0 1 2.000 97.995 4.170 27.105
8141 0 1 2.000 95.910 6.255 27.105
8142 0 1 2.000 95.910 4.170 29.190
8143 0 1 2.000 97.995 6.255 29.190
8144 0 1 2.000 97.995 4.170 31.275
8145 0 1 2.000 95.910 6.255 31.275
8146 0 1 2.000 95.910 4.170 33.360
8147 0 1 2.000 97.995 6.255 33.360
8148 0 1 2.000 97.995 4.170 35.445
8149 0 1 2.000 95.910 6.255 35.445
8150 0 1 2.000 95.910 4.170 37.530
8151 0 1 2.000 97.995 6.255 37.530
8152 0 1 2.000 97.995 4.170 39.615
8153 0 1 2.000 95.910 6.255 39.615
8154 0 1 2.000 95.910 8.340 0.000
8155 0 1 2.000 97.995 10.425 0.000
8156 0 1 2.000 97.995 8.340 2.085
8157 0 1 2.000 95.910 10.425 2.085
8158 0 1 2.000 95.910 8.340 4.170
8159 0 1 2.000 97.995 10.425 4.170
8160 0 1 2.000 97.995 8.340 6.255
8161 0 1 2.000 95.910 10.425 6.255
8162 0 1 2.000 95.910 8.340 8.340
8163 0 1 2.000 97.995 10.425 8.340
8164 0 1 2.000 97.995 8.340 10.425
8165 0 1 2.000 95.910 10.425 10.425
8166 0 1 2.000 95.910 8.340 12.510
8167 0 1 2.000 97.995 10.425 12.510
8168 0 1 2.000 97.995 8.340 14.595
8169 0 1 2.000 95.910 10.425 14.595
8170 0 1 2.000 95.910 8.340 16.680
8171 0 1 2.000 97.995 10.425 16.680
8172 0 1 2.000 97.995 8.340 18.765
8173 0 1 2.000 95.910 10.425 18.765
8174 0 1 2.000 95.910 8.340 20.850
8175 0 1 2.000 97.995 10.425 20.850
8176 0 1 2.000 97.995 8.340 22.935
8177 0 1 2.000 95.910 10.425 22.935
8178 0 1 2.000 95.910 8.340 25.020
8179 0 1 2.000 97.995 10.425 25.020
8180 0 1 2.000 97.995 8.340 27.105
8181 0 1 2.000 95.910 10.425 27.105
8182 0 1 2.000 95.910 8.340 29.190
8183 0 1 2.000 97.995 10.425 29.190
8184 0 1 2.000 97.995 8.340 31.275
8185 0 1 2.000 95.910 10.425 31.275
8186 0 1 2.000 95.910 8.340 33.360
8187 0 1 2.000 97.995 10.425 33.360
8188 0 1 2.000 97.995 8.340 35.445
8189 0 1 2.000 95.910 10.425 35.445
8190 0 1 2.000 95.910 8.340 37.530
8191 0 1 2.000 95.910 12.510 0.000
8192 0 1 2.000 97.995 14.595 0.000
8193 0 1 2.000 97.995 12.510 2.085
8194 0 1 2.000 95.910 14.595 2.085
8195 0 1 2.000 95.910 12.510 4.170
8196 0 1 2.000 97.995 14.595 4.170
8197 0 1 2.000 97.995 12.510 6.255
8198 0 1 2.000 95.910 14.595 6.255
8199 0 1 2.000 95.910 12.510 8.340
8200 0 1 2.000 97.995 14.595 8.340
8201 0 1 2.000 97.995 12.510 10.425
8202 0 1 2.000 95.910 14.595 10.425
8203 0 1 2.000 95.910 12.510 12.510
8204 0 1 2.000 97.995 14.595 12.510
8205 0 1 2.000 97.995 12.510 14.595
8206 0 1 2.000 95.910 14.595 14.595
8207 0 1 2.000 95.910 12.510 16.680
8208 0 1 2.000 97.995 14.595 16.680
8209 0 1 2.000 97.995 12.510 18.765
8210 0 1 2.000 95.910 14.595 18.765
8211 0 1 2.000 95.910 12.510 20.850
8212 0 1 2.000 97.995 14.595 20.850
8213 0 1 2.000 97.995 12.510 22.935
8214 0 1 2.000 95.910 14.595 22.935
8215 0 1 2.000 95.910 12.510 25.020
8216 0 1 2.000 97.995 14.595 25.020
8217 0 1 2.000 97.995 12.510 27.105
8218 0 1 2.000 95.910 14.595 27.105
8219 0 1 2.000 95.910 12.510 29.190
8220 0 1 2.000 97.995 14.595 29.190
8221 0 1 2.000 97.995 12.510 31.275
8222 0 1 2.000 95.910 14.595 31.275
8223 0 1 2.000 95.910 12.510 33.360
8224 0 1 2.000 95.910 16.680 0.000
8225 0 1 2.000 97.995 18.765 0.000
8226 0 1 2.000 97.995 16.680 2.085
8227 0 1 2.000 95.910 18.765 2.085
8228 0 1 2.000 95.910 16.680 4.170
8229 0 1 2.000 97.995 18.765 4.170
8230 0 1 2.000 97.995 16.680 6.255
8231 0 1 2.000 95.910 18.765 6.255
8232 0 1 2.000 95.910 16.680 8.340
8233 0 1 2.000 97.995 18.765 8.340
8234 0 1 2.000 97.995 16.680 10.425
8235 0 1 2.000 95.910 18.765 10.425
8236 0 1 2.000 95.910 16.680 12.510
8237 0 1 2.000 97.995 18.765 12.510
8238 0 1 2.000 97.995 16.680 14.595
8239 0 1 2.000 95.910 18.765 14.595
8240 0 1 2.000 95.910 16.680 16.680
8241 0 1 2.000 97.995 18.765 16.680
8242 0 1 2.000 97.995 16.680 18.765
8243 0 1 2.000 95.910 18.765 18.765
8244 0 1 2.000 95.910 16.680 20.850
8245 0 1 2.000 97.995 18.765 20.850
8246 0 1 2.000 97.995 16.680 22.935
8247 0 1 2.000 95.910 18.765 22.935
8248 0 1 2.000 95.910 16.680 25.020
8249 0 1 2.000 97.995 18.765 25.020
8250 0 1 2.000 97.995 16.680 27.105
8251 0 1 2.000 95.910 18.765 27.105
8252 0 1 2.000 95.910 16.680 29.190
8253 0 1 2.000 95.910 20.850 0.000
8254 0 1 2.000 97.995 22.935 0.000
8255 0 1 2.000 97.995 20.850 2.085
8256 0 1 2.000 95.910 22.935 2.085
8257 0 1 2.000 95.910 20.850 4.170
8258 0 1 2.000 97.995 22.935 4.170
8259 0 1 2.000 97.995 20.850 6.255
8260 0 1 2.000 95.910 22.935 6.255
8261 0 1 2.000 95.910 20.850 8.340
8262 0 1 2.000 97.995 22.935 8.340
8263 0 1 2.000 97.995 20.850 10.425
8264 0 1 2.000 95.910 22.935 10.425
8265 0 1 2.000 95.910 20.850 12.510
8266 0 1 2.000 97.995 22.935 12.510
8267 0 1 2.000 97.995 20.850 14.595
8268 0 1 2.000 95.910 22.935 14.595
8269 0 1 2.000 95.910 20.850 16.680
8270 0 1 2.000 97.995 22.935 16.680
8271 0 1 2.000 97.995 20.850 18.765
8272 0 1 2.000 95.910 22.935 18.765
8273 0 1 2.000 95.910 20.850 20.850
8274 0 1 2.000 97.995 22.935 20.850
8275 0 1 2.000 97.995 20.850 22.935
8276 0 1 2.000 95.910 22.935 22.935
8277 0 1 2.000 95.910 20.850 25.020
8278 0 1 2.000 97.995 22.935 25.020
8279 0 1 2.000 95.910 22.935 27.105
8280 0 1 2.000 95.910 25.020 0.000
8281 0 1 2.000 97.995 27.105 0.000
8282 0 1 2.000 97.995 25.020 2.085
8283 0 1 2.000 95.910 27.105 2.085
8284 0 1 2.000 95.910 25.020 4.170
8285 0 1 2.000 97.995 27.105 4.170
8286 0 1 2.000 97.995 25.020 6.255
8287 0 1 2.000 95.910 27.105 6.255
8288 0 1 2.000 95.910 25.020 8.340
8289 0 1 2.000 97.995 27.105 8.340
8290 0 1 2.000 97.995 25.020 10.425
8291 0 1 2.000 95.910 27.105 10.425
8292 0 1 2.000 95.910 25.020 12.510
8293 0 1 2.000 97.995 27.105 12.510
8294 0 1 2.000 97.995 25.020 14.595
8295 0 1 2.000 95.910 27.105 14.595
8296 0 1 2.000 95.910 25.020 16.680
8297 0 1 2.000 97.995 27.105 16.680
8298 0 1 2.000 97.995 25.020 18.765
8299 0 1 2.000 95.910 27.105 18.765
8300 0 1 2.000 95.910 25.020 20.850
8301 0 1 2.000 97.995 27.105 20.850
8302 0 1 2.000 97.995 25.020 22.935
8303 0 1 2.000 95.910 27.105 22.935
8304 0 1 2.000 95.910 25.020 25.020
8305 0 1 2.000 97.995 27.105 25.020
8306 0 1 2.000 97.995 25.020 27.105
8307 0 1 2.000 95.910 27.105 27.105
8308 0 1 2.000 95.910 25.020 29.190
8309 0 1 2.000 97.995 27.105 29.190
8310 0 1 2.000 95.910 27.105 31.275
8311 0 1 2.000 95.910 29.190 0.000
8312 0 1 2.000 97.995 31.275 0.000
8313 0 1 2.000 97.995 29.190 2.085
8314 0 1 2.000 95.910 31.275 2.085
8315 0 1 2.000 95.910 29.190 4.170
8316 0 1 2.000 97.995 31.275 4.170
8317 0 1 2.000 97.995 29.190 6.255
8318 0 1 2.000 95.910 31.275 6.255
8319 0 1 2.000 95.910 29.190 8.340
8320 0 1 2.000 97.995 31.275 8.340
8321 0 1 2.000 97.995 29.190 10.425
8322 0 1 2.000 95.910 31.275 10.425
8323 0 1 2.000 95.910 29.190 12.510
8324 0 1 2.000 97.995 31.275 12.510
8325 0 1 2.000 97.995 29.190 14.595
8326 0 1 2.000 95.910 31.275 14.595
8327 0 1 2.000 95.910 29.190 16.680
8328 0 1 2.000 97.995 31.275 16.680
8329 0 1 2.000 97.995 29.190 18.765
8330 0 1 2.000 95.910 31.275 18.765
8331 0 1 2.000 95.910 29.190 20.850
8332 0 1 2.000 97.995 31.275 20.850
8333 0 1 2.000 97.995 29.190 22.935
8334 0 1 2.000 95.910 31.275 22.935
8335 0 1 2.000 95.910 29.190 25.020
8336 0 1 2.000 97.995 31.275 25.020
8337 0 1 2.000 97.995 29.190 27.105
8338 0 1 2.000 95.910 31.275 27.105
8339 0 1 2.000 95.910 29.190 29.190
8340 0 1 2.000 97.995 31.275 29.190
8341 0 1 2.000 97.995 29.190 31.275
8342 0 1 2.000 95.910 31.275 31.275
8343 0 1 2.000 95.910 29.190 33.360
8344 0 1 2.000 97.995 31.275 33.360
8345 0 1 2.000 95.910 31.275 35.445
8346 0 1 2.000 95.910 33.360 0.000
8347 0 1 2.000 97.995 35.445 0.000
8348 0 1 2.000 97.995 33.360 2.085
8349 0 1 2.000 95.910 35.445 2.085
8350 0 1 2.000 95.910 33.360 4.170
8351 0 1 2.000 97.995 35.445 4.170
8352 0 1 2.000 97.995 33.360 6.255
8353 0 1 2.000 95.910 35.445 6.255
8354 0 1 2.000 95.910 33.360 8.340
8355 0 1 2.000 97.995 35.445 8.340
8356 0 1 2.000 97.995 33.360 10.425
8357 0 1 2.000 95.910 35.445 10.425
8358 0 1 2.000 95.910 33.360 12.510
8359 0 1 2.000 97.995 35.445 12.510
8360 0 1 2.000 97.995 33.360 14.595
8361 0 1 2.000 95.910 35.445 14.595
8362 0 1 2.000 95.910 33.360 16.680
8363 0 1 2.000 97.995 35.445 16.680
8364 0 1 2.000 97.995 33.360 18.765
8365 0 1 2.000 95.910 35.445 18.765
8366 0 1 2.000 95.910 33.360 20.850
8367 0 1 2.000 97.995 35.445 20.850
8368 0 1 2.000 97.995 33.360 22.935
8369 0 1 2.000 95.910 35.445 22.935
8370 0 1 2.000 95.910 33.360 25.020
8371 0 1 2.000 97.995 35.445 25.020
8372 0 1 2.000 97.995 33.360 27.105
8373 0 1 2.000 95.910 35.445 27.105
8374 0 1 2.000 95.910 33.360 29.190
8375 0 1 2.000 97.995 35.445 29.190
8376 0 1 2.000 97.995 33.360 31.275
8377 0 1 2.000 95.910 35.445 31.275
8378 0 1 2.000 95.910 33.360 33.360
8379 0 1 2.000 97.995 35.445 33.360
8380 0 1 2.000 97.995 33.360 35.445
8381 0 1 2.000 95.910 35.445 35.445
8382 0 1 2.000 95.910 33.360 37.530
8383 0 1 2.000 97.995 35.445 37.530
8384 0 1 2.000 95.910 35.445 39.615
8385 0 1 2.000 95.910 37.530 0.000
8386 0 1 2.000 97.995 39.615 0.000
8387 0 1 2.000 97.995 37.530 2.085
8388 0 1 2.000 95.910 39.615 2.085
8389 0 1 2.000 95.910 37.530 4.170
8390 0 1 2.000 97.995 39.615 4.170
8391 0 1 2.000 97.995 37.530 6.255
8392 0 1 2.000 95.910 39.615 6.255
8393 0 1 2.000 95.910 37.530 8.340
8394 0 1 2.000 97.995 39.615 8.340
8395 0 1 2.000 97.995 37.530 10.425
8396 0 1 2.000 95.910 39.615 10.425
8397 0 1 2.000 95.910 37.530 12.510
8398 0 1 2.000 97.995 39.615 12.510
8399 0 1 2.000 97.995 37.530 14.595
8400 0 1 2.000 95.910 39.615 14.595
8401 0 1 2.000 95.910 37.530 16.680
8402 0 1 2.000 97.995 39.615 16.680
8403 0 1 2.000 97.995 37.530 18.765
8404 0 1 2.000 95.910 39.615 18.765
8405 0 1 2.000 95.910 37.530 20.850
8406 0 1 2.000 97.995 39.615 20.850
8407 0 1 2.000 97.995 37.530 22.935
8408 0 1 2.000 95.910 39.615 22.935
8409 0 1 2.000 95.910 37.530 25.020
8410 0 1 2.000 97.995 39.615 25.020
8411 0 1 2.000 97.995 37.530 27.105
8412 0 1 2.000 95.910 39.615 27.105
8413 0 1 2.000 95.910 37.530 29.190
8414 0 1 2.000 97.995 39.615 29.190
8415 0 1 2.000 97.995 37.530 31.275
8416 0 1 2.000 95.910 39.615 31.275
8417 0 1 2.000 95.910 37.530 33.360
8418 0 1 2.000 97.995 39.615 33.360
8419 0 1 2.000 97.995 37.530 35.445
8420 0 1 2.000 95.910 39.615 35.445
8421 0 1 2.000 95.910 37.530 37.530
8422 0 1 2.000 97.995 39.615 37.530
8423 0 1 2.000 97.995 37.530 39.615
8424 0 1 2.000 95.910 39.615 39.615
8425 0 1 2.000 100.080 0.000 0.000
8426 0 1 2.000 102.165 2.085 0.000
8427 0 1 2.000 102.165 0.000 2.085
8428 0 1 2.000 100.080 2.085 2.085
8429 0 1 2.000 100.080 0.000 4.170
8430 0 1 2.000 102.165 2.085 4.170
8431 0 1 2.000 102.165 0.000 6.255
8432 0 1 2.000 100.080 2.085 6.255
8433 0 1 2.000 100.080 0.000 8.340
8434 0 1 2.000 102.165 2.085 8.340
8435 0 1 2.000 102.165 0.000 10.425
8436 0 1 2.000 100.080 2.085 10.425
8437 0 1 2.000 100.080 0.000 12.510
8438 0 1 2.000 102.165 2.085 12.510
8439 0 1 2.000 102.165 0.000 14.595
8440 0 1 2.000 100.080 2.085 14.595
8441 0 1 2.000 100.080 0.000 16.680
8442 0 1 2.000 102.165 2.085 16.680
8443 0 1 2.000 102.165 0.000 18.765
8444 0 1 2.000 100.080 2.085 18.765
8445 0 1 2.000 100.080 0.000 20.850
8446 0 1 2.000 102.165 2.085 20.850
8447 0 1 2.000 102.165 0.000 22.935
8448 0 1 2.000 100.080 2.085 22.935
8449 0 1 2.000 100.080 0.000 25.020
8450 0 1 2.000 102.165 2.085 25.020
8451 0 1 2.000 102.165 0.000 27.105
8452 0 1 2.000 100.080 2.085 27.105
8453 0 1 2.000 100.080 0.000 29.190
8454 0 1 2.000 102.165 2.085 29.190
8455 0 1 2.000 102.165 0.000 31.275
8456 0 1 2.000 100.080 2.085 31.275
8457 0 1 2.000 100.080 0.000 33.360
8458 0 1 2.000 102.165 2.085 33.360
8459 0 1 2.000 102.165 0.000 35.445
8460 0 1 2.000 100.080 2.085 35.445
8461 0 1 2.000 100.080 0.000 37.530
8462 0 1 2.000 102.165 2.085 37.530
8463 0 1 2.000 102.165 0.000 39.615
8464 0 1 2.000 100.080 2.085 39.615
8465 0 1 2.000 100.080 4.170 0.000
8466 0 1 2.000 102.165 6.255 0.000
8467 0 1 2.000 102.165 4.170 2.085
8468 0 1 2.000 100.080 6.255 2.085
8469 0 1 2.000 100.080 4.170 4.170
8470 0 1 2.000 102.165 6.255 4.170
8471 0 1 2.000 102.165 4.170 6.255
8472 0 1 2.000 100.080 6.255 6.255
8473 0 1 2.000 100.080 4.170 8.340
8474 0 1 2.000 102.165 6.255 8.340
8475 0 1 2.000 102.165 4.170 10.425
8476 0 1 2.000 100.080 6.255 10.425
8477 0 1 2.000 100.080 4.170 12.510
8478 0 1 2.000 102.165 6.255 12.510
8479 0 1 2.000 102.165 4.170 14.595
8480 0 1 2.000 100.080 6.255 14.595
8481 0 1 2.000 100.080 4.170 16.680
8482 0 1 2.000 102.165 6.255 16.680
8483 0 1 2.000 102.165 4.170 18.765
8484 0 1 2.000 100.080 6.255 18.765
8485 0 1 2.000 100.080 4.170 20.850
8486 0 1 2.000 102.165 6.255 20.850
8487 0 1 2.000 102.165 4.170 22.935
8488 0 1 2.000 100.080 6.255 22.935
8489 0 1 2.000 100.080 4.170 25.020
8490 0 1 2.000 102.165 6.255 25.020
8491 0 1 2.000 102.165 4.170 27.105
8492 0 1 2.000 100.080 6.255 27.105
8493 0 1 2.000 100.080 4.170 29.190
8494 0 1 2.000 102.165 6.255 29.190
8495 0 1 2.000 102.165 4.170 31.275
8496 0 1 2.000 100.080 6.255 31.275
8497 0 1 2.000 100.080 4.170 33.360
8498 0 1 2.000 102.165 6.255 33.360
8499 0 1 2.000 102.165 4.170 35.445
8500 0 1 2.000 100.080 6.255 35.445
8501 0 1 2.000 100.080 4.170 37.530
8502 0 1 2.000 102.165 6.255 37.530
8503 0 1 2.000 102.165 4.170 39.615
8504 0 1 2.000 100.080 6.255 39.615
8505 0 1 2.000 100.080 8.340 0.000
8506 0 1 2.000 102.165 10.425 0.000
8507 0 1 2.000 102.165 8.340 2.085
8508 0 1 2.000 100.080 10.425 2.085
8509 0 1 2.000 100.080 8.340 4.170
8510 0 1 2.000 102.165 10.425 4.170
8511 0 1 2.000 102.165 8.340 6.255
8512 0 1 2.000 100.080 10.425 6.255
8513 0 1 2.000 100.080 8.340 8.340
8514 0 1 2.000 102.165 10.425 8.340
8515 0 1 2.000 102.165 8.340 10.425
8516 0 1 2.000 100.080 10.425 10.425
8517 0 1 2.000 100.080 8.340 12.510
8518 0 1 2.000 102.165 10.425 12.510
8519 0 1 2.000 102.165 8.340 14.595
8520 0 1 2.000 100.080 10.425 14.595
8521 0 1 2.000 100.080 8.340 16.680
8522 0 1 2.000 102.165 10.425 16.680
8523 0 1 2.000 102.165 8.340 18.765
8524 0 1 2.000 100.080 10.425 18.765
8525 0 1 2.000 100.080 8.340 20.850
8526 0 1 2.000 102.165 10.425 20.850
8527 0 1 2.000 102.165 8.340 22.935
8528 0 1 2.000 100.080 10.425 22.935
8529 0 1 2.000 100.080 8.340 25.020
8530 0 1 2.000 102.165 10.425 25.020
8531 0 1 2.000 102.165 8.340 27.105
8532 0 1 2.000 100.080 10.425 27.105
8533 0 1 2.000 100.080 8.340 29.190
8534 0 1 2.000 102.165 10.425 29.190
8535 0 1 2.000 102.165 8.340 31.275
8536 0 1 2.000 100.080 10.425 31.275
8537 0 1 2.000 100.080 8.340 33.360
8538 0 1 2.000 102.165 10.425 33.360
8539 0 1 2.000 102.165 8.340 35.445
8540 0 1 2.000 100.080 10.425 35.445
8541 0 1 2.000 100.080 8.340 37.530
8542 0 1 2.000 100.080 12.510 0.000
8543 0 1 2.000 102.165 14.595 0.000
8544 0 1 2.000 102.165 12.510 2.085
8545 0 1 2.000 100.080 14.595 2.085
8546 0 1 2.000 100.080 12.510 4.170
8547 0 1 2.000 102.165 14.595 4.170
8548 0 1 2.000 102.165 12.510 6.255
8549 0 1 2.000 100.080 14.595 6.255
8550 0 1 2.000 100.080 12.510 8.340
8551 0 1 2.000 102.165 14.595 8.340
8552 0 1 2.000 102.165 12.510 10.425
8553 0 1 2.000 100.080 14.595 10.425
8554 0 1 2.000 100.080 12.510 12.510
8555 0 1 2.000 102.165 14.595 12.510
8556 0 1 2.000 102.165 12.510 14.595
8557 0 1 2.000 100.080 14.595 14.595
8558 0 1 2.000 100.080 12.510 16.680
8559 0 1 2.000 102.165 14.595 16.680
8560 0 1 2.000 102.165 12.510 18.765
8561 0 1 2.000 100.080 14.595 18.765
8562 0 1 2.000 100.080 12.510 20.850
8563 0 1 2.000 102.165 14.595 20.850
8564 0 1 2.000 102.165 12.510 22.935
8565 0 1 2.000 100.080 14.595 22.935
8566 0 1 2.000 100.080 12.510 25.020
8567 0 1 2.000 102.165 14.595 25.020
8568 0 1 2.000 102.165 12.510 27.105
8569 0 1 2.000 100.080 14.595 27.105
8570 0 1 2.000 100.080 12.510 29.190
8571 0 1 2.000 102.165 14.595 29.190
8572 0 1 2.000 102.165 12.510 31.275
8573 0 1 2.000 100.080 14.595 31.275
8574 0 1 2.000 100.080 12.510 33.360
8575 0 1 2.000 100.080 16.680 0.000
8576 0 1 2.000 102.165 18.765 0.000
8577 0 1 2.000 102.165 16.680 2.085
8578 0 1 2.000 100.080 18.765 2.085
8579 0 1 2.000 100.080 16.680 4.170
8580 0 1 2.000 102.165 18.765 4.170
8581 0 1 2.000 102.165 16.680 6.255
8582 0 1 2.000 100.080 18.765 6.255
8583 0 1 2.000 100.080 16.680 8.340
8584 0 1 2.000 102.165 18.765 8.340
8585 0 1 2.000 102.165 16.680 10.425
8586 0 1 2.000 100.080 18.765 10.425
8587 0 1 2.000 100.080 16.680 12.510
8588 0 1 2.000 102.165 18.765 12.510
8589 0 1 2.000 102.165 16.680 14.595
8590 0 1 2.000 100.080 18.765 14.595
8591 0 1 2.000 100.080 16.680 16.680
8592 0 1 2.000 102.165 18.765 16.680
8593 0 1 2.000 102.165 16.680 18.765
8594 0 1 2.000 100.080 18.765 18.765
8595 0 1 2.000 100.080 16.680 20.850
8596 0 1 2.000 102.165 18.765 20.850
8597 0 1 2.000 102.165 16.680 22.935
8598 0 1 2.000 100.080 18.765 22.935
8599 0 1 2.000 100.080 16.680 25.020
8600 0 1 2.000 102.165 18.765 25.020
8601 0 1 2.000 102.165 16.680 27.105
8602 0 1 2.000 100.080 18.765 27.105
8603 0 1 2.000 100.080 16.680 29.190
8604 0 1 2.000 100.080 20.850 0.000
8605 0 1 2.000 102.165 22.935 0.000
8606 0 1 2.000 102.165 20.850 2.085
8607 0 1 2.000 100.080 22.935 2.085
8608 0 1 2.000 100.080 20.850 4.170
8609 0 1 2.000 102.165 22.935 4.170
8610 0 1 2.000 102.165 20.850 6.255
8611 0 1 2.000 100.080 22.935 6.255
8612 0 1 2.000 100.080 20.850 8.340
8613 0 1 2.000 102.165 22.935 8.340
8614 0 1 2.000 102.165 20.850 10.425
8615 0 1 2.000 100.080 22.935 10.425
8616 0 1 2.000 100.080 20.850 12.510
8617 0 1 2.000 102.165 22.935 12.510
8618 0 1 2.000 102.165 20.850 14.595
8619 0 1 2.000 100.080 22.935 14.595
8620 0 1 2.000 100.080 20.850 16.680
8621 0 1 2.000 102.165 22.935 16.680
8622 0 1 2.000 102.165 20.850 18.765
8623 0 1 2.000 100.080 22.935 18.765
8624 0 1 2.000 100.080 20.850 20.850
8625 0 1 2.000 102.165 22.935 20.850
8626 0 1 2.000 102.165 20.850 22.935
8627 0 1 2.000 100.080 22.935 22.935
8628 0 1 2.000 100.080 20.850 25.020
8629 0 1 2.000 102.165 22.935 25.020
8630 0 1 2.000 100.080 22.935 27.105
8631 0 1 2.000 100.080 25.020 0.000
8632 0 1 2.000 102.165 27.105 0.000
8633 0 1 2.000 102.165 25.020 2.085
8634 0 1 2.000 100.080 27.105 2.085
8635 0 1 2.000 100.080 25.020 4.170
8636 0 1 2.000 102.165 27.105 4.170
8637 0 1 2.000 102.165 25.020 6.255
8638 0 1 2.000 100.080 27.105 6.255
8639 0 1 2.000 100.080 25.020 8.340
8640 0 1 2.000 102.165 27.105 8.340
8641 0 1 2.000 102.165 25.020 10.425
8642 0 1 2.000 100.080 27.105 10.425
8643 0 1 2.000 100.080 25.020 12.510
8644 0 1 2.000 102.165 27.105 12.510
8645 0 1 2.000 102.165 25.020 14.595
8646 0 1 2.000 100.080 27.105 14.595
8647 0 1 2.000 100.080 25.020 16.680
8648 0 1 2.000 102.165 27.105 16.680
8649 0 1 2.000 102.165 25.020 18.765
8650 0 1 2.000 100.080 27.105 18.765
8651 0 1 2.000 100.080 25.020 20.850
8652 0 1 2.000 102.165 27.105 20.850
8653 0 1 2.000 102.165 25.020 22.935
8654 0 1 2.000 100.080 27.105 22.935
8655 0 1 2.000 100.080 25.020 25.020
8656 0 1 2.000 102.165 27.105 25.020
8657 0 1 2.000 102.165 25.020 27.105
8658 0 1 2.000 100.080 27.105 27.105
8659 0 1 2.000 100.080 25.020 29.190
8660 0 1 2.000 102.165 27.105 29.190
8661 0 1 2.000 100.080 27.105 31.275
8662 0 1 2.000 100.080 29.190 0.000
8663 0 1 2.000 102.165 31.275 0.000
8664 0 1 2.000 102.165 29.190 2.085
8665 0 1 2.000 100.080 31.275 2.085
8666 0 1 2.000 100.080 29.190 4.170
8667 0 1 2.000 102.165 31.275 4.170
8668 0 1 2.000 102.165 29.190 6.255
8669 0 1 2.000 100.080 31.275 6.255
8670 0 1 2.000 100.080 29.190 8.340
8671 0 1 2.000 102.165 31.275 8.340
8672 0 1 2.000 102.165 29.190 10.425
8673 0 1 2.000 100.080 31.275 10.425
8674 0 1 2.000 100.080 29.190 12.510
8675 0 1 2.000 102.165 31.275 12.510
8676 0 1 2.000 102.165 29.190 14.595
8677 0 1 2.000 100.080 31.275 14.595
8678 0 1 2.000 100.080 29.190 16.680
8679 0 1 2.000 102.165 31.275 16.680
8680 0 1 2.000 102.165 29.190 18.765
8681 0 1 2.000 100.080 31.275 18.765
8682 0 1 2.000 100.080 29.190 20.850
8683 0 1 2.000 102.165 31.275 20.850
8684 0 1 2.000 102.165 29.190 22.935
8685 0 1 2.000 100.080 31.275 22.935
8686 0 1 2.000 100.080 29.190 25.020
8687 0 1 2.000 102.165 31.275 25.020
8688 0 1 2.000 102.165 29.190 27.105
8689 0 1 2.000 100.080 31.275 27.105
8690 0 1 2.000 100.080 29.190 29.190
8691 0 1 2.000 102.165 31.275 29.190
8692 0 1 2.000 102.165 29.190 31.275
8693 0 1 2.000 100.080 31.275 31.275
8694 0 1 2.000 100.080 29.190 33.360
8695 0 1 2.000 102.165 31.275 33.360
8696 0 1 2.000 100.080 31.275 35.445
8697 0 1 2.000 100.080 33.360 0.000
8698 0 1 2.000 102.165 35.445 0.000
8699 0 1 2.000 102.165 33.360 2.085
8700 0 1 2.000 100.080 35.445 2.085
8701 0 1 2.000 100.080 33.360 4.170
8702 0 1 2.000 102.165 35.445 4.170
8703 0 1 2.000 102.165 33.360 6.255
8704 0 1 2.000 100.080 35.445 6.255
8705 0 1 2.000 100.080 33.360 8.340
8706 0 1 2.000 102.165 35.445 8.340
8707 0 1 2.000 102.165 33.360 10.425
8708 0 1 2.000 100.080 35.445 10.425
8709 0 1 2.000 100.080 33.360 12.510
8710 0 1 2.000 102.165 35.445 12.510
8711 0 1 2.000 102.165 33.360 14.595
8712 0 1 2.000 100.080 35.445 14.595
8713 0 1 2.000 100.080 33.360 16.680
8714 0 1 2.000 102.165 35.445 16.680
8715 0 1 2.000 102.165 33.360 18.765
8716 0 1 2.000 100.080 35.445 18.765
8717 0 1 2.000 100.080 33.360 20.850
8718 0 1 2.000 102.165 35.445 20.850
8719 0 1 2.000 102.165 33.360 22.935
8720 0 1 2.000 100.080 35.445 22.935
8721 0 1 2.000 100.080 33.360 25.020
8722 0 1 2.000 102.165 35.445 25.020
8723 0 1 2.000 102.165 33.360 27.105
8724 0 1 2.000 100.080 35.445 27.105
8725 0 1 2.000 100.080 33.360 29.190
8726 0 1 2.000 102.165 35.445 29.190
8727 0 1 2.000 102.165 33.360 31.275
8728 0 1 2.000 100.080 35.445 31.275
8729 0 1 2.000 100.080 33.360 33.360
8730 0 1 2.000 102.165 35.445 33.360
8731 0 1 2.000 102.165 33.360 35.445
8732 0 1 2.000 100.080 35.445 35.445
8733 0 1 2.000 100.080 33.360 37.530
8734 0 1 2.000 102.165 35.445 37.530
8735 0 1 2.000 100.080 35.445 39.615
8736 0 1 2.000 100.080 37.530 0.000
8737 0 1 2.000 102.165 39.615 0.000
8738 0 1 2.000 102.165 37.530 2.085
8739 0 1 2.000 100.080 39.615 2.085
8740 0 1 2.000 100.080 37.530 4.170
8741 0 1 2.000 102.165 39.615 4.170
8742 0 1 2.000 102.165 37.530 6.255
8743 0 1 2.000 100.080 39.615 6.255
8744 0 1 2.000 100.080 37.530 8.340
8745 0 1 2.000 102.165 39.615 8.340
8746 0 1 2.000 102.165 37.530 10.425
8747 0 1 2.000 100.080 39.615 10.425
8748 0 1 2.000 100.080 37.530 12.510
8749 0 1 2.000 102.165 39.615 12.510
8750 0 1 2.000 102.165 37.530 14.595
8751 0 1 2.000 100.080 39.615 14.595
8752 0 1 2.000 100.080 37.530 16.680
8753 0 1 2.000 102.165 39.615 16.680
8754 0 1 2.000 102.165 37.530 18.765
8755 0 1 2.000 100.080 39.615 18.765
8756 0 1 2.000 100.080 37.530 20.850
8757 0 1 2.000 102.165 39.615 20.850
8758 0 1 2.000 102.165 37.530 22.935
8759 0 1 2.000 100.080 39.615 22.935
8760 0 1 2.000 100.080 37.530 25.020
8761 0 1 2.000 102.165 39.615 25.020
8762 0 1 2.000 102.165 37.530 27.105
8763 0 1 2.000 100.080 39.615 27.105
8764 0 1 2.000 100.080 37.530 29.190
8765 0 1 2.000 102.165 39.615 29.190
8766 0 1 2.000 102.165 37.530 31.275
8767 0 1 2.000 100.080 39.615 31.275
8768 0 1 2.000 100.080 37.530 33.360
8769 0 1 2.000 102.165 39.615 33.360
8770 0 1 2.000 102.165 37.530 35.445
8771 0 1 2.000 100.080 39.615 35.445
8772 0 1 2.000 100.080 37.530 37.530
8773 0 1 2.000 102.165 39.615 37.530
8774 0 1 2.000 102.165 37.530 39.615
8775 0 1 2.000 100.080 39.615 39.615
8776 0 1 2.000 104.250 0.000 0.000
8777 0 1 2.000 106.335 2.085 0.000
8778 0 1 2.000 106.335 0.000 2.085
8779 0 1 2.000 104.250 2.085 2.085
8780 0 1 2.000 104.250 0.000 4.170
8781 0 1 2.000 106.335 2.085 4.170
8782 0 1 2.000 106.335 0.000 6.255
8783 0 1 2.000 104.250 2.085 6.255
8784 0 1 2.000 104.250 0.000 8.340
8785 0 1 2.000 106.335 2.085 8.340
8786 0 1 2.000 106.335 0.000 10.425
8787 0 1 2.000 104.250 2.085 10.425
8788 0 1 2.000 104.250 0.000 12.510
8789 0 1 2.000 106.335 2.085 12.510
8790 0 1 2.000 106.335 0.000 14.595
8791 0 1 2.000 104.250 2.085 14.595
8792 0 1 2.000 104.250 0.000 16.680
8793 0 1 2.000 106.335 2.085 16.680
8794 0 1 2.000 106.335 0.000 18.765
8795 0 1 2.000 104.250 2.085 18.765
8796 0 1 2.000 104.250 0.000 20.850
8797 0 1 2.000 106.335 2.085 20.850
8798 0 1 2.000 106.335 0.000 22.935
8799 0 1 2.000 104.250 2.085 22.935
8800 0 1 2.000 104.250 0.000 25.020
8801 0 1 2.000 106.335 2.085 25.020
8802 0 1 2.000 106.335 0.000 27.105
8803 0 1 2.000 104.250 2.085 27.105
8804 0 1 2.000 104.250 0.000 29.190
8805 0 1 2.000 106.335 2.085 29.190
8806 0 1 2.000 106.335 0.000 31.275
8807 0 1 2.000 104.250 2.085 31.275
8808 0 1 2.000 104.250 0.000 33.360
8809 0 1 2.000 106.335 2.085 33.360
8810 0 1 2.000 106.335 0.000 35.445
8811 0 1 2.000 104.250 2.085 35.445
8812 0 1 2.000 104.250 0.000 37.530
8813 0 1 2.000 106.335 2.085 37.530
8814 0 1 2.000 106.335 0.000 39.615
8815 0 1 2.000 104.250 2.085 39.615
8816 0 1 2.000 104.250 4.170 0.000
8817 0 1 2.000 106.335 6.255 0.000
8818 0 1 2.000 106.335 4.170 2.085
8819 0 1 2.000 104.250 6.255 2.085
8820 0 1 2.000 104.250 4.170 4.170
8821 0 1 2.000 106.335 6.255 4.170
8822 0 1 2.000 106.335 4.170 6.255
8823 0 1 2.000 104.250 6.255 6.255
8824 0 1 2.000 104.250 4.170 8.340
8825 0 1 2.000 106.335 6.255 8.340
8826 0 1 2.000 106.335 4.170 10.425
8827 0 1 2.000 104.250 6.255 10.425
8828 0 1 2.000 104.250 4.170 12.510
8829 0 1 2.000 106.335 6.255 12.510
8830 0 1 2.000 106.335 4.170 14.595
8831 0 1 2.000 104.250 6.255 14.595
8832 0 1 2.000 104.250 4.170 16.680
8833 0 1 2.000 106.335 6.255 16.680
8834 0 1 2.000 106.335 4.170 18.765
8835 0 1 2.000 104.250 6.255 18.765
8836 0 1 2.000 104.250 4.170 20.850
8837 0 1 2.000 106.335 6.255 20.850
8838 0 1 2.000 106.335 4.170 22.935
8839 0 1 2.000 104.250 6.255 22.935
8840 0 1 2.000 104.250 4.170 25.020
8841 0 1 2.000 106.335 6.255 25.020
8842 0 1 2.000 106.335 4.170 27.105
8843 0 1 2.000 104.250 6.255 27.105
8844 0 1 2.000 104.250 4.170 29.190
8845 0 1 2.000 106.335 6.255 29.190
8846 0 1 2.000 106.335 4.170 31.275
8847 0 1 2.000 104.250 6.255 31.275
8848 0 1 2.000 104.250 4.170 33.360
8849 0 1 2.000 106.335 6.255 33.360
8850 0 1 2.000 106.335 4.170 35.445
8851 0 1 2.000 104.250 6.255 35.445
8852 0 1 2.000 104.250 4.170 37.530
8853 0 1 2.000 106.335 6.255 37.530
8854 0 1 2.000 106.335 4.170 39.615
8855 0 1 2.000 104.250 6.255 39.615
8856 0 1 2.000 104.250 8.340 0.000
8857 0 1 2.000 106.335 10.425 0.000
8858 0 1 2.000 106.335 8.340 2.085
8859 0 1 2.000 104.250 10.425 2.085
8860 0 1 2.000 104.250 8.340 4.170
8861 0 1 2.000 106.335 10.425 4.170
8862 0 1 2.000 106.335 8.340 6.255
8863 0 1 2.000 104.250 10.425 6.255
8864 0 1 2.000 104.250 8.340 8.340
8865 0 1 2.000 106.335 10.425 8.340
8866 0 1 2.000 106.335 8.340 10.425
8867 0 1 2.000 104.250 10.425 10.425
8868 0 1 2.000 104.250 8.340 12.510
8869 0 1 2.000 106.335 10.425 12.510
8870 0 1 2.000 106.335 8.340 14.595
8871 0 1 2.000 104.250 10.425 14.595
8872 0 1 2.000 104.250 8.340 16.680
8873 0 1 2.000 106.335 10.425 16.680
8874 0 1 2.000 106.335 8.340 18.765
8875 0 1 2.000 104.250 10.425 18.765
8876 0 1 2.000 104.250 8.340 20.850
8877 0 1 2.000 106.335 10.425 20.850
8878 0 1 2.000 106.335 8.340 22.935
8879 0 1 2.000 104.250 10.425 22.935
8880 0 1 2.000 104.250 8.340 25.020
8881 0 1 2.000 106.335 10.425 25.020
8882 0 1 2.000 106.335 8.340 27.105
8883 0 1 2.000 104.250 10.425 27.105
8884 0 1 2.000 104.250 8.340 29.190
8885 0 1 2.000 106.335 10.425 29.190
8886 0 1 2.000 106.335 8.340 31.275
8887 0 1 2.000 104.250 10.425 31.275
8888 0 1 2.000 104.250 8.340 33.360
8889 0 1 2.000 106.335 10.425 33.360
8890 0 1 2.000 106.335 8.340 35.445
8891 0 1 2.000 104.250 10.425 35.445
8892 0 1 2.000 104.250 8.340 37.530
8893 0 1 2.000 104.250 12.510 0.000
8894 0 1 2.000 106.335 14.595 0.000
8895 0 1 2.000 106.335 12.510 2.085
8896 0 1 2.000 104.250 14.595 2.085
8897 0 1 2.000 104.250 12.510 4.170
8898 0 1 2.000 106.335 14.595 4.170
8899 0 1 2.000 106.335 12.510 6.255
8900 0 1 2.000 104.250 14.595 6.255
8901 0 1 2.000 104.250 12.510 8.340
8902 0 1 2.000 106.335 14.595 8.340
8903 0 1 2.000 106.335 12.510 10.425
8904 0 1 2.000 104.250 14.595 10.425
8905 0 1 2.000 104.250 12.510 12.510
8906 0 1 2.000 106.335 14.595 12.510
8907 0 1 2.000 106.335 12.510 14.595
8908 0 1 2.000 104.250 14.595 14.595
8909 0 1 2.000 104.250 12.510 16.680
8910 0 1 2.000 106.335 14.595 16.680
8911 0 1 2.000 106.335 12.510 18.765
8912 0 1 2.000 104.250 14.595 18.765
8913 0 1 2.000 104.250 12.510 20.850
8914 0 1 2.000 106.335 14.595 20.850
8915 0 1 2.000 106.335 12.510 22.935
8916 0 1 2.000 104.250 14.595 22.935
8917 0 1 2.000 104.250 12.510 25.020
8918 0 1 2.000 106.335 14.595 25.020
8919 0 1 2.000 106.335 12.510 27.105
8920 0 1 2.000 104.250 14.595 27.105
8921 0 1 2.000 104.250 12.510 29.190
8922 0 1 2.000 106.335 14.595 29.190
8923 0 1 2.000 106.335 12.510 31.275
8924 0 1 2.000 104.250 14.595 31.275
8925 0 1 2.000 104.250 12.510 33.360
8926 0 1 2.000 104.250 16.680 0.000
8927 0 1 2.000 106.335 18.765 0.000
8928 0 1 2.000 106.335 16.680 2.085
8929 0 1 2.000 104.250 18.765 2.085
8930 0 1 2.000 104.250 16.680 4.170
8931 0 1 2.000 106.335 18.765 4.170
8932 0 1 2.000 106.335 16.680 6.255
8933 0 1 2.000 104.250 18.765 6.255
8934 0 1 2.000 104.250 16.680 8.340
8935 0 1 2.000 106.335 18.765 8.340
8936 0 1 2.000 106.335 16.680 10.425
8937 0 1 2.000 104.250 18.765 10.425
8938 0 1 2.000 104.250 16.680 12.510
8939 0 1 2.000 106.335 18.765 12.510
8940 0 1 2.000 106.335 16.680 14.595
8941 0 1 2.000 104.250 18.765 14.595
8942 0 1 2.000 104.250 16.680 16.680
8943 0 1 2.000 106.335 18.765 16.680
8944 0 1 2.000 106.335 16.680 18.765
8945 0 1 2.000 104.250 18.765 18.765
8946 0 1 2.000 104.250 16.680 20.850
8947 0 1 2.000 106.335 18.765 20.850
8948 0 1 2.000 106.335 16.680 22.935
8949 0 1 2.000 104.250 18.765 22.935
8950 0 1 2.000 104.250 16.680 25.020
8951 0 1 2.000 106.335 18.765 25.020
8952 0 1 2.000 106.335 16.680 27.105
8953 0 1 2.000 104.250 18.765 27.105
8954 0 1 2.000 104.250 16.680 29.190
8955 0 1 2.000 104.250 20.850 0.000
8956 0 1 2.000 106.335 22.935 0.000
8957 0 1 2.000 106.335 20.850 2.085
8958 0 1 2.000 104.250 22.935 2.085
8959 0 1 2.000 104.250 20.850 4.170
8960 0 1 2.000 106.335 22.935 4.170
8961 0 1 2.000 106.335 20.850 6.255
8962 0 1 2.000 104.250 22.935 6.255
8963 0 1 2.000 104.250 20.850 8.340
8964 0 1 2.000 106.335 22.935 8.340
8965 0 1 2.000 106.335 20.850 10.425
8966 0 1 2.000 104.250 22.935 10.425
8967 0 1 2.000 104.250 20.850 12.510
8968 0 1 2.000 106.335 22.935 12.510
8969 0 1 2.000 106.335 20.850 14.595
8970 0 1 2.000 104.250 22.935 14.595
8971 0 1 2.000 104.250 20.850 16.680
8972 0 1 2.000 106.335 22.935 16.680
8973 0 1 2.000 106.335 20.850 18.765
8974 0 1 2.000 104.250 22.935 18.765
8975 0 1 2.000 104.250 20.850 20.850
8976 0 1 2.000 106.335 22.935 20.850
8977 0 1 2.000 106.335 20.850 22.935
8978 0 1 2.000 104.250 22.935 22.935
8979 0 1 2.000 104.250 20.850 25.020
8980 0 1 2.000 106.335 22.935 25.020
8981 0 1 2.000 104.250 22.935 27.105
8982 0 1 2.000 104.250 25.020 0.000
8983 0 1 2.000 106.335 27.105 0.000
8984 0 1 2.000 106.335 25.020 2.085
8985 0 1 2.000 104.250 27.105 2.085
8986 0 1 2.000 104.250 25.020 4.170
8987 0 1 2.000 106.335 27.105 4.170
8988 0 1 2.000 106.335 25.020 6.255
8989 0 1 2.000 104.250 27.105 6.255
8990 0 1 2.000 104.250 25.020 8.340
8991 0 1 2.000 106.335 27.105 8.340
8992 0 1 2.000 106.335 25.020 10.425
8993 0 1 2.000 104.250 27.105 10.425
8994 0 1 2.000 104.250 25.020 12.510
8995 0 1 2.000 106.335 27.105 12.510
8996 0 1 2.000 106.335 25.020 14.595
8997 0 1 2.000 104.250 27.105 14.595
8998 0 1 2.000 104.250 25.020 16.680
8999 0 1 2.000 106.335 27.105 16.680
9000 0 1 2.000 106.335 25.020 18.765
9001 0 1 2.000 104.250 27.105 18.765
9002 0 1 2.000 104.250 25.020 20.850
9003 0 1 2.000 106.335 27.105 20.850
9004 0 1 2.000 106.335 25.020 22.935
9005 0 1 2.000 104.250 27.105 22.935
9006 0 1 2.000 104.250 25.020 25.020
9007 0 1 2.000 106.335 27.105 25.020
9008 0 1 2.000 106.335 25.020 27.105
9009 0 1 2.000 104.250 27.105 27.105
9010 0 1 2.000 104.250 25.020 29.190
9011 0 1 2.000 106.335 27.105 29.190
9012 0 1 2.000 104.250 27.105 31.275
9013 0 1 2.000 104.250 29.190 0.000
9014 0 1 2.000 106.335 31.275 0.000
9015 0 1 2.000 106.335 29.190 2.085
9016 0 1 2.000 104.250 31.275 2.085
9017 0 1 2.000 104.250 29.190 4.170
9018 0 1 2.000 106.335 31.275 4.170
9019 0 1 2.000 106.335 29.190 6.255
9020 0 1 2.000 104.250 31.275 6.255
9021 0 1 2.000 104.250 29.190 8.340
9022 0 1 2.000 106.335 31.275 8.340
9023 0 1 2.000 106.335 29.190 10.425
9024 0 1 2.000 104.250 31.275 10.425
9025 0 1 2.000 104.250 29.190 12.510
9026 0 1 2.000 106.335 31.275 12.510
9027 0 1 2.000 106.335 29.190 14.595
9028 0 1 2.000 104.250 31.275 14.595
9029 0 1 2.000 104.250 29.190 16.680
9030 0 1 2.000 106.335 31.275 16.680
9031 0 1 2.000 106.335 29.190 18.765
9032 0 1 2.000 104.250 31.275 18.765
9033 0 1 2.000 104.250 29.190 20.850
9034 0 1 2.000 106.335 31.275 20.850
9035 0 1 2.000 106.335 29.190 22.935
9036 0 1 2.000 104.250 31.275 22.935
9037 0 1 2.000 104.250 29.190 25.020
9038 0 1 2.000 106.335 31.275 25.020
9039 0 1 2.000 106.335 29.190 27.105
9040 0 1 2.000 104.250 31.275 27.105
9041 0 1 2.000 104.250 29.190 29.190
9042 0 1 2.000 106.335 31.275 29.190
9043 0 1 2.000 106.335 29.190 31.275
9044 0 1 2.000 104.250 31.275 31.275
9045 0 1 2.000 104.250 29.190 33.360
9046 0 1 2.000 106.335 31.275 33.360
9047 0 1 2.000 104.250 31.275 35.445
9048 0 1 2.000 104.250 33.360 0.000
9049 0 1 2.000 106.335 35.445 0.000
9050 0 1 2.000 106.335 33.360 2.085
9051 0 1 2.000 104.250 35.445 2.085
9052 0 1 2.000 104.250 33.360 4.170
9053 0 1 2.000 106.335 35.445 4.170
9054 0 1 2.000 106.335 33.360 6.255
9055 0 1 2.000 104.250 35.445 6.255
9056 0 1 2.000 104.250 33.360 8.340
9057 0 1 2.000 106.335 35.445 8.340
9058 0 1 2.000 106.335 33.360 10.425
9059 0 1 2.000 104.250 35.445 10.425
9060 0 1 2.000 104.250 33.360 12.510
9061 0 1 2.000 106.335 35.445 12.510
9062 0 1 2.000 106.335 33.360 14.595
9063 0 1 2.000 104.250 35.445 14.595
9064 0 1 2.000 104.250 33.360 16.680
9065 0 1 2.000 106.335 35.445 16.680
9066 0 1 2.000 106.335 33.360 18.765
9067 0 1 2.000 104.250 35.445 18.765
9068 0 1 2.000 104.250 33.360 20.850
9069 0 1 2.000 106.335 35.445 20.850
9070 0 1 2.000 106.335 33.360 22.935
9071 0 1 2.000 104.250 35.445 22.935
9072 0 1 2.000 104.250 33.360 25.020
9073 0 1 2.000 106.335 35.445 25.020
9074 0 1 2.000 106.335 33.360 27.105
9075 0 1 2.000 104.250 35.445 27.105
9076 0 1 2.000 104.250 33.360 29.190
9077 0 1 2.000 106.335 35.445 29.190
9078 0 1 2.000 106.335 33.360 31.275
9079 0 1 2.000 104.250 35.445 31.275
9080 0 1 2.000 104.250 33.360 33.360
9081 0 1 2.000 106.335 35.445 33.360
9082 0 1 2.000 106.335 33.360 35.445
9083 0 1 2.000 104.250 35.445 35.445
9084 0 1 2.000 104.250 33.360 37.530
9085 0 1 2.000 106.335 35.445 37.530
9086 0 1 2.000 104.250 35.445 39.615
9087 0 1 2.000 104.250 37.530 0.000
9088 0 1 2.000 106.335 39.615 0.000
9089 0 1 2.000 106.335 37.530 2.085
9090 0 1 2.000 104.250 39.615 2.085
9091 0 1 2.000 104.250 37.530 4.170
9092 0 1 2.000 106.335 39.615 4.170
9093 0 1 2.000 106.335 37.530 6.255
9094 0 1 2.000 104.250 39.615 6.255
9095 0 1 2.000 104.250 37.530 8.340
9096 0 1 2.000 106.335 39.615 8.340
9097 0 1 2.000 106.335 37.530 10.425
9098 0 1 2.000 104.250 39.615 10.425
9099 0 1 2.000 104.250 37.530 12.510
9100 0 1 2.000 106.335 39.615 12.510
9101 0 1 2.000 106.335 37.530 14.595
9102 0 1 2.000 104.250 39.615 14.595
9103 0 1 2.000 104.250 37.530 16.680
9104 0 1 2.000 106.335 39.615 16.680
9105 0 1 2.000 106.335 37.530 18.765
9106 0 1 2.000 104.250 39.615 18.765
9107 0 1 2.000 104.250 37.530 20.850
9108 0 1 2.000 106.335 39.615 20.850
9109 0 1 2.000 106.335 37.530 22.935
9110 0 1 2.000 104.250 39.615 22.935
9111 0 1 2.000 104.250 37.530 25.020
9112 0 1 2.000 106.335 39.615 25.020
9113 0 1 2.000 106.335 37.530 27.105
9114 0 1 2.000 104.250 39.615 27.105
9115 0 1 2.000 104.250 37.530 29.190
9116 0 1 2.000 106.335 39.615 29.190
9117 0 1 2.000 106.335 37.530 31.275
9118 0 1 2.000 104.250 39.615 31.275
9119 0 1 2.000 104.250 37.530 33.360
9120 0 1 2.000 106.335 39.615 33.360
9121 0 1 2.000 106.335 37.530 35.445
9122 0 1 2.000 104.250 39.615 35.445
9123 0 1 2.000 104.250 37.530 37.530
9124 0 1 2.000 106.335 39.615 37.530
9125 0 1 2.000 106.335 37.530 39.615
9126 0 1 2.000 104.250 39.615 39.615
9127 0 1 2.000 108.420 0.000 0.000
9128 0 1 2.000 110.505 2.085 0.000
9129 0 1 2.000 110.505 0.000 2.085
9130 0 1 2.000 108.420 2.085 2.085
9131 0 1 2.000 108.420 0.000 4.170
9132 0 1 2.000 110.505 2.085 4.170
9133 0 1 2.000 110.505 0.000 6.255
9134 0 1 2.000 108.420 2.085 6.255
9135 0 1 2.000 108.420 0.000 8.340
9136 0 1 2.000 110.505 2.085 8.340
9137 0 1 2.000 110.505 0.000 10.425
9138 0 1 2.000 108.420 2.085 10.425
9139 0 1 2.000 108.420 0.000 12.510
9140 0 1 2.000 110.505 2.085 12.510
9141 0 1 2.000 110.505 0.000 14.595
9142 0 1 2.000 108.420 2.085 14.595
9143 0 1 2.000 108.420 0.000 16.680
9144 0 1 2.000 110.505 2.085 16.680
9145 0 1 2.000 110.505 0.000 18.765
9146 0 1 2.000 108.420 2.085 18.765
9147 0 1 2.000 108.420 0.000 20.850
9148 0 1 2.000 110.505 2.085 20.850
9149 0 1 2.000 110.505 0.000 22.935
9150 0 1 2.000 108.420 2.085 22.935
9151 0 1 2.000 108.420 0.000 25.020
9152 0 1 2.000 110.505 2.085 25.020
9153 0 1 2.000 110.505 0.000 27.105
9154 0 1 2.000 108.420 2.085 27.105
9155 0 1 2.000 108.420 0.000 29.190
9156 0 1 2.000 110.505 2.085 29.190
9157 0 1 2.000 110.505 0.000 31.275
9158 0 1 2.000 108.420 2.085 31.275
9159 0 1 2.000 108.420 0.000 33.360
9160 0 1 2.000 110.505 2.085 33.360
9161 0 1 2.000 110.505 0.000 35.445
9162 0 1 2.000 108.420 2.085 35.445
9163 0 1 2.000 108.420 0.000 37.530
9164 0 1 2.000 110.505 2.085 37.530
9165 0 1 2.000 110.505 0.000 39.615
9166 0 1 2.000 108.420 2.085 39.615
9167 0 1 2.000 108.420 4.170 0.000
9168 0 1 2.000 110.505 6.255 0.000
9169 0 1 2.000 110.505 4.170 2.085
9170 0 1 2.000 108.420 6.255 2.085
9171 0 1 2.000 108.420 4.170 4.170
9172 0 1 2.000 110.505 6.255 4.170
9173 0 1 2.000 110.505 4.170 6.255
9174 0 1 2.000 108.420 6.255 6.255
9175 0 1 2.000 108.420 4.170 8.340
9176 0 1 2.000 110.505 6.255 8.340
9177 0 1 2.000 110.505 4.170 10.425
9178 0 1 2.000 108.420 6.255 10.425
9179 0 1 2.000 108.420 4.170 12.510
9180 0 1 2.000 110.505 6.255 12.510
9181 0 1 2.000 110.505 4.170 14.595
9182 0 1 2.000 108.420 6.255 14.595
9183 0 1 2.000 108.420 4.170 16.680
9184 0 1 2.000 110.505 6.255 16.680
9185 0 1 2.000 110.505 4.170 18.765
9186 0 1 2.000 108.420 6.255 18.765
9187 0 1 2.000 108.420 4.170 20.850
9188 0 1 2.000 110.505 6.255 20.850
9189 0 1 2.000 110.505 4.170 22.935
9190 0 1 2.000 108.420 6.255 22.935
9191 0 1 2.000 108.420 4.170 25.020
9192 0 1 2.000 110.505 6.255 25.020
9193 0 1 2.000 110.505 4.170 27.105
9194 0 1 2.000 108.420 6.255 27.105
9195 0 1 2.000 108.420 4.170 29.190
9196 0 1 2.000 110.505 6.255 29.190
9197 0 1 2.000 110.505 4.170 31.275
9198 0 1 2.000 108.420 6.255 31.275
9199 0 1 2.000 108.420 4.170 33.360
9200 0 1 2.000 110.505 6.255 33.360
9201 0 1 2.000 110.505 4.170 35.445
9202 0 1 2.000 108.420 6.255 35.445
9203 0 1 2.000 108.420 4.170 37.530
9204 0 1 2.000 110.505 6.255 37.530
9205 0 1 2.000 110.505 4.170 39.615
9206 0 1 2.000 108.420 6.255 39.615
9207 0 1 2.000 108.420 8.340 0.000
9208 0 1 2.000 110.505 10.425 0.000
9209 0 1 2.000 110.505 8.340 2.085
9210 0 1 2.000 108.420 10.425 2.085
9211 0 1 2.000 108.420 8.340 4.170
9212 0 1 2.000 110.505 10.425 4.170
9213 0 1 2.000 110.505 8.340 6.255
9214 0 1 2.000 108.420 10.425 6.255
9215 0 1 2.000 108.420 8.340 8.340
9216 0 1 2.000 110.505 10.425 8.340
9217 0 1 2.000 110.505 8.340 10.425
9218 0 1 2.000 108.420 10.425 10.425
9219 0 1 2.000 108.420 8.340 12.510
9220 0 1 2.000 110.505 10.425 12.510
9221 0 1 2.000 110.505 8.340 14.595
9222 0 1 2.000 108.420 10.425 14.595
9223 0 1 2.000 108.420 8.340 16.680
9224 0 1 2.000 110.505 10.425 16.680
9225 0 1 2.000 110.505 8.340 18.765
9226 0 1 2.000 108.420 10.425 18.765
9227 0 1 2.000 108.420 8.340 20.850
9228 0 1 2.000 110.505 10.425 20.850
9229 0 1 2.000 110.505 8.340 22.935
9230 0 1 2.000 108.420 10.425 22.935
9231 0 1 2.000 108.420 8.340 25.020
9232 0 1 2.000 110.505 10.425 25.020
9233 0 1 2.000 110.505 8.340 27.105
9234 0 1 2.000 108.420 10.425 27.105
9235 0 1 2.000 108.420 8.340 29.190
9236 0 1 2.000 110.505 10.425 29.190
9237 0 1 2.000 110.505 8.340 31.275
9238 0 1 2.000 108.420 10.425 31.275
9239 0 1 2.000 108.420 8.340 33.360
9240 0 1 2.000 110.505 10.425 33.360
9241 0 1 2.000 110.505 8.340 35.445
9242 0 1 2.000 108.420 10.425 35.445
9243 0 1 2.000 108.420 8.340 37.530
9244 0 1 2.000 108.420 12.510 0.000
9245 0 1 2.000 110.505 14.595 0.000
9246 0 1 2.000 110.505 12.510 2.085
9247 0 1 2.000 108.420 14.595 2.085
9248 0 1 2.000 108.420 12.510 4.170
9249 0 1 2.000 110.505 14.595 4.170
9250 0 1 2.000 110.505 12.510 6.255
9251 0 1 2.000 108.420 14.595 6.255
9252 0 1 2.000 108.420 12.510 8.340
9253 0 1 2.000 110.505 14.595 8.340
9254 0 1 2.000 110.505 12.510 10.425
9255 0 1 2.000 108.420 14.595 10.425
9256 0 1 2.000 108.420 12.510 12.510
9257 0 1 2.000 110.505 14.595 12.510
9258 0 1 2.000 110.505 12.510 14.595
9259 0 1 2.000 108.420 14.595 14.595
9260 0 1 2.000 108.420 12.510 16.680
9261 0 1 2.000 110.505 14.595 16.680
9262 0 1 2.000 110.505 12.510 18.765
9263 0 1 2.000 108.420 14.595 18.765
9264 0 1 2.000 108.420 12.510 20.850
9265 0 1 2.000 110.505 14.595 20.850
9266 0 1 2.000 110.505 12.510 22.935
9267 0 1 2.000 108.420 14.595 22.935
9268 0 1 2.000 108.420 12.510 25.020
9269 0 1 2.000 110.505 14.595 25.020
9270 0 1 2.000 110.505 12.510 27.105
9271 0 1 2.000 108.420 14.595 27.105
9272 0 1 2.000 108.420 12.510 29.190
9273 0 1 2.000 110.505 14.595 29.190
9274 0 1 2.000 110.505 12.510 31.275
9275 0 1 2.000 108.420 14.595 31.275
9276 0 1 2.000 108.420 12.510 33.360
9277 0 1 2.000 108.420 16.680 0.000
9278 0 1 2.000 110.505 18.765 0.000
9279 0 1 2.000 110.505 16.680 2.085
9280 0 1 2.000 108.420 18.765 2.085
9281 0 1 2.000 108.420 16.680 4.170
9282 0 1 2.000 110.505 18.765 4.170
9283 0 1 2.000 110.505 16.680 6.255
9284 0 1 2.000 108.420 18.765 6.255
9285 0 1 2.000 108.420 16.680 8.340
9286 0 1 2.000 110.505 18.765 8.340
9287 0 1 2.000 110.505 16.680 10.425
9288 0 1 2.000 108.420 18.765 10.425
9289 0 1 2.000 108.420 16.680 12.510
9290 0 1 2.000 110.505 18.765 12.510
9291 0 1 2.000 110.505 16.680 14.595
9292 0 1 2.000 108.420 18.765 14.595
9293 0 1 2.000 108.420 16.680 16.680
9294 0 1 2.000 110.505 18.765 16.680
9295 0 1 2.000 110.505 16.680 18.765
9296 0 1 2.000 108.420 18.765 18.765
9297 0 1 2.000 108.420 16.680 20.850
9298 0 1 2.000 110.505 18.765 20.850
9299 0 1 2.000 110.505 16.680 22.935
9300 0 1 2.000 108.420 18.765 22.935
9301 0 1 2.000 108.420 16.680 25.020
9302 0 1 2.000 110.505 18.765 25.020
9303 0 1 2.000 110.505 16.680 27.105
9304 0 1 2.000 108.420 18.765 27.105
9305 0 1 2.000 108.420 16.680 29.190
9306 0 1 2.000 108.420 20.850 0.000
9307 0 1 2.000 110.505 22.935 0.000
9308 0 1 2.000 110.505 20.850 2.085
9309 0 1 2.000 108.420 22.935 2.085
9310 0 1 2.000 108.420 20.850 4.170
9311 0 1 2.000 110.505 22.935 4.170
9312 0 1 2.000 110.505 20.850 6.255
9313 0 1 2.000 108.420 22.935 6.255
9314 0 1 2.000 108.420 20.850 8.340
9315 0 1 2.000 110.505 22.935 8.340
9316 0 1 2.000 110.505 20.850 10.425
9317 0 1 2.000 108.420 22.935 10.425
9318 0 1 2.000 108.420 20.850 12.510
9319 0 1 2.000 110.505 22.935 12.510
9320 0 1 2.000 110.505 20.850 14.595
9321 0 1 2.000 108.420 22.935 14.595
9322 0 1 2.000 108.420 20.850 16.680
9323 0 1 2.000 110.505 22.935 16.680
9324 0 1 2.000 110.505 20.850 18.765
9325 0 1 2.000 108.420 22.935 18.765
9326 0 1 2.000 108.420 20.850 20.850
9327 0 1 2.000 110.505 22.935 20.850
9328 0 1 2.000 110.505 20.850 22.935
9329 0 1 2.000 108.420 22.935 22.935
9330 0 1 2.000 108.420 20.850 25.020
9331 0 1 2.000 110.505 22.935 25.020
9332 0 1 2.000 108.420 22.935 27.105
9333 0 1 2.000 108.420 25.020 0.000
9334 0 1 2.000 110.505 27.105 0.000
9335 0 1 2.000 110.505 25.020 2.085
9336 0 1 2.000 108.420 27.105 2.085
9337 0 1 2.000 108.420 25.020 4.170
9338 0 1 2.000 110.505 27.105 4.170
9339 0 1 2.000 110.505 25.020 6.255
9340 0 1 2.000 108.420 27.105 6.255
9341 0 1 2.000 108.420 25.020 8.340
9342 0 1 2.000 110.505 27.105 8.340
9343 0 1 2.000 110.505 25.020 10.425
9344 0 1 2.000 108.420 27.105 10.425
9345 0 1 2.000 108.420 25.020 12.510
9346 0 1 2.000 110.505 27.105 12.510
9347 0 1 2.000 110.505 25.020 14.595
9348 0 1 2.000 108.420 27.105 14.595
9349 0 1 2.000 108.420 25.020 16.680
9350 0 1 2.000 110.505 27.105 16.680
9351 0 1 2.000 110.505 25.020 18.765
9352 0 1 2.000 108.420 27.105 18.765
9353 0 1 2.000 108.420 25.020 20.850
9354 0 1 2.000 110.505 27.105 20.850
9355 0 1 2.000 110.505 25.020 22.935
9356 0 1 2.000 108.420 27.105 22.935
9357 0 1 2.000 108.420 25.020 25.020
9358 0 1 2.000 110.505 27.105 25.020
9359 0 1 2.000 110.505 25.020 27.105
9360 0 1 2.000 108.420 27.105 27.105
9361 0 1 2.000 108.420 25.020 29.190
9362 0 1 2.000 110.505 27.105 29.190
9363 0 1 2.000 108.420 27.105 31.275
9364 0 1 2.000 108.420 29.190 0.000
9365 0 1 2.000 110.505 31.275 0.000
9366 0 1 2.000 110.505 29.190 2.085
9367 0 1 2.000 108.420 31.275 2.085
9368 0 1 2.000 108.420 29.190 4.170
9369 0 1 2.000 110.505 31.275 4.170
9370 0 1 2.000 110.505 29.190 6.255
9371 0 1 2.000 108.420 31.275 6.255
9372 0 1 2.000 108.420 29.190 8.340
9373 0 1 2.000 110.505 31.275 8.340
9374 0 1 2.000 110.505 29.190 10.425
9375 0 1 2.000 108.420 31.275 10.425
9376 0 1 2.000 108.420 29.190 12.510
9377 0 1 2.000 110.505 31.275 12.510
9378 0 1 2.000 110.505 29.190 14.595
9379 0 1 2.000 108.420 31.275 14.595
9380 0 1 2.000 108.420 29.190 16.680
9381 0 1 2.000 110.505 31.275 16.680
9382 0 1 2.000 110.505 29.190 18.765
9383 0 1 2.000 108.420 31.275 18.765
9384 0 1 2.000 108.420 29.190 20.850
9385 0 1 2.000 110.505 31.275 20.850
9386 0 1 2.000 110.505 29.190 22.935
9387 0 1 2.000 108.420 31.275 22.935
9388 0 1 2.000 108.420 29.190 25.020
9389 0 1 2.000 110.505 31.275 25.020
9390 0 1 2.000 110.505 29.190 27.105
9391 0 1 2.000 108.420 31.275 27.105
9392 0 1 2.000 108.420 29.190 29.190
9393 0 1 2.000 110.505 31.275 29.190
9394 0 1 2.000 110.505 29.190 31.275
9395 0 1 2.000 108.420 31.275 31.275
9396 0 1 2.000 108.420 29.190 33.360
9397 0 1 2.000 110.505 31.275 33.360
9398 0 1 2.000 108.420 31.275 35.445
9399 0 1 2.000 108.420 33.360 0.000
9400 0 1 2.000 110.505 35.445 0.000
9401 0 1 2.000 110.505 33.360 2.085
9402 0 1 2.000 108.420 35.445 2.085
9403 0 1 2.000 108.420 33.360 4.170
9404 0 1 2.000 110.505 35.445 4.170
9405 0 1 2.000 110.505 33.360 6.255
9406 0 1 2.000 108.420 35.445 6.255
9407 0 1 2.000 108.420 33.360 8.340
9408 0 1 2.000 110.505 35.445 8.340
9409 0 1 2.000 110.505 33.360 10.425
9410 0 1 2.000 108.420 35.445 10.425
9411 0 1 2.000 108.420 33.360 12.510
9412 0 1 2.000 110.505 35.445 12.510
9413 0 1 2.000 110.505 33.360 14.595
9414 0 1 2.000 108.420 35.445 14.595
9415 0 1 2.000 108.420 33.360 16.680
9416 0 1 2.000 110.505 35.445 16.680
9417 0 1 2.000 110.505 33.360 18.765
9418 0 1 2.000 108.420 35.445 18.765
9419 0 1 2.000 108.420 33.360 20.850
9420 0 1 2.000 110.505 35.445 20.850
9421 0 1 2.000 110.505 33.360 22.935
9422 0 1 2.000 108.420 35.445 22.935
9423 0 1 2.000 108.420 33.360 25.020
9424 0 1 2.000 110.505 35.445 25.020
9425 0 1 2.000 110.505 33.360 27.105
9426 0 1 2.000 108.420 35.445 27.105
9427 0 1 2.000 108.420 33.360 29.190
9428 0 1 2.000 110.505 35.445 29.190
9429 0 1 2.000 110.505 33.360 31.275
9430 0 1 2.000 108.420 35.445 31.275
9431 0 1 2.000 108.420 33.360 33.360
9432 0 1 2.000 110.505 35.445 33.360
9433 0 1 2.000 110.505 33.360 35.445
9434 0 1 2.000 108.420 35.445 35.445
9435 0 1 2.000 108.420 33.360 37.530
9436 0 1 2.000 110.505 35.445 37.530
9437 0 1 2.000 108.420 35.445 39.615
9438 0 1 2.000 108.420 37.530 0.000
9439 0 1 2.000 110.505 39.615 0.000
9440 0 1 2.000 110.505 37.530 2.085
9441 0 1 2.000 108.420 39.615 2.085
9442 0 1 2.000 108.420 37.530 4.170
9443 0 1 2.000 110.505 39.615 4.170
9444 0 1 2.000 110.505 37.530 6.255
9445 0 1 2.000 108.420 39.615 6.255
9446 0 1 2.000 108.420 37.530 8.340
9447 0 1 2.000 110.505 39.615 8.340
9448 0 1 2.000 110.505 37.530 10.425
9449 0 1 2.000 108.420 39.615 10.425
9450 0 1 2.000 108.420 37.530 12.510
9451 0 1 2.000 110.505 39.615 12.510
9452 0 1 2.000 110.505 37.530 14.595
9453 0 1 2.000 108.420 39.615 14.595
9454 0 1 2.000 108.420 37.530 16.680
9455 0 1 2.000 110.505 39.615 16.680
9456 0 1 2.000 110.505 37.530 18.765
9457 0 1 2.000 108.420 39.615 18.765
9458 0 1 2.000 108.420 37.530 20.850
9459 0 1 2.000 110.505 39.615 20.850
9460 0 1 2.000 110.505 37.530 22.935
9461 0 1 2.000 108.420 39.615 22.935
9462 0 1 2.000 108.420 37.530 25.020
9463 0 1 2.000 110.505 39.615 25.020
9464 0 1 2.000 110.505 37.530 27.105
9465 0 1 2.000 108.420 39.615 27.105
9466 0 1 2.000 108.420 37.530 29.190
9467 0 1 2.000 110.505 39.615 29.190
9468 0 1 2.000 110.505 37.530 31.275
9469 0 1 2.000 108.420 39.615 31.275
9470 0 1 2.000 108.420 37.530 33.360
9471 0 1 2.000 110.505 39.615 33.360
9472 0 1 2.000 110.505 37.530 35.445
9473 0 1 2.000 108.420 39.615 35.445
9474 0 1 2.000 108.420 37.530 37.530
9475 0 1 2.000 110.505 39.615 37.530
9476 0 1 2.000 110.505 37.530 39.615
9477 0 1 2.000 108.420 39.615 39.615
9478 0 1 2.000 112.590 0.000 0.000
9479 0 1 2.000 114.675 2.085 0.000
9480 0 1 2.000 114.675 0.000 2.085
9481 0 1 2.000 112.590 2.085 2.085
9482 0 1 2.000 112.590 0.000 4.170
9483 0 1 2.000 114.675 2.085 4.170
9484 0 1 2.000 114.675 0.000 6.255
9485 0 1 2.000 112.590 2.085 6.255
9486 0 1 2.000 112.590 0.000 8.340
9487 0 1 2.000 114.675 2.085 8.340
9488 0 1 2.000 114.675 0.000 10.425
9489 0 1 2.000 112.590 2.085 10.425
9490 0 1 2.000 112.590 0.000 12.510
9491 0 1 2.000 114.675 2.085 12.510
9492 0 1 2.000 114.675 0.000 14.595
9493 0 1 2.000 112.590 2.085 14.595
9494 0 1 2.000 112.590 0.000 16.680
9495 0 1 2.000 114.675 2.085 16.680
9496 0 1 2.000 114.675 0.000 18.765
9497 0 1 2.000 112.590 2.085 18.765
9498 0 1 2.000 112.590 0.000 20.850
9499 0 1 2.000 114.675 2.085 20.850
9500 0 1 2.000 114.675 0.000 22.935
9501 0 1 2.000 112.590 2.085 22.935
9502 0 1 2.000 112.590 0.000 25.020
9503 0 1 2.000 114.675 2.085 25.020
9504 0 1 2.000 114.675 0.000 27.105
9505 0 1 2.000 112.590 2.085 27.105
9506 0 1 2.000 112.590 0.000 29.190
9507 0 1 2.000 114.675 2.085 29.190
9508 0 1 2.000 114.675 0.000 31.275
9509 0 1 2.000 112.590 2.085 31.275
9510 0 1 2.000 112.590 0.000 33.360
9511 0 1 2.000 114.675 2.085 33.360
9512 0 1 2.000 114.675 0.000 35.445
9513 0 1 2.000 112.590 2.085 35.445
9514 0 1 2.000 112.590 0.000 37.530
9515 0 1 2.000 114.675 2.085 37.530
9516 0 1 2.000 114.675 0.000 39.615
9517 0 1 2.000 112.590 2.085 39.615
9518 0 1 2.000 112.590 4.170 0.000
9519 0 1 2.000 114.675 6.255 0.000
9520 0 1 2.000 114.675 4.170 2.085
9521 0 1 2.000 112.590 6.255 2.085
9522 0 1 2.000 112.590 4.170 4.170
9523 0 1 2.000 114.675 6.255 4.170
9524 0 1 2.000 114.675 4.170 6.255
9525 0 1 2.000 112.590 6.255 6.255
9526 0 1 2.000 112.590 4.170 8.340
9527 0 1 2.000 114.675 6.255 8.340
9528 0 1 2.000 114.675 4.170 10.425
9529 0 1 2.000 112.590 6.255 10.425
9530 0 1 2.000 112.590 4.170 12.510
9531 0 1 2.000 114.675 6.255 12.510
9532 0 1 2.000 114.675 4.170 14.595
9533 0 1 2.000 112.590 6.255 14.595
9534 0 1 2.000 112.590 4.170 16.680
9535 0 1 2.000 114.675 6.255 16.680
9536 0 1 2.000 114.675 4.170 18.765
9537 0 1 2.000 112.590 6.255 18.765
9538 0 1 2.000 112.590 4.170 20.850
9539 0 1 2.000 114.675 6.255 20.850
9540 0 1 2.000 114.675 4.170 22.935
9541 0 1 2.000 112.590 6.255 22.935
9542 0 1 2.000 112.590 4.170 25.020
9543 0 1 2.000 114.675 6.255 25.020
9544 0 1 2.000 114.675 4.170 27.105
9545 0 1 2.000 112.590 6.255 27.105
9546 0 1 2.000 112.590 4.170 29.190
9547 0 1 2.000 114.675 6.255 29.190
9548 0 1 2.000 114.675 4.170 31.275
9549 0 1 2.000 112.590 6.255 31.275
9550 0 1 2.000 112.590 4.170 33.360
9551 0 1 2.000 114.675 6.255 33.360
9552 0 1 2.000 114.675 4.170 35.445
9553 0 1 2.000 112.590 6.255 35.445
9554 0 1 2.000 112.590 4.170 37.530
9555 0 1 2.000 114.675 6.255 37.530
9556 0 1 2.000 114.675 4.170 39.615
9557 0 1 2.000 112.590 6.255 39.615
9558 0 1 2.000 112.590 8.340 0.000
9559 0 1 2.000 114.675 10.425 0.000
9560 0 1 2.000 114.675 8.340 2.085
9561 0 1 2.000 112.590 10.425 2.085
9562 0 1 2.000 112.590 8.340 4.170
9563 0 1 2.000 114.675 10.425 4.170
9564 0 1 2.000 114.675 8.340 6.255
9565 0 1 2.000 112.590 10.425 6.255
9566 0 1 2.000 112.590 8.340 8.340
9567 0 1 2.000 114.675 10.425 8.340
9568 0 1 2.000 114.675 8.340 10.425
9569 0 1 2.000 112.590 10.425 10.425
9570 0 1 2.000 112.590 8.340 12.510
9571 0 1 2.000 114.675 10.425 12.510
9572 0 1 2.000 114.675 8.340 14.595
9573 0 1 2.000 112.590 10.425 14.595
9574 0 1 2.000 112.590 8.340 16.680
9575 0 1 2.000 114.675 10.425 16.680
9576 0 1 2.000 114.675 8.340 18.765
9577 0 1 2.000 112.590 10.425 18.765
9578 0 1 2.000 112.590 8.340 20.850
9579 0 1 2.000 114.675 10.425 20.850
9580 0 1 2.000 114.675 8.340 22.935
9581 0 1 2.000 112.590 10.425 22.935
9582 0 1 2.000 112.590 8.340 25.020
9583 0 1 2.000 114.675 10.425 25.020
9584 0 1 2.000 114.675 8.340 27.105
9585 0 1 2.000 112.590 10.425 27.105
9586 0 1 2.000 112.590 8.340 29.190
9587 0 1 2.000 114.675 10.425 29.190
9588 0 1 2.000 114.675 8.340 31.275
9589 0 1 2.000 112.590 10.425 31.275
9590 0 1 2.000 112.590 8.340 33.360
9591 0 1 2.000 114.675 10.425 33.360
9592 0 1 2.000 114.675 8.340 35.445
9593 0 1 2.000 112.590 10.425 35.445
9594 0 1 2.000 112.590 8.340 37.530
9595 0 1 2.000 112.590 12.510 0.000
9596 0 1 2.000 114.675 14.595 0.000
9597 0 1 2.000 114.675 12.510 2.085
9598 0 1 2.000 112.590 14.595 2.085
9599 0 1 2.000 112.590 12.510 4.170
9600 0 1 2.000 114.675 14.595 4.170
9601 0 1 2.000 114.675 12.510 6.255
9602 0 1 2.000 112.590 14.595 6.255
9603 0 1 2.000 112.590 12.510 8.340
9604 0 1 2.000 114.675 14.595 8.340
9605 0 1 2.000 114.675 12.510 10.425
9606 0 1 2.000 112.590 14.595 10.425
9607 0 1 2.000 112.590 12.510 12.510
9608 0 1 2.000 114.675 14.595 12.510
9609 0 1 2.000 114.675 12.510 14.595
9610 0 1 2.000 112.590 14.595 14.595
9611 0 1 2.000 112.590 12.510 16.680
9612 0 1 2.000 114.675 14.595 16.680
9613 0 1 2.000 114.675 12.510 18.765
9614 0 1 2.000 112.590 14.595 18.765
9615 0 1 2.000 112.590 12.510 20.850
9616 0 1 2.000 114.675 14.595 20.850
9617 0 1 2.000 114.675 12.510 22.935
9618 0 1 2.000 112.590 14.595 22.935
9619 0 1 2.000 112.590 12.510 25.020
9620 0 1 2.000 114.675 14.595 25.020
9621 0 1 2.000 114.675 12.510 27.105
9622 0 1 2.000 112.590 14.595 27.105
9623 0 1 2.000 112.590 12.510 29.190
9624 0 1 2.000 114.675 14.595 29.190
9625 0 1 2.000 114.675 12.510 31.275
9626 0 1 2.000 112.590 14.595 31.275
9627 0 1 2.000 112.590 12.510 33.360
9628 0 1 2.000 112.590 16.680 0.000
9629 0 1 2.000 114.675 18.765 0.000
9630 0 1 2.000 114.675 16.680 2.085
9631 0 1 2.000 112.590 18.765 2.085
9632 0 1 2.000 112.590 16.680 4.170
9633 0 1 2.000 114.675 18.765 4.170
9634 0 1 2.000 114.675 16.680 6.255
9635 0 1 2.000 112.590 18.765 6.255
9636 0 1 2.000 112.590 16.680 8.340
9637 0 1 2.000 114.675 18.765 8.340
9638 0 1 2.000 114.675 16.680 10.425
9639 0 1 2.000 112.590 18.765 10.425
9640 0 1 2.000 112.590 16.680 12.510
9641 0 1 2.000 114.675 18.765 12.510
9642 0 1 2.000 114.675 16.680 14.595
9643 0 1 2.000 112.590 18.765 14.595
9644 0 1 2.000 112.590 16.680 16.680
9645 0 1 2.000 114.675 18.765 16.680
9646 0 1 2.000 114.675 16.680 18.765
9647 0 1 2.000 112.590 18.765 18.765
9648 0 1 2.000 112.590 16.680 20.850
9649 0 1 2.000 114.675 18.765 20.850
9650 0 1 2.000 114.675 16.680 22.935
9651 0 1 2.000 112.590 18.765 22.935
9652 0 1 2.000 112.590 16.680 25.020
9653 0 1 2.000 114.675 18.765 25.020
9654 0 1 2.000 114.675 16.680 27.105
9655 0 1 2.000 112.590 18.765 27.105
9656 0 1 2.000 112.590 16.680 29.190
9657 0 1 2.000 112.590 20.850 0.000
9658 0 1 2.000 114.675 22.935 0.000
9659 0 1 2.000 114.675 20.850 2.085
9660 0 1 2.000 112.590 22.935 2.085
9661 0 1 2.000 112.590 20.850 4.170
9662 0 1 2.000 114.675 22.935 4.170
9663 0 1 2.000 114.675 20.850 6.255
9664 0 1 2.000 112.590 22.935 6.255
9665 0 1 2.000 112.590 20.850 8.340
9666 0 1 2.000 114.675 22.935 8.340
9667 0 1 2.000 114.675 20.850 10.425
9668 0 1 2.000 112.590 22.935 10.425
9669 0 1 2.000 112.590 20.850 12.510
9670 0 1 2.000 114.675 22.935 12.510
9671 0 1 2.000 114.675 20.850 14.595
9672 0 1 2.000 112.590 22.935 14.595
9673 0 1 2.000 112.590 20.850 16.680
9674 0 1 2.000 114.675 22.935 16.680
9675 0 1 2.000 114.675 20.850 18.765
9676 0 1 2.000 112.590 22.935 18.765
9677 0 1 2.000 112.590 20.850 20.850
9678 0 1 2.000 114.675 22.935 20.850
9679 0 1 2.000 114.675 20.850 22.935
9680 0 1 2.000 112.590 22.935 22.935
9681 0 1 2.000 112.590 20.850 25.020
9682 0 1 2.000 114.675 22.935 25.020
9683 0 1 2.000 112.590 22.935 27.105
9684 0 1 2.000 112.590 25.020 0.000
9685 0 1 2.000 114.675 27.105 0.000
9686 0 1 2.000 114.675 25.020 2.085
9687 0 1 2.000 112.590 27.105 2.085
9688 0 1 2.000 112.590 25.020 4.170
9689 0 1 2.000 114.675 27.105 4.170
9690 0 1 2.000 114.675 25.020 6.255
9691 0 1 2.000 112.590 27.105 6.255
9692 0 1 2.000 112.590 25.020 8.340
9693 0 1 2.000 114.675 27.105 8.340
9694 0 1 2.000 114.675 25.020 10.425
9695 0 1 2.000 112.590 27.105 10.425
9696 0 1 2.000 112.590 25.020 12.510
9697 0 1 2.000 114.675 27.105 12.510
9698 0 1 2.000 114.675 25.020 14.595
9699 0 1 2.000 112.590 27.105 14.595
9700 0 1 2.000 112.590 25.020 16.680
9701 0 1 2.000 114.675 27.105 16.680
9702 0 1 2.000 114.675 25.020 18.765
9703 0 1 2.000 112.590 27.105 18.765
9704 0 1 2.000 112.590 25.020 20.850
9705 0 1 2.000 114.675 27.105 20.850
9706 0 1 2.000 114.675 25.020 22.935
9707 0 1 2.000 112.590 27.105 22.935
9708 0 1 2.000 112.590 25.020 25.020
9709 0 1 2.000 114.675 27.105 25.020
9710 0 1 2.000 114.675 25.020 27.105
9711 0 1 2.000 112.590 27.105 27.105
9712 0 1 2.000 112.590 25.020 29.190
9713 0 1 2.000 114.675 27.105 29.190
9714 0 1 2.000 112.590 27.105 31.275
9715 0 1 2.000 112.590 29.190 0.000
9716 0 1 2.000 114.675 31.275 0.000
9717 0 1 2.000 114.675 29.190 2.085
9718 0 1 2.000 112.590 31.275 2.085
9719 0 1 2.000 112.590 29.190 4.170
9720 0 1 2.000 114.675 31.275 4.170
9721 0 1 2.000 114.675 29.190 6.255
9722 0 1 2.000 112.590 31.275 6.255
9723 0 1 2.000 112.590 29.190 8.340
9724 0 1 2.000 114.675 31.275 8.340
9725 0 1 2.000 114.675 29.190 10.425
9726 0 1 2.000 112.590 31.275 10.425
9727 0 1 2.000 112.590 29.190 12.510
9728 0 1 2.000 114.675 31.275 12.510
9729 0 1 2.000 114.675 29.190 14.595
9730 0 1 2.000 112.590 31.275 14.595
9731 0 1 2.000 112.590 29.190 16.680
9732 0 1 2.000 114.675 31.275 16.680
9733 0 1 2.000 114.675 29.190 18.765
9734 0 1 2.000 112.590 31.275 18.765
9735 0 1 2.000 112.590 29.190 20.850
9736 0 1 2.000 114.675 31.275 20.850
9737 0 1 2.000 114.675 29.190 22.935
9738 0 1 2.000 112.590 31.275 22.935
9739 0 1 2.000 112.590 29.190 25.020
9740 0 1 2.000 114.675 31.275 25.020
9741 0 1 2.000 114.675 29.190 27.105
9742 0 1 2.000 112.590 31.275 27.105
9743 0 1 2.000 112.590 29.190 29.190
9744 0 1 2.000 114.675 31.275 29.190
9745 0 1 2.000 114.675 29.190 31.275
9746 0 1 2.000 112.590 31.275 31.275
9747 0 1 2.000 112.590 29.190 33.360
9748 0 1 2.000 114.675 31.275 33.360
9749 0 1 2.000 112.590 31.275 35.445
9750 0 1 2.000 112.590 33.360 0.000
9751 0 1 2.000 114.675 35.445 0.000
9752 0 1 2.000 114.675 33.360 2.085
9753 0 1 2.000 112.590 35.445 2.085
9754 0 1 2.000 112.590 33.360 4.170
9755 0 1 2.000 114.675 35.445 4.170
9756 0 1 2.000 114.675 33.360 6.255
9757 0 1 2.000 112.590 35.445 6.255
9758 0 1 2.000 112.590 33.360 8.340
9759 0 1 2.000 114.675 35.445 8.340
9760 0 1 2.000 114.675 33.360 10.425
9761 0 1 2.000 112.590 35.445 10.425
9762 0 1 2.000 112.590 33.360 12.510
9763 0 1 2.000 114.675 35.445 12.510
9764 0 1 2.000 114.675 33.360 14.595
9765 0 1 2.000 112.590 35.445 14.595
9766 0 1 2.000 112.590 33.360 16.680
9767 0 1 2.000 114.675 35.445 16.680
9768 0 1 2.000 114.675 33.360 18.765
9769 0 1 2.000 112.590 35.445 18.765
9770 0 1 2.000 112.590 33.360 20.850
9771 0 1 2.000 114.675 35.445 20.850
9772 0 1 2.000 114.675 33.360 22.935
9773 0 1 2.000 112.590 35.445 22.935
9774 0 1 2.000 112.590 33.360 25.020
9775 0 1 2.000 114.675 35.445 25.020
9776 0 1 2.000 114.675 33.360 27.105
9777 0 1 2.000 112.590 35.445 27.105
9778 0 1 2.000 112.590 33.360 29.190
9779 0 1 2.000 114.675 35.445 29.190
9780 0 1 2.000 114.675 33.360 31.275
9781 0 1 2.000 112.590 35.445 31.275
9782 0 1 2.000 112.590 33.360 33.360
9783 0 1 2.000 114.675 35.445 33.360
9784 0 1 2.000 114.675 33.360 35.445
9785 0 1 2.000 112.590 35.445 35.445
9786 0 1 2.000 112.590 33.360 37.530
9787 0 1 2.000 114.675 35.445 37.530
9788 0 1 2.000 112.590 35.445 39.615
9789 0 1 2.000 112.590 37.530 0.000
9790 0 1 2.000 114.675 39.615 0.000
9791 0 1 2.000 114.675 37.530 2.085
9792 0 1 2.000 112.590 39.615 2.085
9793 0 1 2.000 112.590 37.530 4.170
9794 0 1 2.000 114.675 39.615 4.170
9795 0 1 2.000 114.675 37.530 6.255
9796 0 1 2.000 112.590 39.615 6.255
9797 0 1 2.000 112.590 37.530 8.340
9798 0 1 2.000 114.675 39.615 8.340
9799 0 1 2.000 114.675 37.530 10.425
9800 0 1 2.000 112.590 39.615 10.425
9801 0 1 2.000 112.590 37.530 12.510
9802 0 1 2.000 114.675 39.615 12.510
9803 0 1 2.000 114.675 37.530 14.595
9804 0 1 2.000 112.590 39.615 14.595
9805 0 1 2.000 112.590 37.530 16.680
9806 0 1 2.000 114.675 39.615 16.680
9807 0 1 2.000 114.675 37.530 18.765
9808 0 1 2.000 112.590 39.615 18.765
9809 0 1 2.000 112.590 37.530 20.850
9810 0 1 2.000 114.675 39.615 20.850
9811 0 1 2.000 114.675 37.530 22.935
9812 0 1 2.000 112.590 39.615 22.935
9813 0 1 2.000 112.590 37.530 25.020
9814 0 1 2.000 114.675 39.615 25.020
9815 0 1 2.000 114.675 37.530 27.105
9816 0 1 2.000 112.590 39.615 27.105
9817 0 1 2.000 112.590 37.530 29.190
9818 0 1 2.000 114.675 39.615 29.190
9819 0 1 2.000 114.675 37.530 31.275
9820 0 1 2.000 112.590 39.615 31.275
9821 0 1 2.000 112.590 37.530 33.360
9822 0 1 2.000 114.675 39.615 33.360
9823 0 1 2.000 114.675 37.530 35.445
9824 0 1 2.000 112.590 39.615 35.445
9825 0 1 2.000 112.590 37.530 37.530
9826 0 1 2.000 114.675 39.615 37.530
9827 0 1 2.000 114.675 37.530 39.615
9828 0 1 2.000 112.590 39.615 39.615
9829 0 1 2.000 116.760 0.000 0.000
9830 0 1 2.000 118.845 2.085 0.000
9831 0 1 2.000 118.845 0.000 2.085
9832 0 1 2.000 116.760 2.085 2.085
9833 0 1 2.000 116.760 0.000 4.170
9834 0 1 2.000 118.845 2.085 4.170
9835 0 1 2.000 118.845 0.000 6.255
9836 0 1 2.000 116.760 2.085 6.255
9837 0 1 2.000 116.760 0.000 8.340
9838 0 1 2.000 118.845 2.085 8.340
9839 0 1 2.000 118.845 0.000 10.425
9840 0 1 2.000 116.760 2.085 10.425
9841 0 1 2.000 116.760 0.000 12.510
9842 0 1 2.000 118.845 2.085 12.510
9843 0 1 2.000 118.845 0.000 14.595
9844 0 1 2.000 116.760 2.085 14.595
9845 0 1 2.000 116.760 0.000 16.680
9846 0 1 2.000 118.845 2.085 16.680
9847 0 1 2.000 118.845 0.000 18.765
9848 0 1 2.000 116.760 2.085 18.765
9849 0 1 2.000 116.760 0.000 20.850
9850 0 1 2.000 118.845 2.085 20.850
9851 0 1 2.000 118.845 0.000 22.935
9852 0 1 2.000 116.760 2.085 22.935
9853 0 1 2.000 116.760 0.000 25.020
9854 0 1 2.000 118.845 2.085 25.020
9855 0 1 2.000 118.845 0.000 27.105
9856 0 1 2.000 116.760 2.085 27.105
9857 0 1 2.000 116.760 0.000 29.190
9858 0 1 2.000 118.845 2.085 29.190
9859 0 1 2.000 118.845 0.000 31.275
9860 0 1 2.000 116.760 2.085 31.275
9861 0 1 2.000 116.760 0.000 33.360
9862 0 1 2.000 118.845 2.085 33.360
9863 0 1 2.000 118.845 0.000 35.445
9864 0 1 2.000 116.760 2.085 35.445
9865 0 1 2.000 116.760 0.000 37.530
9866 0 1 2.000 118.845 2.085 37.530
9867 0 1 2.000 118.845 0.000 39.615
9868 0 1 2.000 116.760 2.085 39.615
9869 0 1 2.000 116.760 4.170 0.000
9870 0 1 2.000 118.845 6.255 0.000
9871 0 1 2.000 118.845 4.170 2.085
9872 0 1 2.000 116.760 6.255 2.085
9873 0 1 2.000 116.760 4.170 4.170
9874 0 1 2.000 118.845 6.255 4.170
9875 0 1 2.000 118.845 4.170 6.255
9876 0 1 2.000 116.760 6.255 6.255
9877 0 1 2.000 116.760 4.170 8.340
9878 0 1 2.000 118.845 6.255 8.340
9879 0 1 2.000 118.845 4.170 10.425
9880 0 1 2.000 116.760 6.255 10.425
9881 0 1 2.000 116.760 4.170 12.510
9882 0 1 2.000 118.845 6.255 12.510
9883 0 1 2.000 118.845 4.170 14.595
9884 0 1 2.000 116.760 6.255 14.595
9885 0 1 2.000 116.760 4.170 16.680
9886 0 1 2.000 118.845 6.255 16.680
9887 0 1 2.000 118.845 4.170 18.765
9888 0 1 2.000 116.760 6.255 18.765
9889 0 1 2.000 116.760 4.170 20.850
9890 0 1 2.000 118.845 6.255 20.850
9891 0 1 2.000 118.845 4.170 22.935
9892 0 1 2.000 116.760 6.255 22.935
9893 0 1 2.000 116.760 4.170 25.020
9894 0 1 2.000 118.845 6.255 25.020
9895 0 1 2.000 118.845 4.170 27.105
9896 0 1 2.000 116.760 6.255 27.105
9897 0 1 2.000 116.760 4.170 29.190
9898 0 1 2.000 118.845 6.255 29.190
9899 0 1 2.000 118.845 4.170 31.275
9900 0 1 2.000 116.760 6.255 31.275
9901 0 1 2.000 116.760 4.170 33.360
9902 0 1 2.000 118.845 6.255 33.360
9903 0 1 2.000 118.845 4.170 35.445
9904 0 1 2.000 116.760 6.255 35.445
9905 0 1 2.000 116.760 4.170 37.530
9906 0 1 2.000 118.845 6.255 37.530
9907 0 1 2.000 118.845 4.170 39.615
9908 0 1 2.000 116.760 6.255 39.615
9909 0 1 2.000 116.760 8.340 0.000
9910 0 1 2.000 118.845 10.425 0.000
9911 0 1 2.000 118.845 8.340 2.085
9912 0 1 2.000 116.760 10.425 2.085
9913 0 1 2.000 116.760 8.340 4.170
9914 0 1 2.000 118.845 10.425 4.170
9915 0 1 2.000 118.845 8.340 6.255
9916 0 1 2.000 116.760 10.425 6.255
9917 0 1 2.000 116.760 8.340 8.340
9918 0 1 2.000 118.845 10.425 8.340
9919 0 1 2.000 118.845 8.340 10.425
9920 0 1 2.000 116.760 10.425 10.425
9921 0 1 2.000 116.760 8.340 12.510
9922 0 1 2.000 118.845 10.425 12.510
9923 0 1 2.000 118.845 8.340 14.595
9924 0 1 2.000 116.760 10.425 14.595
9925 0 1 2.000 116.760 8.340 16.680
9926 0 1 2.000 118.845 10.425 16.680
9927 0 1 2.000 118.845 8.340 18.765
9928 0 1 2.000 116.760 10.425 18.765
9929 0 1 2.000 116.760 8.340 20.850
9930 0 1 2.000 118.845 10.425 20.850
9931 0 1 2.000 118.845 8.340 22.935
9932 0 1 2.000 116.760 10.425 22.935
9933 0 1 2.000 116.760 8.340 25.020
9934 0 1 2.000 118.845 10.425 25.020
9935 0 1 2.000 118.845 8.340 27.105
9936 0 1 2.000 116.760 10.425 27.105
9937 0 1 2.000 116.760 8.340 29.190
9938 0 1 2.000 118.845 10.425 29.190
9939 0 1 2.000 118.845 8.340 31.275
9940 0 1 2.000 116.760 10.425 31.275
9941 0 1 2.000 116.760 8.340 33.360
9942 0 1 2.000 118.845 10.425 33.360
9943 0 1 2.000 118.845 8.340 35.445
9944 0 1 2.000 116.760 10.425 35.445
9945 0 1 2.000 116.760 8.340 37.530
9946 0 1 2.000 116.760 12.510 0.000
9947 0 1 2.000 118.845 14.595 0.000
9948 0 1 2.000 118.845 12.510 2.085
9949 0 1 2.000 116.760 14.595 2.085
9950 0 1 2.000 116.760 12.510 4.170
9951 0 1 2.000 118.845 14.595 4.170
9952 0 1 2.000 118.845 12.510 6.255
9953 0 1 2.000 116.760 14.595 6.255
9954 0 1 2.000 116.760 12.510 8.340
9955 0 1 2.000 118.845 14.595 8.340
9956 0 1 2.000 118.845 12.510 10.425
9957 0 1 2.000 116.760 14.595 10.425
9958 0 1 2.000 116.760 12.510 12.510
9959 0 1 2.000 118.845 14.595 12.510
9960 0 1 2.000 118.845 12.510 14.595
9961 0 1 2.000 116.760 14.595 14.595
9962 0 1 2.000 116.760 12.510 16.680
9963 0 1 2.000 118.845 14.595 16.680
9964 0 1 2.000 118.845 12.510 18.765
9965 0 1 2.000 116.760 14.595 18.765
9966 0 1 2.000 116.760 12.510 20.850
9967 0 1 2.000 118.845 14.595 20.850
9968 0 1 2.000 118.845 12.510 22.935
9969 0 1 2.000 116.760 14.595 22.935
9970 0 1 2.000 116.760 12.510 25.020
9971 0 1 2.000 118.845 14.595 25.020
9972 0 1 2.000 118.845 12.510 27.105
9973 0 1 2.000 116.760 14.595 27.105
9974 0 1 2.000 116.760 12.510 29.190
9975 0 1 2.000 118.845 14.595 29.190
9976 0 1 2.000 118.845 12.510 31.275
9977 0 1 2.000 116.760 14.595 31.275
9978 0 1 2.000 116.760 12.510 33.360
9979 0 1 2.000 116.760 16.680 0.000
9980 0 1 2.000 118.845 18.765 0.000
9981 0 1 2.000 118.845 16.680 2.085
9982 0 1 2.000 116.760 18.765 2.085
9983 0 1 2.000 116.760 16.680 4.170
9984 0 1 2.000 118.845 18.765 4.170
9985 0 1 2.000 118.845 16.680 6.255
9986 0 1 2.000 116.760 18.765 6.255
9987 0 1 2.000 116.760 16.680 8.340
9988 0 1 2.000 118.845 18.765 8.340
9989 0 1 2.000 118.845 16.680 10.425
9990 0 1 2.000 116.760 18.765 10.425
9991 0 1 2.000 116.760 16.680 12.510
9992 0 1 2.000 118.845 18.765 12.510
9993 0 1 2.000 118.845 16.680 14.595
9994 0 1 2.000 116.760 18.765 14.595
9995 0 1 2.000 116.760 16.680 16.680
9996 0 1 2.000 118.845 18.765 16.680
9997 0 1 2.000 118.845 16.680 18.765
9998 0 1 2.000 116.760 18.765 18.765
9999 0 1 2.000 116.760 16.680 20.850
10000 0 1 2.000 118.845 18.765 20.850
10001 0 1 2.000 118.845 16.680 22.935
10002 0 1 2.000 116.760 18.765 22.935
10003 0 1 2.000 116.760 16.680 25.020
10004 0 1 2.000 118.845 18.765 25.020
10005 0 1 2.000 118.845 16.680 27.105
10006 0 1 2.000 116.760 18.765 27.105
10007 0 1 2.000 116.760 16.680 29.190
10008 0 1 2.000 116.760 20.850 0.000
10009 0 1 2.000 118.845 22.935 0.000
10010 0 1 2.000 118.845 20.850 2.085
10011 0 1 2.000 116.760 22.935 2.085
10012 0 1 2.000 116.760 20.850 4.170
10013 0 1 2.000 118.845 22.935 4.170
10014 0 1 2.000 118.845 20.850 6.255
10015 0 1 2.000 116.760 22.935 6.255
10016 0 1 2.000 116.760 20.850 8.340
10017 0 1 2.000 118.845 22.935 8.340
10018 0 1 2.000 118.845 20.850 10.425
10019 0 1 2.000 116.760 22.935 10.425
10020 0 1 2.000 116.760 20.850 12.510
10021 0 1 2.000 118.845 22.935 12.510
10022 0 1 2.000 118.845 20.850 14.595
10023 0 1 2.000 116.760 22.935 14.595
10024 0 1 2.000 116.760 20.850 16.680
10025 0 1 2.000 118.845 22.935 16.680
10026 0 1 2.000 118.845 20.850 18.765
10027 0 1 2.000 116.760 22.935 18.765
10028 0 1 2.000 116.760 20.850 20.850
10029 0 1 2.000 118.845 22.935 20.850
10030 0 1 2.000 118.845 20.850 22.935
10031 0 1 2.000 116.760 22.935 22.935
10032 0 1 2.000 116.760 20.850 25.020
10033 0 1 2.000 118.845 22.935 25.020
10034 0 1 2.000 116.760 22.935 27.105
10035 0 1 2.000 116.760 25.020 0.000
10036 0 1 2.000 118.845 27.105 0.000
10037 0 1 2.000 118.845 25.020 2.085
10038 0 1 2.000 116.760 27.105 2.085
10039 0 1 2.000 116.760 25.020 4.170
10040 0 1 2.000 118.845 27.105 4.170
10041 0 1 2.000 118.845 25.020 6.255
10042 0 1 2.000 116.760 27.105 6.255
10043 0 1 2.000 116.760 25.020 8.340
10044 0 1 2.000 118.845 27.105 8.340
10045 0 1 2.000 118.845 25.020 10.425
10046 0 1 2.000 116.760 27.105 10.425
10047 0 1 2.000 116.760 25.020 12.510
10048 0 1 2.000 118.845 27.105 12.510
10049 0 1 2.000 118.845 25.020 14.595
10050 0 1 2.000 116.760 27.105 14.595
10051 0 1 2.000 116.760 25.020 16.680
10052 0 1 2.000 118.845 27.105 16.680
10053 0 1 2.000 118.845 25.020 18.765
10054 0 1 2.000 116.760 27.105 18.765
10055 0 1 2.000 116.760 25.020 20.850
10056 0 1 2.000 118.845 27.105 20.850
10057 0 1 2.000 118.845 25.020 22.935
10058 0 1 2.000 116.760 27.105 22.935
10059 0 1 2.000 116.760 25.020 25.020
10060 0 1 2.000 118.845 27.105 25.020
10061 0 1 2.000 118.845 25.020 27.105
10062 0 1 2.000 116.760 27.105 27.105
10063 0 1 2.000 116.760 25.020 29.190
10064 0 1 2.000 118.845 27.105 29.190
10065 0 1 2.000 116.760 27.105 31.275
10066 0 1 2.000 116.760 29.190 0.000
10067 0 1 2.000 118.845 31.275 0.000
10068 0 1 2.000 118.845 29.190 2.085
10069 0 1 2.000 116.760 31.275 2.085
10070 0 1 2.000 116.760 29.190 4.170
10071 0 1 2.000 118.845 31.275 4.170
10072 0 1 2.000 118.845 29.190 6.255
10073 0 1 2.000 116.760 31.275 6.255
10074 0 1 2.000 116.760 29.190 8.340
10075 0 1 2.000 118.845 31.275 8.340
10076 0 1 2.000 118.845 29.190 10.425
10077 0 1 2.000 116.760 31.275 10.425
10078 0 1 2.000 116.760 29.190 12.510
10079 0 1 2.000 118.845 31.275 12.510
10080 0 1 2.000 118.845 29.190 14.595
10081 0 1 2.000 116.760 31.275 14.595
10082 0 1 2.000 116.760 29.190 16.680
10083 0 1 2.000 118.845 31.275 16.680
10084 0 1 2.000 118.845 29.190 18.765
10085 0 1 2.000 116.760 31.275 18.765
10086 0 1 2.000 116.760 29.190 20.850
10087 0 1 2.000 118.845 31.275 20.850
10088 0 1 2.000 118.845 29.190 22.935
10089 0 1 2.000 116.760 31.275 22.935
10090 0 1 2.000 116.760 29.190 25.020
10091 0 1 2.000 118.845 31.275 25.020
10092 0 1 2.000 118.845 29.190 27.105
10093 0 1 2.000 116.760 31.275 27.105
10094 0 1 2.000 116.760 29.190 29.190
10095 0 1 2.000 118.845 31.275 29.190
10096 0 1 2.000 118.845 29.190 31.275
10097 0 1 2.000 116.760 31.275 31.275
10098 0 1 2.000 116.760 29.190 33.360
10099 0 1 2.000 118.845 31.275 33.360
10100 0 1 2.000 116.760 31.275 35.445
10101 0 1 2.000 116.760 33.360 0.000
10102 0 1 2.000 118.845 35.445 0.000
10103 0 1 2.000 118.845 33.360 2.085
10104 0 1 2.000 116.760 35.445 2.085
10105 0 1 2.000 116.760 33.360 4.170
10106 0 1 2.000 118.845 35.445 4.170
10107 0 1 2.000 118.845 33.360 6.255
10108 0 1 2.000 116.760 35.445 6.255
10109 0 1 2.000 116.760 33.360 8.340
10110 0 1 2.000 118.845 35.445 8.340
10111 0 1 2.000 118.845 33.360 10.425
10112 0 1 2.000 116.760 35.445 10.425
10113 0 1 2.000 116.760 33.360 12.510
10114 0 1 2.000 118.845 35.445 12.510
10115 0 1 2.000 118.845 33.360 14.595
10116 0 1 2.000 116.760 35.445 14.595
10117 0 1 2.000 116.760 33.360 16.680
10118 0 1 2.000 118.845 35.445 16.680
10119 0 1 2.000 118.845 33.360 18.765
10120 0 1 2.000 116.760 35.445 18.765
10121 0 1 2.000 116.760 33.360 20.850
10122 0 1 2.000 118.845 35.445 20.850
10123 0 1 2.000 118.845 33.360 22.935
10124 0 1 2.000 116.760 35.445 22.935
10125 0 1 2.000 116.760 33.360 25.020
10126 0 1 2.000 118.845 35.445 25.020
10127 0 1 2.000 118.845 33.360 27.105
10128 0 1 2.000 116.760 35.445 27.105
10129 0 1 2.000 116.760 33.360 29.190
10130 0 1 2.000 118.845 35.445 29.190
10131 0 1 2.000 118.845 33.360 31.275
10132 0 1 2.000 116.760 35.445 31.275
10133 0 1 2.000 116.760 33.360 33.360
10134 0 1 2.000 118.845 35.445 33.360
10135 0 1 2.000 118.845 33.360 35.445
10136 0 1 2.000 116.760 35.445 35.445
10137 0 1 2.000 116.760 33.360 37.530
10138 0 1 2.000 118.845 35.445 37.530
10139 0 1 2.000 116.760 35.445 39.615
10140 0 1 2.000 116.760 37.530 0.000
10141 0 1 2.000 118.845 39.615 0.000
10142 0 1 2.000 118.845 37.530 2.085
10143 0 1 2.000 116.760 39.615 2.085
10144 0 1 2.000 116.760 37.530 4.170
10145 0 1 2.000 118.845 39.615 4.170
10146 0 1 2.000 118.845 37.530 6.255
10147 0 1 2.000 116.760 39.615 6.255
10148 0 1 2.000 116.760 37.530 8.340
10149 0 1 2.000 118.845 39.615 8.340
10150 0 1 2.000 118.845 37.530 10.425
10151 0 1 2.000 116.760 39.615 10.425
10152 0 1 2.000 116.760 37.530 12.510
10153 0 1 2.000 118.845 39.615 12.510
10154 0 1 2.000 118.845 37.530 14.595
10155 0 1 2.000 116.760 39.615 14.595
10156 0 1 2.000 116.760 37.530 16.680
10157 0 1 2.000 118.845 39.615 16.680
10158 0 1 2.000 118.845 37.530 18.765
10159 0 1 2.000 116.760 39.615 18.765
10160 0 1 2.000 116.760 37.530 20.850
10161 0 1 2.000 118.845 39.615 20.850
10162 0 1 2.000 118.845 37.530 22.935
10163 0 1 2.000 116.760 39.615 22.935
10164 0 1 2.000 116.760 37.530 25.020
10165 0 1 2.000 118.845 39.615 25.020
10166 0 1 2.000 118.845 37.530 27.105
10167 0 1 2.000 116.760 39.615 27.105
10168 0 1 2.000 116.760 37.530 29.190
10169 0 1 2.000 118.845 39.615 29.190
10170 0 1 2.000 118.845 37.530 31.275
10171 0 1 2.000 116.760 39.615 31.275
10172 0 1 2.000 116.760 37.530 33.360
10173 0 1 2.000 118.845 39.615 33.360
10174 0 1 2.000 118.845 37.530 35.445
10175 0 1 2.000 116.760 39.615 35.445
10176 0 1 2.000 116.760 37.530 37.530
10177 0 1 2.000 118.845 39.615 37.530
10178 0 1 2.000 118.845 37.530 39.615
10179 0 1 2.000 116.760 39.615 39.615
10180 0 1 2.000 120.930 0.000 0.000
10181 0 1 2.000 123.015 2.085 0.000
10182 0 1 2.000 123.015 0.000 2.085
10183 0 1 2.000 120.930 2.085 2.085
10184 0 1 2.000 120.930 0.000 4.170
10185 0 1 2.000 123.015 2.085 4.170
10186 0 1 2.000 123.015 0.000 6.255
10187 0 1 2.000 120.930 2.085 6.255
10188 0 1 2.000 120.930 0.000 8.340
10189 0 1 2.000 123.015 2.085 8.340
10190 0 1 2.000 123.015 0.000 10.425
10191 0 1 2.000 120.930 2.085 10.425
10192 0 1 2.000 120.930 0.000 12.510
10193 0 1 2.000 123.015 2.085 12.510
10194 0 1 2.000 123.015 0.000 14.595
10195 0 1 2.000 120.930 2.085 14.595
10196 0 1 2.000 120.930 0.000 16.680
10197 0 1 2.000 123.015 2.085 16.680
10198 0 1 2.000 123.015 0.000 18.765
10199 0 1 2.000 120.930 2.085 18.765
10200 0 1 2.000 120.930 0.000 20.850
10201 0 1 2.000 123.015 2.085 20.850
10202 0 1 2.000 123.015 0.000 22.935
10203 0 1 2.000 120.930 2.085 22.935
10204 0 1 2.000 120.930 0.000 25.020
10205 0 1 2.000 123.015 2.085 25.020
10206 0 1 2.000 123.015 0.000 27.105
10207 0 1 2.000 120.930 2.085 27.105
10208 0 1 2.000 120.930 0.000 29.190
10209 0 1 2.000 123.015 2.085 29.190
10210 0 1 2.000 123.015 0.000 31.275
10211 0 1 2.000 120.930 2.085 31.275
10212 0 1 2.000 120.930 0.000 33.360
10213 0 1 2.000 123.015 2.085 33.360
10214 0 1 2.000 123.015 0.000 35.445
10215 0 1 2.000 120.930 2.085 35.445
10216 0 1 2.000 120.930 0.000 37.530
10217 0 1 2.000 123.015 2.085 37.530
10218 0 1 2.000 123.015 0.000 39.615
10219 0 1 2.000 120.930 2.085 39.615
10220 0 1 2.000 120.930 4.170 0.000
10221 0 1 2.000 123.015 6.255 0.000
10222 0 1 2.000 123.015 4.170 2.085
10223 0 1 2.000 120.930 6.255 2.085
10224 0 1 2.000 120.930 4.170 4.170
10225 0 1 2.000 123.015 6.255 4.170
10226 0 1 2.000 123.015 4.170 6.255
10227 0 1 2.000 120.930 6.255 6.255
10228 0 1 2.000 120.930 4.170 8.340
10229 0 1 2.000 123.015 6.255 8.340
10230 0 1 2.000 123.015 4.170 10.425
10231 0 1 2.000 120.930 6.255 10.425
10232 0 1 2.000 120.930 4.170 12.510
10233 0 1 2.000 123.015 6.255 12.510
10234 0 1 2.000 123.015 4.170 14.595
10235 0 1 2.000 120.930 6.255 14.595
10236 0 1 2.000 120.930 4.170 16.680
10237 0 1 2.000 123.015 6.255 16.680
10238 0 1 2.000 123.015 4.170 18.765
10239 0 1 2.000 120.930 6.255 18.765
10240 0 1 2.000 120.930 4.170 20.850
10241 0 1 2.000 123.015 6.255 20.850
10242 0 1 2.000 123.015 4.170 22.935
10243 0 1 2.000 120.930 6.255 22.935
10244 0 1 2.000 120.930 4.170 25.020
10245 0 1 2.000 123.015 6.255 25.020
10246 0 1 2.000 123.015 4.170 27.105
10247 0 1 2.000 120.930 6.255 27.105
10248 0 1 2.000 120.930 4.170 29.190
10249 0 1 2.000 123.015 6.255 29.190
10250 0 1 2.000 123.015 4.170 31.275
10251 0 1 2.000 120.930 6.255 31.275
10252 0 1 2.000 120.930 4.170 33.360
10253 0 1 2.000 123.015 6.255 33.360
10254 0 1 2.000 123.015 4.170 35.445
10255 0 1 2.000 120.930 6.255 35.445
10256 0 1 2.000 120.930 4.170 37.530
10257 0 1 2.000 123.015 6.255 37.530
10258 0 1 2.000 123.015 4.170 39.615
10259 0 1 2.000 120.930 6.255 39.615
10260 0 1 2.000 120.930 8.340 0.000
10261 0 1 2.000 123.015 10.425 0.000
10262 0 1 2.000 123.015 8.340 2.085
10263 0 1 2.000 120.930 10.425 2.085
10264 0 1 2.000 120.930 8.340 4.170
10265 0 1 2.000 123.015 10.425 4.170
10266 0 1 2.000 123.015 8.340 6.255
10267 0 1 2.000 120.930 10.425 6.255
10268 0 1 2.000 120.930 8.340 8.340
10269 0 1 2.000 123.015 10.425 8.340
10270 0 1 2.000 123.015 8.340 10.425
10271 0 1 2.000 120.930 10.425 10.425
10272 0 1 2.000 120.930 8.340 12.510
10273 0 1 2.000 123.015 10.425 12.510
10274 0 1 2.000 123.015 8.340 14.595
10275 0 1 2.000 120.930 10.425 14.595
10276 0 1 2.000 120.930 8.340 16.680
10277 0 1 2.000 123.015 10.425 16.680
10278 0 1 2.000 123.015 8.340 18.765
10279 0 1 2.000 120.930 10.425 18.765
10280 0 1 2.000 120.930 8.340 20.850
10281 0 1 2.000 123.015 10.425 20.850
10282 0 1 2.000 123.015 8.340 22.935
10283 0 1 2.000 120.930 10.425 22.935
10284 0 1 2.000 120.930 8.340 25.020
10285 0 1 2.000 123.015 10.425 25.020
10286 0 1 2.000 123.015 8.340 27.105
10287 0 1 2.000 120.930 10.425 27.105
10288 0 1 2.000 120.930 8.340 29.190
10289 0 1 2.000 123.015 10.425 29.190
10290 0 1 2.000 123.015 8.340 31.275
10291 0 1 2.000 120.930 10.425 31.275
10292 0 1 2.000 120.930 8.340 33.360
10293 0 1 2.000 123.015 10.425 33.360
10294 0 1 2.000 123.015 8.340 35.445
10295 0 1 2.000 120.930 10.425 35.445
10296 0 1 2.000 120.930 8.340 37.530
10297 0 1 2.000 120.930 12.510 0.000
10298 0 1 2.000 123.015 14.595 0.000
10299 0 1 2.000 123.015 12.510 2.085
10300 0 1 2.000 120.930 14.595 2.085
10301 0 1 2.000 120.930 12.510 4.170
10302 0 1 2.000 123.015 14.595 4.170
10303 0 1 2.000 123.015 12.510 6.255
10304 0 1 2.000 120.930 14.595 6.255
10305 0 1 2.000 120.930 12.510 8.340
10306 0 1 2.000 123.015 14.595 8.340
10307 0 1 2.000 123.015 12.510 10.425
10308 0 1 2.000 120.930 14.595 10.425
10309 0 1 2.000 120.930 12.510 12.510
10310 0 1 2.000 123.015 14.595 12.510
10311 0 1 2.000 123.015 12.510 14.595
10312 0 1 2.000 120.930 14.595 14.595
10313 0 1 2.000 120.930 12.510 16.680
10314 0 1 2.000 123.015 14.595 16.680
10315 0 1 2.000 123.015 12.510 18.765
10316 0 1 2.000 120.930 14.595 18.765
10317 0 1 2.000 120.930 12.510 20.850
10318 0 1 2.000 123.015 14.595 20.850
10319 0 1 2.000 123.015 12.510 22.935
10320 0 1 2.000 120.930 14.595 22.935
10321 0 1 2.000 120.930 12.510 25.020
10322 0 1 2.000 123.015 14.595 25.020
10323 0 1 2.000 123.015 12.510 27.105
10324 0 1 2.000 120.930 14.595 27.105
10325 0 1 2.000 120.930 12.510 29.190
10326 0 1 2.000 123.015 14.595 29.190
10327 0 1 2.000 123.015 12.510 31.275
10328 0 1 2.000 120.930 14.595 31.275
10329 0 1 2.000 120.930 12.510 33.360
10330 0 1 2.000 120.930 16.680 0.000
10331 0 1 2.000 123.015 18.765 0.000
10332 0 1 2.000 123.015 16.680 2.085
10333 0 1 2.000 120.930 18.765 2.085
10334 0 1 2.000 120.930 16.680 4.170
10335 0 1 2.000 123.015 18.765 4.170
10336 0 1 2.000 123.015 16.680 6.255
10337 0 1 2.000 120.930 18.765 6.255
10338 0 1 2.000 120.930 16.680 8.340
10339 0 1 2.000 123.015 18.765 8.340
10340 0 1 2.000 123.015 16.680 10.425
10341 0 1 2.000 120.930 18.765 10.425
10342 0 1 2.000 120.930 16.680 12.510
10343 0 1 2.000 123.015 18.765 12.510
10344 0 1 2.000 123.015 16.680 14.595
10345 0 1 2.000 120.930 18.765 14.595
10346 0 1 2.000 120.930 16.680 16.680
10347 0 1 2.000 123.015 18.765 16.680
10348 0 1 2.000 123.015 16.680 18.765
10349 0 1 2.000 120.930 18.765 18.765
10350 0 1 2.000 120.930 16.680 20.850
10351 0 1 2.000 123.015 18.765 20.850
10352 0 1 2.000 123.015 16.680 22.935
10353 0 1 2.000 120.930 18.765 22.935
10354 0 1 2.000 120.930 16.680 25.020
10355 0 1 2.000 123.015 18.765 25.020
10356 0 1 2.000 123.015 16.680 27.105
10357 0 1 2.000 120.930 18.765 27.105
10358 0 1 2.000 120.930 16.680 29.190
10359 0 1 2.000 120.930 20.850 0.000
10360 0 1 2.000 123.015 22.935 0.000
10361 0 1 2.000 123.015 20.850 2.085
10362 0 1 2.000 120.930 22.935 2.085
10363 0 1 2.000 120.930 20.850 4.170
10364 0 1 2.000 123.015 22.935 4.170
10365 0 1 2.000 123.015 20.850 6.255
10366 0 1 2.000 120.930 22.935 6.255
10367 0 1 2.000 120.930 20.850 8.340
10368 0 1 2.000 123.015 22.935 8.340
10369 0 1 2.000 123.015 20.850 10.425
10370 0 1 2.000 120.930 22.935 10.425
10371 0 1 2.000 120.930 20.850 12.510
10372 0 1 2.000 123.015 22.935 12.510
10373 0 1 2.000 123.015 20.850 14.595
10374 0 1 2.000 120.930 22.935 14.595
10375 0 1 2.000 120.930 20.850 16.680
10376 0 1 2.000 123.015 22.935 16.680
10377 0 1 2.000 123.015 20.850 18.765
10378 0 1 2.000 120.930 22.935 18.765
10379 0 1 2.000 120.930 20.850 20.850
10380 0 1 2.000 123.015 22.935 20.850
10381 0 1 2.000 123.015 20.850 22.935
10382 0 1 2.000 120.930 22.935 22.935
10383 0 1 2.000 120.930 20.850 25.020
10384 0 1 2.000 123.015 22.935 25.020
10385 0 1 2.000 120.930 22.935 27.105
10386 0 1 2.000 120.930 25.020 0.000
10387 0 1 2.000 123.015 27.105 0.000
10388 0 1 2.000 123.015 25.020 2.085
10389 0 1 2.000 120.930 27.105 2.085
10390 0 1 2.000 120.930 25.020 4.170
10391 0 1 2.000 123.015 27.105 4.170
10392 0 1 2.000 123.015 25.020 6.255
10393 0 1 2.000 120.930 27.105 6.255
10394 0 1 2.000 120.930 25.020 8.340
10395 0 1 2.000 123.015 27.105 8.340
10396 0 1 2.000 123.015 25.020 10.425
10397 0 1 2.000 120.930 27.105 10.425
10398 0 1 2.000 120.930 25.020 12.510
10399 0 1 2.000 123.015 27.105 12.510
10400 0 1 2.000 123.015 25.020 14.595
10401 0 1 2.000 120.930 27.105 14.595
10402 0 1 2.000 120.930 25.020 16.680
10403 0 1 2.000 123.015 27.105 16.680
10404 0 1 2.000 123.015 25.020 18.765
10405 0 1 2.000 120.930 27.105 18.765
10406 0 1 2.000 120.930 25.020 20.850
10407 0 1 2.000 123.015 27.105 20.850
10408 0 1 2.000 123.015 25.020 22.935
10409 0 1 2.000 120.930 27.105 22.935
10410 0 1 2.000 120.930 25.020 25.020
10411 0 1 2.000 123.015 27.105 25.020
10412 0 1 2.000 123.015 25.020 27.105
10413 0 1 2.000 120.930 27.105 27.105
10414 0 1 2.000 120.930 25.020 29.190
10415 0 1 2.000 123.015 27.105 29.190
10416 0 1 2.000 120.930 27.105 31.275
10417 0 1 2.000 120.930 29.190 0.000
10418 0 1 2.000 123.015 31.275 0.000
10419 0 1 2.000 123.015 29.190 2.085
10420 0 1 2.000 120.930 31.275 2.085
10421 0 1 2.000 120.930 29.190 4.170
10422 0 1 2.000 123.015 31.275 4.170
10423 0 1 2.000 123.015 29.190 6.255
10424 0 1 2.000 120.930 31.275 6.255
10425 0 1 2.000 120.930 29.190 8.340
10426 0 1 2.000 123.015 31.275 8.340
10427 0 1 2.000 123.015 29.190 10.425
10428 0 1 2.000 120.930 31.275 10.425
10429 0 1 2.000 120.930 29.190 12.510
10430 0 1 2.000 123.015 31.275 12.510
10431 0 1 2.000 123.015 29.190 14.595
10432 0 1 2.000 120.930 31.275 14.595
10433 0 1 2.000 120.930 29.190 16.680
10434 0 1 2.000 123.015 31.275 16.680
10435 0 1 2.000 123.015 29.190 18.765
10436 0 1 2.000 120.930 31.275 18.765
10437 0 1 2.000 120.930 29.190 20.850
10438 0 1 2.000 123.015 31.275 20.850
10439 0 1 2.000 123.015 29.190 22.935
10440 0 1 2.000 120.930 31.275 22.935
10441 0 1 2.000 120.930 29.190 25.020
10442 0 1 2.000 123.015 31.275 25.020
10443 0 1 2.000 123.015 29.190 27.105
10444 0 1 2.000 120.930 31.275 27.105
10445 0 1 2.000 120.930 29.190 29.190
10446 0 1 2.000 123.015 31.275 29.190
10447 0 1 2.000 123.015 29.190 31.275
10448 0 1 2.000 120.930 31.275 31.275
10449 0 1 2.000 120.930 29.190 33.360
10450 0 1 2.000 123.015 31.275 33.360
10451 0 1 2.000 120.930 31.275 35.445
10452 0 1 2.000 120.930 33.360 0.000
10453 0 1 2.000 123.015 35.445 0.000
10454 0 1 2.000 123.015 33.360 2.085
10455 0 1 2.000 120.930 35.445 2.085
10456 0 1 2.000 120.930 33.360 4.170
10457 0 1 2.000 123.015 35.445 4.170
10458 0 1 2.000 123.015 33.360 6.255
10459 0 1 2.000 120.930 35.445 6.255
10460 0 1 2.000 120.930 33.360 8.340
10461 0 1 2.000 123.015 35.445 8.340
10462 0 1 2.000 123.015 33.360 10.425
10463 0 1 2.000 120.930 35.445 10.425
10464 0 1 2.000 120.930 33.360 12.510
10465 0 1 2.000 123.015 35.445 12.510
10466 0 1 2.000 123.015 33.360 14.595
10467 0 1 2.000 120.930 35.445 14.595
10468 0 1 2.000 120.930 33.360 16.680
10469 0 1 2.000 123.015 35.445 16.680
10470 0 1 2.000 123.015 33.360 18.765
10471 0 1 2.000 120.930 35.445 18.765
10472 0 1 2.000 120.930 33.360 20.850
10473 0 1 2.000 123.015 35.445 20.850
10474 0 1 2.000 123.015 33.360 22.935
10475 0 1 2.000 120.930 35.445 22.935
10476 0 1 2.000 120.930 33.360 25.020
10477 0 1 2.000 123.015 35.445 25.020
10478 0 1 2.000 123.015 33.360 27.105
10479 0 1 2.000 120.930 35.445 27.105
10480 0 1 2.000 120.930 33.360 29.190
10481 0 1 2.000 123.015 35.445 29.190
10482 0 1 2.000 123.015 33.360 31.275
10483 0 1 2.000 120.930 35.445 31.275
10484 0 1 2.000 120.930 33.360 33.360
10485 0 1 2.000 123.015 35.445 33.360
10486 0 1 2.000 123.015 33.360 35.445
10487 0 1 2.000 120.930 35.445 35.445
10488 0 1 2.000 120.930 33.360 37.530
10489 0 1 2.000 123.015 35.445 37.530
10490 0 1 2.000 120.930 35.445 39.615
10491 0 1 2.000 120.930 37.530 0.000
10492 0 1 2.000 123.015 39.615 0.000
10493 0 1 2.000 123.015 37.530 2.085
10494 0 1 2.000 120.930 39.615 2.085
10495 0 1 2.000 120.930 37.530 4.170
10496 0 1 2.000 123.015 39.615 4.170
10497 0 1 2.000 123.015 37.530 6.255
10498 0 1 2.000 120.930 39.615 6.255
10499 0 1 2.000 120.930 37.530 8.340
10500 0 1 2.000 123.015 39.615 8.340
10501 0 1 2.000 123.015 37.530 10.425
10502 0 1 2.000 120.930 39.615 10.425
10503 0 1 2.000 120.930 37.530 12.510
10504 0 1 2.000 123.015 39.615 12.510
10505 0 1 2.000 123.015 37.530 14.595
10506 0 1 2.000 120.930 39.615 14.595
10507 0 1 2.000 120.930 37.530 16.680
10508 0 1 2.000 123.015 39.615 16.680
10509 0 1 2.000 123.015 37.530 18.765
10510 0 1 2.000 120.930 39.615 18.765
10511 0 1 2.000 120.930 37.530 20.850
10512 0 1 2.000 123.015 39.615 20.850
10513 0 1 2.000 123.015 37.530 22.935
10514 0 1 2.000 120.930 39.615 22.935
10515 0 1 2.000 120.930 37.530 25.020
10516 0 1 2.000 123.015 39.615 25.020
10517 0 1 2.000 123.015 37.530 27.105
10518 0 1 2.000 120.930 39.615 27.105
10519 0 1 2.000 120.930 37.530 29.190
10520 0 1 2.000 123.015 39.615 29.190
10521 0 1 2.000 123.015 37.530 31.275
10522 0 1 2.000 120.930 39.615 31.275
10523 0 1 2.000 120.930 37.530 33.360
10524 0 1 2.000 123.015 39.615 33.360
10525 0 1 2.000 123.015 37.530 35.445
10526 0 1 2.000 120.930 39.615 35.445
10527 0 1 2.000 120.930 37.530 37.530
10528 0 1 2.000 123.015 39.615 37.530
10529 0 1 2.000 123.015 37.530 39.615
10530 0 1 2.000 120.930 39.615 39.615
10531 0 2 -2.000 2.085 2.085 2.085
10532 0 2 -2.000 4.170 2.085 0.000
10533 0 2 -2.000 2.085 4.170 0.000
10534 0 2 -2.000 0.000 0.000 2.085
10535 0 2 -2.000 2.085 2.085 6.255
10536 0 2 -2.000 4.170 2.085 4.170
10537 0 2 -2.000 2.085 4.170 4.170
10538 0 2 -2.000 0.000 0.000 6.255
10539 0 2 -2.000 2.085 2.085 10.425
10540 0 2 -2.000 4.170 2.085 8.340
10541 0 2 -2.000 2.085 4.170 8.340
10542 0 2 -2.000 0.000 0.000 10.425
10543 0 2 -2.000 2.085 2.085 14.595
10544 0 2 -2.000 4.170 2.085 12.510
10545 0 2 -2.000 2.085 4.170 12.510
10546 0 2 -2.000 0.000 0.000 14.595
10547 0 2 -2.000 2.085 2.085 18.765
10548 0 2 -2.000 4.170 2.085 16.680
10549 0 2 -2.000 2.085 4.170 16.680
10550 0 2 -2.000 0.000 0.000 18.765
10551 0 2 -2.000 2.085 2.085 22.935
10552 0 2 -2.000 4.170 2.085 20.850
10553 0 2 -2.000 2.085 4.170 20.850
10554 0 2 -2.000 0.000 0.000 22.935
10555 0 2 -2.000 2.085 2.085 27.105
10556 0 2 -2.000 4.170 2.085 25.020
10557 0 2 -2.000 2.085 4.170 25.020
10558 0 2 -2.000 0.000 0.000 27.105
10559 0 2 -2.000 2.085 2.085 31.275
10560 0 2 -2.000 4.170 2.085 29.190
10561 0 2 -2.000 2.085 4.170 29.190
10562 0 2 -2.000 0.000 0.000 31.275
10563 0 2 -2.000 2.085 2.085 35.445
10564 0 2 -2.000 4.170 2.085 33.360
10565 0 2 -2.000 2.085 4.170 33.360
10566 0 2 -2.000 0.000 0.000 35.445
10567 0 2 -2.000 2.085 2.085 39.615
10568 0 2 -2.000 4.170 2.085 37.530
10569 0 2 -2.000 2.085 4.170 37.530
10570 0 2 -2.000 0.000 0.000 39.615
10571 0 2 -2.000 2.085 6.255 2.085
10572 0 2 -2.000 4.170 6.255 0.000
10573 0 2 -2.000 2.085 8.340 0.000
10574 0 2 -2.000 0.000 4.170 2.085
10575 0 2 -2.000 2.085 6.255 6.255
10576 0 2 -2.000 4.170 6.255 4.170
10577 0 2 -2.000 2.085 8.340 4.170
10578 0 2 -2.000 0.000 4.170 6.255
10579 0 2 -2.000 2.085 6.255 10.425
10580 0 2 -2.000 4.170 6.255 8.340
10581 0 2 -2.000 2.085 8.340 8.340
10582 0 2 -2.000 0.000 4.170 10.425
10583 0 2 -2.000 2.085 6.255 14.595
10584 0 2 -2.000 4.170 6.255 12.510
10585 0 2 -2.000 2.085 8.340 12.510
10586 0 2 -2.000 0.000 4.170 14.595
10587 0 2 -2.000 2.085 6.255 18.765
10588 0 2 -2.000 4.170 6.255 16.680
10589 0 2 -2.000 2.085 8.340 16.680
10590 0 2 -2.000 0.000 4.170 18.765
10591 0 2 -2.000 2.085 6.255 22.935
10592 0 2 -2.000 4.170 6.255 20.850
10593 0 2 -2.000 2.085 8.340 20.850
10594 0 2 -2.000 0.000 4.170 22.935
10595 0 2 -2.000 2.085 6.255 27.105
10596 0 2 -2.000 4.170 6.255 25.020
10597 0 2 -2.000 2.085 8.340 25.020
10598 0 2 -2.000 0.000 4.170 27.105
10599 0 2 -2.000 2.085 6.255 31.275
10600 0 2 -2.000 4.170 6.255 29.190
10601 0 2 -2.000 2.085 8.340 29.190
10602 0 2 -2.000 0.000 4.170 31.275
10603 0 2 -2.000 2.085 6.255 35.445
10604 0 2 -2.000 4.170 6.255 33.360
10605 0 2 -2.000 2.085 8.340 33.360
10606 0 2 -2.000 0.000 4.170 35.445
10607 0 2 -2.000 2.085 6.255 39.615
10608 0 2 -2.000 4.170 6.255 37.530
10609 0 2 -2.000 2.085 8.340 37.530
10610 0 2 -2.000 0.000 4.170 39.615
10611 0 2 -2.000 2.085 10.425 2.085
10612 0 2 -2.000 4.170 10.425 0.000
10613 0 2 -2.000 2.085 12.510 0.000
10614 0 2 -2.000 0.000 8.340 2.085
10615 0 2 -2.000 2.085 10.425 6.255
10616 0 2 -2.000 4.170 10.425 4.170
10617 0 2 -2.000 2.085 12.510 4.170
10618 0 2 -2.000 0.000 8.340 6.255
10619 0 2 -2.000 2.085 10.425 10.425
10620 0 2 -2.000 4.170 10.425 8.340
10621 0 2 -2.000 2.085 12.510 8.340
10622 0 2 -2.000 0.000 8.340 10.425
10623 0 2 -2.000 2.085 10.425 14.595
10624 0 2 -2.000 4.170 10.425 12.510
10625 0 2 -2.000 2.085 12.510 12.510
10626 0 2 -2.000 0.000 8.340 14.595
10627 0 2 -2.000 2.085 10.425 18.765
10628 0 2 -2.000 4.170 10.425 16.680
10629 0 2 -2.000 2.085 12.510 16.680
10630 0 2 -2.000 0.000 8.340 18.765
10631 0 2 -2.000 2.085 10.425 22.935
10632 0 2 -2.000 4.170 10.425 20.850
10633 0 2 -2.000 2.085 12.510 20.850
10634 0 2 -2.000 0.000 8.340 22.935
10635 0 2 -2.000 2.085 10.425 27.105
10636 0 2 -2.000 4.170 10.425 25.020
10637 0 2 -2.000 2.085 12.510 25.020
10638 0 2 -2.000 0.000 8.340 27.105
10639 0 2 -2.000 2.085 10.425 31.275
10640 0 2 -2.000 4.170 10.425 29.190
10641 0 2 -2.000 2.085 12.510 29.190
10642 0 2 -2.000 0.000 8.340 31.275
10643 0 2 -2.000 2.085 10.425 35.445
10644 0 2 -2.000 4.170 10.425 33.360
10645 0 2 -2.000 2.085 12.510 33.360
10646 0 2 -2.000 0.000 8.340 35.445
10647 0 2 -2.000 2.085 14.595 2.085
10648 0 2 -2.000 4.170 14.595 0.000
10649 0 2 -2.000 2.085 16.680 0.000
10650 0 2 -2.000 0.000 12.510 2.085
10651 0 2 -2.000 2.085 14.595 6.255
10652 0 2 -2.000 4.170 14.595 4.170
10653 0 2 -2.000 2.085 16.680 4.170
10654 0 2 -2.000 0.000 12.510 6.255
10655 0 2 -2.000 2.085 14.595 10.425
10656 0 2 -2.000 4.170 14.595 8.340
10657 0 2 -2.000 2.085 16.680 8.340
10658 0 2 -2.000 0.000 12.510 10.425
10659 0 2 -2.000 2.085 14.595 14.595
10660 0 2 -2.000 4.170 14.595 12.510
10661 0 2 -2.000 2.085 16.680 12.510
10662 0 2 -2.000 0.000 12.510 14.595
10663 0 2 -2.000 2.085 14.595 18.765
10664 0 2 -2.000 4.170 14.595 16.680
10665 0 2 -2.000 2.085 16.680 16.680
10666 0 2 -2.000 0.000 12.510 18.765
10667 0 2 -2.000 2.085 14.595 22.935
10668 0 2 -2.000 4.170 14.595 20.850
10669 0 2 -2.000 2.085 16.680 20.850
10670 0 2 -2.000 0.000 12.510 22.935
10671 0 2 -2.000 2.085 14.595 27.105
10672 0 2 -2.000 4.170 14.595 25.020
10673 0 2 -2.000 2.085 16.680 25.020
10674 0 2 -2.000 0.000 12.510 27.105
10675 0 2 -2.000 2.085 14.595 31.275
10676 0 2 -2.000 4.170 14.595 29.190
10677 0 2 -2.000 2.085 16.680 29.190
10678 0 2 -2.000 0.000 12.510 31.275
10679 0 2 -2.000 2.085 18.765 2.085
10680 0 2 -2.000 4.170 18.765 0.000
10681 0 2 -2.000 2.085 20.850 0.000
10682 0 2 -2.000 0.000 16.680 2.085
10683 0 2 -2.000 2.085 18.765 6.255
10684 0 2 -2.000 4.170 18.765 4.170
10685 0 2 -2.000 2.085 20.850 4.170
10686 0 2 -2.000 0.000 16.680 6.255
10687 0 2 -2.000 2.085 18.765 10.425
10688 0 2 -2.000 4.170 18.765 8.340
10689 0 2 -2.000 2.085 20.850 8.340
10690 0 2 -2.000 0.000 16.680 10.425
10691 0 2 -2.000 2.085 18.765 14.595
10692 0 2 -2.000 4.170 18.765 12.510
10693 0 2 -2.000 2.085 20.850 12.510
10694 0 2 -2.000 0.000 16.680 14.595
10695 0 2 -2.000 2.085 18.765 18.765
10696 0 2 -2.000 4.170 18.765 16.680
10697 0 2 -2.000 2.085 20.850 16.680
10698 0 2 -2.000 0.000 16.680 18.765
10699 0 2 -2.000 2.085 18.765 22.935
10700 0 2 -2.000 4.170 18.765 20.850
10701 0 2 -2.000 2.085 20.850 20.850
10702 0 2 -2.000 0.000 16.680 22.935
10703 0 2 -2.000 2.085 18.765 27.105
10704 0 2 -2.000 4.170 18.765 25.020
10705 0 2 -2.000 2.085 20.850 25.020
10706 0 2 -2.000 0.000 16.680 27.105
10707 0 2 -2.000 2.085 22.935 2.085
10708 0 2 -2.000 4.170 22.935 0.000
10709 0 2 -2.000 2.085 25.020 0.000
10710 0 2 -2.000 0.000 20.850 2.085
10711 0 2 -2.000 2.085 22.935 6.255
10712 0 2 -2.000 4.170 22.935 4.170
10713 0 2 -2.000 2.085 25.020 4.170
10714 0 2 -2.000 0.000 20.850 6.255
10715 0 2 -2.000 2.085 22.935 10.425
10716 0 2 -2.000 4.170 22.935 8.340
10717 0 2 -2.000 2.085 25.020 8.340
10718 0 2 -2.000 0.000 20.850 10.425
10719 0 2 -2.000 2.085 22.935 14.595
10720 0 2 -2.000 4.170 22.935 12.510
10721 0 2 -2.000 2.085 25.020 12.510
10722 0 2 -2.000 0.000 20.850 14.595
10723 0 2 -2.000 2.085 22.935 18.765
10724 0 2 -2.000 4.170 22.935 16.680
10725 0 2 -2.000 2.085 25.020 16.680
10726 0 2 -2.000 0.000 20.850 18.765
10727 0 2 -2.000 2.085 22.935 22.935
10728 0 2 -2.000 4.170 22.935 20.850
10729 0 2 -2.000 2.085 25.020 20.850
10730 0 2 -2.000 0.000 20.850 22.935
10731 0 2 -2.000 2.085 22.935 27.105
10732 0 2 -2.000 4.170 22.935 25.020
10733 0 2 -2.000 2.085 25.020 25.020
10734 0 2 -2.000 2.085 25.020 29.190
10735 0 2 -2.000 2.085 27.105 2.085
10736 0 2 -2.000 4.170 27.105 0.000
10737 0 2 -2.000 2.085 29.190 0.000
10738 0 2 -2.000 0.000 25.020 2.085
10739 0 2 -2.000 2.085 27.105 6.255
10740 0 2 -2.000 4.170 27.105 4.170
10741 0 2 -2.000 2.085 29.190 4.170
10742 0 2 -2.000 0.000 25.020 6.255
10743 0 2 -2.000 2.085 27.105 10.425
10744 0 2 -2.000 4.170 27.105 8.340
10745 0 2 -2.000 2.085 29.190 8.340
10746 0 2 -2.000 0.000 25.020 10.425
10747 0 2 -2.000 2.085 27.105 14.595
10748 0 2 -2.000 4.170 27.105 12.510
10749 0 2 -2.000 2.085 29.190 12.510
10750 0 2 -2.000 0.000 25.020 14.595
10751 0 2 -2.000 2.085 27.105 18.765
10752 0 2 -2.000 4.170 27.105 16.680
10753 0 2 -2.000 2.085 29.190 16.680
10754 0 2 -2.000 0.000 25.020 18.765
10755 0 2 -2.000 2.085 27.105 22.935
10756 0 2 -2.000 4.170 27.105 20.850
10757 0 2 -2.000 2.085 29.190 20.850
10758 0 2 -2.000 0.000 25.020 22.935
10759 0 2 -2.000 2.085 27.105 27.105
10760 0 2 -2.000 4.170 27.105 25.020
10761 0 2 -2.000 2.085 29.190 25.020
10762 0 2 -2.000 0.000 25.020 27.105
10763 0 2 -2.000 2.085 27.105 31.275
10764 0 2 -2.000 4.170 27.105 29.190
10765 0 2 -2.000 2.085 29.190 29.190
10766 0 2 -2.000 2.085 29.190 33.360
10767 0 2 -2.000 2.085 31.275 2.085
10768 0 2 -2.000 4.170 31.275 0.000
10769 0 2 -2.000 2.085 33.360 0.000
10770 0 2 -2.000 0.000 29.190 2.085
10771 0 2 -2.000 2.085 31.275 6.255
10772 0 2 -2.000 4.170 31.275 4.170
10773 0 2 -2.000 2.085 33.360 4.170
10774 0 2 -2.000 0.000 29.190 6.255
10775 0 2 -2.000 2.085 31.275 10.425
10776 0 2 -2.000 4.170 31.275 8.340
10777 0 2 -2.000 2.085 33.360 8.340
10778 0 2 -2.000 0.000 29.190 10.425
10779 0 2 -2.000 2.085 31.275 14.595
10780 0 2 -2.000 4.170 31.275 12.510
10781 0 2 -2.000 2.085 33.360 12.510
10782 0 2 -2.000 0.000 29.190 14.595
10783 0 2 -2.000 2.085 31.275 18.765
10784 0 2 -2.000 4.170 31.275 16.680
10785 0 2 -2.000 2.085 33.360 16.680
10786 0 2 -2.000 0.000 29.190 18.765
10787 0 2 -2.000 2.085 31.275 22.935
10788 0 2 -2.000 4.170 31.275 20.850
10789 0 2 -2.000 2.085 33.360 20.850
10790 0 2 -2.000 0.000 29.190 22.935
10791 0 2 -2.000 2.085 31.275 27.105
10792 0 2 -2.000 4.170 31.275 25.020
10793 0 2 -2.000 2.085 33.360 25.020
10794 0 2 -2.000 0.000 29.190 27.105
10795 0 2 -2.000 2.085 31.275 31.275
10796 0 2 -2.000 4.170 31.275 29.190
10797 0 2 -2.000 2.085 33.360 29.190
10798 0 2 -2.000 0.000 29.190 31.275
10799 0 2 -2.000 2.085 31.275 35.445
10800 0 2 -2.000 4.170 31.275 33.360
10801 0 2 -2.000 2.085 33.360 33.360
10802 0 2 -2.000 2.085 33.360 37.530
10803 0 2 -2.000 2.085 35.445 2.085
10804 0 2 -2.000 4.170 35.445 0.000
10805 0 2 -2.000 2.085 37.530 0.000
10806 0 2 -2.000 0.000 33.360 2.085
10807 0 2 -2.000 2.085 35.445 6.255
10808 0 2 -2.000 4.170 35.445 4.170
10809 0 2 -2.000 2.085 37.530 4.170
10810 0 2 -2.000 0.000 33.360 6.255
10811 0 2 -2.000 2.085 35.445 10.425
10812 0 2 -2.000 4.170 35.445 8.340
10813 0 2 -2.000 2.085 37.530 8.340
10814 0 2 -2.000 0.000 33.360 10.425
10815 0 2 -2.000 2.085 35.445 14.595
10816 0 2 -2.000 4.170 35.445 12.510
10817 0 2 -2.000 2.085 37.530 12.510
10818 0 2 -2.000 0.000 33.360 14.595
10819 0 2 -2.000 2.085 35.445 18.765
10820 0 2 -2.000 4.170 35.445 16.680
10821 0 2 -2.000 2.085 37.530 16.680
10822 0 2 -2.000 0.000 33.360 18.765
10823 0 2 -2.000 2.085 35.445 22.935
10824 0 2 -2.000 4.170 35.445 20.850
10825 0 2 -2.000 2.085 37.530 20.850
10826 0 2 -2.000 0.000 33.360 22.935
10827 0 2 -2.000 2.085 35.445 27.105
10828 0 2 -2.000 4.170 35.445 25.020
10829 0 2 -2.000 2.085 37.530 25.020
10830 0 2 -2.000 0.000 33.360 27.105
10831 0 2 -2.000 2.085 35.445 31.275
10832 0 2 -2.000 4.170 35.445 29.190
10833 0 2 -2.000 2.085 37.530 29.190
10834 0 2 -2.000 0.000 33.360 31.275
10835 0 2 -2.000 2.085 35.445 35.445
10836 0 2 -2.000 4.170 35.445 33.360
10837 0 2 -2.000 2.085 37.530 33.360
10838 0 2 -2.000 0.000 33.360 35.445
10839 0 2 -2.000 2.085 35.445 39.615
10840 0 2 -2.000 4.170 35.445 37.530
10841 0 2 -2.000 2.085 37.530 37.530
10842 0 2 -2.000 2.085 39.615 2.085
10843 0 2 -2.000 4.170 39.615 0.000
10844 0 2 -2.000 2.085 0.000 0.000
10845 0 2 -2.000 0.000 37.530 2.085
10846 0 2 -2.000 2.085 39.615 6.255
10847 0 2 -2.000 4.170 39.615 4.170
10848 0 2 -2.000 2.085 0.000 4.170
10849 0 2 -2.000 0.000 37.530 6.255
10850 0 2 -2.000 2.085 39.615 10.425
10851 0 2 -2.000 4.170 39.615 8.340
10852 0 2 -2.000 2.085 0.000 8.340
10853 0 2 -2.000 0.000 37.530 10.425
10854 0 2 -2.000 2.085 39.615 14.595
10855 0 2 -2.000 4.170 39.615 12.510
10856 0 2 -2.000 2.085 0.000 12.510
10857 0 2 -2.000 0.000 37.530 14.595
10858 0 2 -2.000 2.085 39.615 18.765
10859 0 2 -2.000 4.170 39.615 16.680
10860 0 2 -2.000 2.085 0.000 16.680
10861 0 2 -2.000 0.000 37.530 18.765
10862 0 2 -2.000 2.085 39.615 22.935
10863 0 2 -2.000 4.170 39.615 20.850
10864 0 2 -2.000 2.085 0.000 20.850
10865 0 2 -2.000 0.000 37.530 22.935
10866 0 2 -2.000 2.085 39.615 27.105
10867 0 2 -2.000 4.170 39.615 25.020
10868 0 2 -2.000 2.085 0.000 25.020
10869 0 2 -2.000 0.000 37.530 27.105
10870 0 2 -2.000 2.085 39.615 31.275
10871 0 2 -2.000 4.170 39.615 29.190
10872 0 2 -2.000 2.085 0.000 29.190
10873 0 2 -2.000 0.000 37.530 31.275
10874 0 2 -2.000 2.085 39.615 35.445
10875 0 2 -2.000 4.170 39.615 33.360
10876 0 2 -2.000 2.085 0.000 33.360
10877 0 2 -2.000 0.000 37.530 35.445
10878 0 2 -2.000 2.085 39.615 39.615
10879 0 2 -2.000 4.170 39.615 37.530
10880 0 2 -2.000 2.085 0.000 37.530
10881 0 2 -2.000 0.000 37.530 39.615
10882 0 2 -2.000 6.255 2.085 2.085
10883 0 2 -2.000 8.340 2.085 0.000
10884 0 2 -2.000 6.255 4.170 0.000
10885 0 2 -2.000 4.170 0.000 2.085
10886 0 2 -2.000 6.255 2.085 6.255
10887 0 2 -2.000 8.340 2.085 4.170
10888 0 2 -2.000 6.255 4.170 4.170
10889 0 2 -2.000 4.170 0.000 6.255
10890 0 2 -2.000 6.255 2.085 10.425
10891 0 2 -2.000 8.340 2.085 8.340
10892 0 2 -2.000 6.255 4.170 8.340
10893 0 2 -2.000 4.170 0.000 10.425
10894 0 2 -2.000 6.255 2.085 14.595
10895 0 2 -2.000 8.340 2.085 12.510
10896 0 2 -2.000 6.255 4.170 12.510
10897 0 2 -2.000 4.170 0.000 14.595
10898 0 2 -2.000 6.255 2.085 18.765
10899 0 2 -2.000 8.340 2.085 16.680
10900 0 2 -2.000 6.255 4.170 16.680
10901 0 2 -2.000 4.170 0.000 18.765
10902 0 2 -2.000 6.255 2.085 22.935
10903 0 2 -2.000 8.340 2.085 20.850
10904 0 2 -2.000 6.255 4.170 20.850
10905 0 2 -2.000 4.170 0.000 22.935
10906 0 2 -2.000 6.255 2.085 27.105
10907 0 2 -2.000 8.340 2.085 25.020
10908 0 2 -2.000 6.255 4.170 25.020
10909 0 2 -2.000 4.170 0.000 27.105
10910 0 2 -2.000 6.255 2.085 31.275
10911 0 2 -2.000 8.340 2.085 29.190
10912 0 2 -2.000 6.255 4.170 29.190
10913 0 2 -2.000 4.170 0.000 31.275
10914 0 2 -2.000 6.255 2.085 35.445
10915 0 2 -2.000 8.340 2.085 33.360
10916 0 2 -2.000 6.255 4.170 33.360
10917 0 2 -2.000 4.170 0.000 35.445
10918 0 2 -2.000 6.255 2.085 39.615
10919 0 2 -2.000 8.340 2.085 37.530
10920 0 2 -2.000 6.255 4.170 37.530
10921 0 2 -2.000 4.170 0.000 39.615
10922 0 2 -2.000 6.255 6.255 2.085
10923 0 2 -2.000 8.340 6.255 0.000
10924 0 2 -2.000 6.255 8.340 0.000
10925 0 2 -2.000 4.170 4.170 2.085
10926 0 2 -2.000 6.255 6.255 6.255
10927 0 2 -2.000 8.340 6.255 4.170
10928 0 2 -2.000 6.255 8.340 4.170
10929 0 2 -2.000 4.170 4.170 6.255
10930 0 2 -2.000 6.255 6.255 10.425
10931 0 2 -2.000 8.340 6.255 8.340
10932 0 2 -2.000 6.255 8.340 8.340
10933 0 2 -2.000 4.170 4.170 10.425
10934 0 2 -2.000 6.255 6.255 14.595
10935 0 2 -2.000 8.340 6.255 12.510
10936 0 2 -2.000 6.255 8.340 12.510
10937 0 2 -2.000 4.170 4.170 14.595
10938 0 2 -2.000 6.255 6.255 18.765
10939 0 2 -2.000 8.340 6.255 16.680
10940 0 2 -2.000 6.255 8.340 16.680
10941 0 2 -2.000 4.170 4.170 18.765
10942 0 2 -2.000 6.255 6.255 22.935
10943 0 2 -2.000 8.340 6.255 20.850
10944 0 2 -2.000 6.255 8.340 20.850
10945 0 2 -2.000 4.170 4.170 22.935
10946 0 2 -2.000 6.255 6.255 27.105
10947 0 2 -2.000 8.340 6.255 25.020
10948 0 2 -2.000 6.255 8.340 25.020
10949 0 2 -2.000 4.170 4.170 27.105
10950 0 2 -2.000 6.255 6.255 31.275
10951 0 2 -2.000 8.340 6.255 29.190
10952 0 2 -2.000 6.255 8.340 29.190
10953 0 2 -2.000 4.170 4.170 31.275
10954 0 2 -2.000 6.255 6.255 35.445
10955 0 2 -2.000 8.340 6.255 33.360
10956 0 2 -2.000 6.255 8.340 33.360
10957 0 2 -2.000 4.170 4.170 35.445
10958 0 2 -2.000 6.255 6.255 39.615
10959 0 2 -2.000 8.340 6.255 37.530
10960 0 2 -2.000 6.255 8.340 37.530
10961 0 2 -2.000 4.170 4.170 39.615
10962 0 2 -2.000 6.255 10.425 2.085
10963 0 2 -2.000 8.340 10.425 0.000
10964 0 2 -2.000 6.255 12.510 0.000
10965 0 2 -2.000 4.170 8.340 2.085
10966 0 2 -2.000 6.255 10.425 6.255
10967 0 2 -2.000 8.340 10.425 4.170
10968 0 2 -2.000 6.255 12.510 4.170
10969 0 2 -2.000 4.170 8.340 6.255
10970 0 2 -2.000 6.255 10.425 10.425
10971 0 2 -2.000 8.340 10.425 8.340
10972 0 2 -2.000 6.255 12.510 8.340
10973 0 2 -2.000 4.170 8.340 10.425
10974 0 2 -2.000 6.255 10.425 14.595
10975 0 2 -2.000 8.340 10.425 12.510
10976 0 2 -2.000 6.255 12.510 12.510
10977 0 2 -2.000 4.170 8.340 14.595
10978 0 2 -2.000 6.255 10.425 18.765
10979 0 2 -2.000 8.340 10.425 16.680
10980 0 2 -2.000 6.255 12.510 16.680
10981 0 2 -2.000 4.170 8.340 18.765
10982 0 2 -2.000 6.255 10.425 22.935
10983 0 2 -2.000 8.340 10.425 20.850
10984 0 2 -2.000 6.255 12.510 20.850
10985 0 2 -2.000 4.170 8.340 22.935
10986 0 2 -2.000 6.255 10.425 27.105
10987 0 2 -2.000 8.340 10.425 25.020
10988 0 2 -2.000 6.255 12.510 25.020
10989 0 2 -2.000 4.170 8.340 27.105
10990 0 2 -2.000 6.255 10.425 31.275
10991 0 2 -2.000 8.340 10.425 29.190
10992 0 2 -2.000 6.255 12.510 29.190
10993 0 2 -2.000 4.170 8.340 31.275
10994 0 2 -2.000 6.255 10.425 35.445
10995 0 2 -2.000 8.340 10.425 33.360
10996 0 2 -2.000 6.255 12.510 33.360
10997 0 2 -2.000 4.170 8.340 35.445
10998 0 2 -2.000 6.255 14.595 2.085
10999 0 2 -2.000 8.340 14.595 0.000
11000 0 2 -2.000 6.255 16.680 0.000
11001 0 2 -2.000 4.170 12.510 2.085
11002 0 2 -2.000 6.255 14.595 6.255
11003 0 2 -2.000 8.340 14.595 4.170
11004 0 2 -2.000 6.255 16.680 4.170
11005 0 2 -2.000 4.170 12.510 6.255
11006 0 2 -2.000 6.255 14.595 10.425
11007 0 2 -2.000 8.340 14.595 8.340
11008 0 2 -2.000 6.255 16.680 8.340
11009 0 2 -2.000 4.170 12.510 10.425
11010 0 2 -2.000 6.255 14.595 14.595
11011 0 2 -2.000 8.340 14.595 12.510
11012 0 2 -2.000 6.255 16.680 12.510
11013 0 2 -2.000 4.170 12.510 14.595
11014 0 2 -2.000 6.255 14.595 18.765
11015 0 2 -2.000 8.340 14.595 16.680
11016 0 2 -2.000 6.255 16.680 16.680
11017 0 2 -2.000 4.170 12.510 18.765
11018 0 2 -2.000 6.255 14.595 22.935
11019 0 2 -2.000 8.340 14.595 20.850
11020 0 2 -2.000 6.255 16.680 20.850
11021 0 2 -2.000 4.170 12.510 22.935
11022 0 2 -2.000 6.255 14.595 27.105
11023 0 2 -2.000 8.340 14.595 25.020
11024 0 2 -2.000 6.255 16.680 25.020
11025 0 2 -2.000 4.170 12.510 27.105
11026 0 2 -2.000 6.255 14.595 31.275
11027 0 2 -2.000 8.340 14.595 29.190
11028 0 2 -2.000 6.255 16.680 29.190
11029 0 2 -2.000 4.170 12.510 31.275
11030 0 2 -2.000 6.255 18.765 2.085
11031 0 2 -2.000 8.340 18.765 0.000
11032 0 2 -2.000 6.255 20.850 0.000
11033 0 2 -2.000 4.170 16.680 2.085
11034 0 2 -2.000 6.255 18.765 6.255
11035 0 2 -2.000 8.340 18.765 4.170
11036 0 2 -2.000 6.255 20.850 4.170
11037 0 2 -2.000 4.170 16.680 6.255
11038 0 2 -2.000 6.255 18.765 10.425
11039 0 2 -2.000 8.340 18.765 8.340
11040 0 2 -2.000 6.255 20.850 8.340
11041 0 2 -2.000 4.170 16.680 10.425
11042 0 2 -2.000 6.255 18.765 14.595
11043 0 2 -2.000 8.340 18.765 12.510
11044 0 2 -2.000 6.255 20.850 12.510
11045 0 2 -2.000 4.170 16.680 14.595
11046 0 2 -2.000 6.255 18.765 18.765
11047 0 2 -2.000 8.340 18.765 16.680
11048 0 2 -2.000 6.255 20.850 16.680
11049 0 2 -2.000 4.170 16.680 18.765
11050 0 2 -2.000 6.255 18.765 22.935
11051 0 2 -2.000 8.340 18.765 20.850
11052 0 2 -2.000 6.255 20.850 20.850
11053 0 2 -2.000 4.170 16.680 22.935
11054 0 2 -2.000 6.255 18.765 27.105
11055 0 2 -2.000 8.340 18.765 25.020
11056 0 2 -2.000 6.255 20.850 25.020
11057 0 2 -2.000 4.170 16.680 27.105
11058 0 2 -2.000 6.255 22.935 2.085
11059 0 2 -2.000 8.340 22.935 0.000
11060 0 2 -2.000 6.255 25.020 0.000
11061 0 2 -2.000 4.170 20.850 2.085
11062 0 2 -2.000 6.255 22.935 6.255
11063 0 2 -2.000 8.340 22.935 4.170
11064 0 2 -2.000 6.255 25.020 4.170
11065 0 2 -2.000 4.170 20.850 6.255
11066 0 2 -2.000 6.255 22.935 10.425
11067 0 2 -2.000 8.340 22.935 8.340
11068 0 2 -2.000 6.255 25.020 8.340
11069 0 2 -2.000 4.170 20.850 10.425
11070 0 2 -2.000 6.255 22.935 14.595
11071 0 2 -2.000 8.340 22.935 12.510
11072 0 2 -2.000 6.255 25.020 12.510
11073 0 2 -2.000 4.170 20.850 14.595
11074 0 2 -2.000 6.255 22.935 18.765
11075 0 2 -2.000 8.340 22.935 16.680
11076 0 2 -2.000 6.255 25.020 16.680
11077 0 2 -2.000 4.170 20.850 18.765
11078 0 2 -2.000 6.255 22.935 22.935
11079 0 2 -2.000 8.340 22.935 20.850
11080 0 2 -2.000 6.255 25.020 20.850
11081 0 2 -2.000 4.170 20.850 22.935
11082 0 2 -2.000 6.255 22.935 27.105
11083 0 2 -2.000 8.340 22.935 25.020
11084 0 2 -2.000 6.255 25.020 25.020
11085 0 2 -2.000 6.255 25.020 29.190
11086 0 2 -2.000 6.255 27.105 2.085
11087 0 2 -2.000 8.340 27.105 0.000
11088 0 2 -2.000 6.255 29.190 0.000
11089 0 2 -2.000 4.170 25.020 2.085
11090 0 2 -2.000 6.255 27.105 6.255
11091 0 2 -2.000 8.340 27.105 4.170
11092 0 2 -2.000 6.255 29.190 4.170
11093 0 2 -2.000 4.170 25.020 6.255
11094 0 2 -2.000 6.255 27.105 10.425
11095 0 2 -2.000 8.340 27.105 8.340
11096 0 2 -2.000 6.255 29.190 8.340
11097 0 2 -2.000 4.170 25.020 10.425
11098 0 2 -2.000 6.255 27.105 14.595
11099 0 2 -2.000 8.340 27.105 12.510
11100 0 2 -2.000 6.255 29.190 12.510
11101 0 2 -2.000 4.170 25.020 14.595
11102 0 2 -2.000 6.255 27.105 18.765
11103 0 2 -2.000 8.340 27.105 16.680
11104 0 2 -2.000 6.255 29.190 16.680
11105 0 2 -2.000 4.170 25.020 18.765
11106 0 2 -2.000 6.255 27.105 22.935
11107 0 2 -2.000 8.340 27.105 20.850
11108 0 2 -2.000 6.255 29.190 20.850
11109 0 2 -2.000 4.170 25.020 22.935
11110 0 2 -2.000 6.255 27.105 27.105
11111 0 2 -2.000 8.340 27.105 25.020
11112 0 2 -2.000 6.255 29.190 25.020
11113 0 2 -2.000 4.170 25.020 27.105
11114 0 2 -2.000 6.255 27.105 31.275
11115 0 2 -2.000 8.340 27.105 29.190
11116 0 2 -2.000 6.255 29.190 29.190
11117 0 2 -2.000 6.255 29.190 33.360
11118 0 2 -2.000 6.255 31.275 2.085
11119 0 2 -2.000 8.340 31.275 0.000
11120 0 2 -2.000 6.255 33.360 0.000
11121 0 2 -2.000 4.170 29.190 2.085
11122 0 2 -2.000 6.255 31.275 6.255
11123 0 2 -2.000 8.340 31.275 4.170
11124 0 2 -2.000 6.255 33.360 4.170
11125 0 2 -2.000 4.170 29.190 6.255
11126 0 2 -2.000 6.255 31.275 10.425
11127 0 2 -2.000 8.340 31.275 8.340
11128 0 2 -2.000 6.255 33.360 8.340
11129 0 2 -2.000 4.170 29.190 10.425
11130 0 2 -2.000 6.255 31.275 14.595
11131 0 2 -2.000 8.340 31.275 12.510
11132 0 2 -2.000 6.255 33.360 12.510
11133 0 2 -2.000 4.170 29.190 14.595
11134 0 2 -2.000 6.255 31.275 18.765
11135 0 2 -2.000 8.340 31.275 16.680
11136 0 2 -2.000 6.255 33.360 16.680
11137 0 2 -2.000 4.170 29.190 18.765
11138 0 2 -2.000 6.255 31.275 22.935
11139 0 2 -2.000 8.340 31.275 20.850
11140 0 2 -2.000 6.255 33.360 20.850
11141 0 2 -2.000 4.170 29.190 22.935
11142 0 2 -2.000 6.255 31.275 27.105
11143 0 2 -2.000 8.340 31.275 25.020
11144 0 2 -2.000 6.255 33.360 25.020
11145 0 2 -2.000 4.170 29.190 27.105
11146 0 2 -2.000 6.255 31.275 31.275
11147 0 2 -2.000 8.340 31.275 29.190
11148 0 2 -2.000 6.255 33.360 29.190
11149 0 2 -2.000 4.170 29.190 31.275
11150 0 2 -2.000 6.255 31.275 35.445
11151 0 2 -2.000 8.340 31.275 33.360
11152 0 2 -2.000 6.255 33.360 33.360
11153 0 2 -2.000 6.255 33.360 37.530
11154 0 2 -2.000 6.255 35.445 2.085
11155 0 2 -2.000 8.340 35.445 0.000
11156 0 2 -2.000 6.255 37.530 0.000
11157 0 2 -2.000 4.170 33.360 2.085
11158 0 2 -2.000 6.255 35.445 6.255
11159 0 2 -2.000 8.340 35.445 4.170
11160 0 2 -2.000 6.255 37.530 4.170
11161 0 2 -2.000 4.170 33.360 6.255
11162 0 2 -2.000 6.255 35.445 10.425
11163 0 2 -2.000 8.340 35.445 8.340
11164 0 2 -2.000 6.255 37.530 8.340
11165 0 2 -2.000 4.170 33.360 10.425
11166 0 2 -2.000 6.255 35.445 14.595
11167 0 2 -2.000 8.340 35.445 12.510
11168 0 2 -2.000 6.255 37.530 12.510
11169 0 2 -2.000 4.170 33.360 14.595
11170 0 2 -2.000 6.255 35.445 18.765
11171 0 2 -2.000 8.340 35.445 16.680
11172 0 2 -2.000 6.255 37.530 16.680
11173 0 2 -2.000 4.170 33.360 18.765
11174 0 2 -2.000 6.255 35.445 22.935
11175 0 2 -2.000 8.340 35.445 20.850
11176 0 2 -2.000 6.255 37.530 20.850
11177 0 2 -2.000 4.170 33.360 22.935
11178 0 2 -2.000 6.255 35.445 27.105
11179 0 2 -2.000 8.340 35.445 25.020
11180 0 2 -2.000 6.255 37.530 25.020
11181 0 2 -2.000 4.170 33.360 27.105
11182 0 2 -2.000 6.255 35.445 31.275
11183 0 2 -2.000 8.340 35.445 29.190
11184 0 2 -2.000 6.255 37.530 29.190
11185 0 2 -2.000 4.170 33.360 31.275
11186 0 2 -2.000 6.255 35.445 35.445
11187 0 2 -2.000 8.340 35.445 33.360
11188 0 2 -2.000 6.255 37.530 33.360
11189 0 2 -2.000 4.170 33.360 35.445
11190 0 2 -2.000 6.255 35.445 39.615
11191 0 2 -2.000 8.340 35.445 37.530
11192 0 2 -2.000 6.255 37.530 37.530
11193 0 2 -2.000 6.255 39.615 2.085
11194 0 2 -2.000 8.340 39.615 0.000
11195 0 2 -2.000 6.255 0.000 0.000
11196 0 2 -2.000 4.170 37.530 2.085
11197 0 2 -2.000 6.255 39.615 6.255
11198 0 2 -2.000 8.340 39.615 4.170
11199 0 2 -2.000 6.255 0.000 4.170
11200 0 2 -2.000 4.170 37.530 6.255
11201 0 2 -2.000 6.255 39.615 10.425
11202 0 2 -2.000 8.340 39.615 8.340
11203 0 2 -2.000 6.255 0.000 8.340
11204 0 2 -2.000 4.170 37.530 10.425
11205 0 2 -2.000 6.255 39.615 14.595
11206 0 2 -2.000 8.340 39.615 12.510
11207 0 2 -2.000 6.255 0.000 12.510
11208 0 2 -2.000 4.170 37.530 14.595
11209 0 2 -2.000 6.255 39.615 18.765
11210 0 2 -2.000 8.340 39.615 16.680
11211 0 2 -2.000 6.255 0.000 16.680
11212 0 2 -2.000 4.170 37.530 18.765
11213 0 2 -2.000 6.255 39.615 22.935
11214 0 2 -2.000 8.340 39.615 20.850
11215 0 2 -2.000 6.255 0.000 20.850
11216 0 2 -2.000 4.170 37.530 22.935
11217 0 2 -2.000 6.255 39.615 27.105
11218 0 2 -2.000 8.340 39.615 25.020
11219 0 2 -2.000 6.255 0.000 25.020
11220 0 2 -2.000 4.170 37.530 27.105
11221 0 2 -2.000 6.255 39.615 31.275
11222 0 2 -2.000 8.340 39.615 29.190
11223 0 2 -2.000 6.255 0.000 29.190
11224 0 2 -2.000 4.170 37.530 31.275
11225 0 2 -2.000 6.255 39.615 35.445
11226 0 2 -2.000 8.340 39.615 33.360
11227 0 2 -2.000 6.255 0.000 33.360
11228 0 2 -2.000 4.170 37.530 35.445
11229 0 2 -2.000 6.255 39.615 39.615
11230 0 2 -2.000 8.340 39.615 37.530
11231 0 2 -2.000 6.255 0.000 37.530
11232 0 2 -2.000 4.170 37.530 39.615
11233 0 2 -2.000 10.425 2.085 2.085
11234 0 2 -2.000 12.510 2.085 0.000
11235 0 2 -2.000 10.425 4.170 0.000
11236 0 2 -2.000 8.340 0.000 2.085
11237 0 2 -2.000 10.425 2.085 6.255
11238 0 2 -2.000 12.510 2.085 4.170
11239 0 2 -2.000 10.425 4.170 4.170
11240 0 2 -2.000 8.340 0.000 6.255
11241 0 2 -2.000 10.425 2.085 10.425
11242 0 2 -2.000 12.510 2.085 8.340
11243 0 2 -2.000 10.425 4.170 8.340
11244 0 2 -2.000 8.340 0.000 10.425
11245 0 2 -2.000 10.425 2.085 14.595
11246 0 2 -2.000 12.510 2.085 12.510
11247 0 2 -2.000 10.425 4.170 12.510
11248 0 2 -2.000 8.340 0.000 14.595
11249 0 2 -2.000 10.425 2.085 18.765
11250 0 2 -2.000 12.510 2.085 16.680
11251 0 2 -2.000 10.425 4.170 16.680
11252 0 2 -2.000 8.340 0.000 18.765
11253 0 2 -2.000 10.425 2.085 22.935
11254 0 2 -2.000 12.510 2.085 20.850
11255 0 2 -2.000 10.425 4.170 20.850
11256 0 2 -2.000 8.340 0.000 22.935
11257 0 2 -2.000 10.425 2.085 27.105
11258 0 2 -2.000 12.510 2.085 25.020
11259 0 2 -2.000 10.425 4.170 25.020
11260 0 2 -2.000 8.340 0.000 27.105
11261 0 2 -2.000 10.425 2.085 31.275
11262 0 2 -2.000 12.510 2.085 29.190
11263 0 2 -2.000 10.425 4.170 29.190
11264 0 2 -2.000 8.340 0.000 31.275
11265 0 2 -2.000 10.425 2.085 35.445
11266 0 2 -2.000 12.510 2.085 33.360
11267 0 2 -2.000 10.425 4.170 33.360
11268 0 2 -2.000 8.340 0.000 35.445
11269 0 2 -2.000 10.425 2.085 39.615
11270 0 2 -2.000 12.510 2.085 37.530
11271 0 2 -2.000 10.425 4.170 37.530
11272 0 2 -2.000 8.340 0.000 39.615
11273 0 2 -2.000 10.425 6.255 2.085
11274 0 2 -2.000 12.510 6.255 0.000
11275 0 2 -2.000 10.425 8.340 0.000
11276 0 2 -2.000 8.340 4.170 2.085
11277 0 2 -2.000 10.425 6.255 6.255
11278 0 2 -2.000 12.510 6.255 4.170
11279 0 2 -2.000 10.425 8.340 4.170
11280 0 2 -2.000 8.340 4.170 6.255
11281 0 2 -2.000 10.425 6.255 10.425
11282 0 2 -2.000 12.510 6.255 8.340
11283 0 2 -2.000 10.425 8.340 8.340
11284 0 2 -2.000 8.340 4.170 10.425
11285 0 2 -2.000 10.425 6.255 14.595
11286 0 2 -2.000 12.510 6.255 12.510
11287 0 2 -2.000 10.425 8.340 12.510
11288 0 2 -2.000 8.340 4.170 14.595
11289 0 2 -2.000 10.425 6.255 18.765
11290 0 2 -2.000 12.510 6.255 16.680
11291 0 2 -2.000 10.425 8.340 16.680
11292 0 2 -2.000 8.340 4.170 18.765
11293 0 2 -2.000 10.425 6.255 22.935
11294 0 2 -2.000 12.510 6.255 20.850
11295 0 2 -2.000 10.425 8.340 20.850
11296 0 2 -2.000 8.340 4.170 22.935
11297 0 2 -2.000 10.425 6.255 27.105
11298 0 2 -2.000 12.510 6.255 25.020
11299 0 2 -2.000 10.425 8.340 25.020
11300 0 2 -2.000 8.340 4.170 27.105
11301 0 2 -2.000 10.425 6.255 31.275
11302 0 2 -2.000 12.510 6.255 29.190
11303 0 2 -2.000 10.425 8.340 29.190
11304 0 2 -2.000 8.340 4.170 31.275
11305 0 2 -2.000 10.425 6.255 35.445
11306 0 2 -2.000 12.510 6.255 33.360
11307 0 2 -2.000 10.425 8.340 33.360
11308 0 2 -2.000 8.340 4.170 35.445
11309 0 2 -2.000 10.425 6.255 39.615
11310 0 2 -2.000 12.510 6.255 37.530
11311 0 2 -2.000 10.425 8.340 37.530
11312 0 2 -2.000 8.340 4.170 39.615
11313 0 2 -2.000 10.425 10.425 2.085
11314 0 2 -2.000 12.510 10.425 0.000
11315 0 2 -2.000 10.425 12.510 0.000
11316 0 2 -2.000 8.340 8.340 2.085
11317 0 2 -2.000 10.425 10.425 6.255
11318 0 2 -2.000 12.510 10.425 4.170
11319 0 2 -2.000 10.425 12.510 4.170
11320 0 2 -2.000 8.340 8.340 6.255
11321 0 2 -2.000 10.425 10.425 10.425
11322 0 2 -2.000 12.510 10.425 8.340
11323 0 2 -2.000 10.425 12.510 8.340
11324 0 2 -2.000 8.340 8.340 10.425
11325 0 2 -2.000 10.425 10.425 14.595
11326 0 2 -2.000 12.510 10.425 12.510
11327 0 2 -2.000 10.425 12.510 12.510
11328 0 2 -2.000 8.340 8.340 14.595
11329 0 2 -2.000 10.425 10.425 18.765
11330 0 2 -2.000 12.510 10.425 16.680
11331 0 2 -2.000 10.425 12.510 16.680
11332 0 2 -2.000 8.340 8.340 18.765
11333 0 2 -2.000 10.425 10.425 22.935
11334 0 2 -2.000 12.510 10.425 20.850
11335 0 2 -2.000 10.425 12.510 20.850
11336 0 2 -2.000 8.340 8.340 22.935
11337 0 2 -2.000 10.425 10.425 27.105
11338 0 2 -2.000 12.510 10.425 25.020
11339 0 2 -2.000 10.425 12.510 25.020
11340 0 2 -2.000 8.340 8.340 27.105
11341 0 2 -2.000 10.425 10.425 31.275
11342 0 2 -2.000 12.510 10.425 29.190
11343 0 2 -2.000 10.425 12.510 29.190
11344 0 2 -2.000 8.340 8.340 31.275
11345 0 2 -2.000 10.425 10.425 35.445
11346 0 2 -2.000 12.510 10.425 33.360
11347 0 2 -2.000 10.425 12.510 33.360
11348 0 2 -2.000 8.340 8.340 35.445
11349 0 2 -2.000 10.425 14.595 2.085
11350 0 2 -2.000 12.510 14.595 0.000
11351 0 2 -2.000 10.425 16.680 0.000
11352 0 2 -2.000 8.340 12.510 2.085
11353 0 2 -2.000 10.425 14.595 6.255
11354 0 2 -2.000 12.510 14.595 4.170
11355 0 2 -2.000 10.425 16.680 4.170
11356 0 2 -2.000 8.340 12.510 6.255
11357 0 2 -2.000 10.425 14.595 10.425
11358 0 2 -2.000 12.510 14.595 8.340
11359 0 2 -2.000 10.425 16.680 8.340
11360 0 2 -2.000 8.340 12.510 10.425
11361 0 2 -2.000 10.425 14.595 14.595
11362 0 2 -2.000 12.510 14.595 12.510
11363 0 2 -2.000 10.425 16.680 12.510
11364 0 2 -2.000 8.340 12.510 14.595
11365 0 2 -2.000 10.425 14.595 18.765
11366 0 2 -2.000 12.510 14.595 16.680
11367 0 2 -2.000 10.425 16.680 16.680
11368 0 2 -2.000 8.340 12.510 18.765
11369 0 2 -2.000 10.425 14.595 22.935
11370 0 2 -2.000 12.510 14.595 20.850
11371 0 2 -2.000 10.425 16.680 20.850
11372 0 2 -2.000 8.340 12.510 22.935
11373 0 2 -2.000 10.425 14.595 27.105
11374 0 2 -2.000 12.510 14.595 25.020
11375 0 2 -2.000 10.425 16.680 25.020
11376 0 2 -2.000 8.340 12.510 27.105
11377 0 2 -2.000 10.425 14.595 31.275
11378 0 2 -2.000 12.510 14.595 29.190
11379 0 2 -2.000 10.425 16.680 29.190
11380 0 2 -2.000 8.340 12.510 31.275
11381 0 2 -2.000 10.425 18.765 2.085
11382 0 2 -2.000 12.510 18.765 0.000
11383 0 2 -2.000 10.425 20.850 0.000
11384 0 2 -2.000 8.340 16.680 2.085
11385 0 2 -2.000 10.425 18.765 6.255
11386 0 2 -2.000 12.510 18.765 4.170
11387 0 2 -2.000 10.425 20.850 4.170
11388 0 2 -2.000 8.340 16.680 6.255
11389 0 2 -2.000 10.425 18.765 10.425
11390 0 2 -2.000 12.510 18.765 8.340
11391 0 2 -2.000 10.425 20.850 8.340
11392 0 2 -2.000 8.340 16.680 10.425
11393 0 2 -2.000 10.425 18.765 14.595
11394 0 2 -2.000 12.510 18.765 12.510
11395 0 2 -2.000 10.425 20.850 12.510
11396 0 2 -2.000 8.340 16.680 14.595
11397 0 2 -2.000 10.425 18.765 18.765
11398 0 2 -2.000 12.510 18.765 16.680
11399 0 2 -2.000 10.425 20.850 16.680
11400 0 2 -2.000 8.340 16.680 18.765
11401 0 2 -2.000 10.425 18.765 22.935
11402 0 2 -2.000 12.510 18.765 20.850
11403 0 2 -2.000 10.425 20.850 20.850
11404 0 2 -2.000 8.340 16.680 22.935
11405 0 2 -2.000 10.425 18.765 27.105
11406 0 2 -2.000 12.510 18.765 25.020
11407 0 2 -2.000 10.425 20.850 25.020
11408 0 2 -2.000 8.340 16.680 27.105
11409 0 2 -2.000 10.425 22.935 2.085
11410 0 2 -2.000 12.510 22.935 0.000
11411 0 2 -2.000 10.425 25.020 0.000
11412 0 2 -2.000 8.340 20.850 2.085
11413 0 2 -2.000 10.425 22.935 6.255
11414 0 2 -2.000 12.510 22.935 4.170
11415 0 2 -2.000 10.425 25.020 4.170
11416 0 2 -2.000 8.340 20.850 6.255
11417 0 2 -2.000 10.425 22.935 10.425
11418 0 2 -2.000 12.510 22.935 8.340
11419 0 2 -2.000 10.425 25.020 8.340
11420 0 2 -2.000 8.340 20.850 10.425
11421 0 2 -2.000 10.425 22.935 14.595
11422 0 2 -2.000 12.510 22.935 12.510
11423 0 2 -2.000 10.425 25.020 12.510
11424 0 2 -2.000 8.340 20.850 14.595
11425 0 2 -2.000 10.425 22.935 18.765
11426 0 2 -2.000 12.510 22.935 16.680
11427 0 2 -2.000 10.425 25.020 16.680
11428 0 2 -2.000 8.340 20.850 18.765
11429 0 2 -2.000 10.425 22.935 22.935
11430 0 2 -2.000 12.510 22.935 20.850
11431 0 2 -2.000 10.425 25.020 20.850
11432 0 2 -2.000 8.340 20.850 22.935
11433 0 2 -2.000 10.425 22.935 27.105
11434 0 2 -2.000 12.510 22.935 25.020
11435 0 2 -2.000 10.425 25.020 25.020
11436 0 2 -2.000 10.425 25.020 29.190
11437 0 2 -2.000 10.425 27.105 2.085
11438 0 2 -2.000 12.510 27.105 0.000
11439 0 2 -2.000 10.425 29.190 0.000
11440 0 2 -2.000 8.340 25.020 2.085
11441 0 2 -2.000 10.425 27.105 6.255
11442 0 2 -2.000 12.510 27.105 4.170
11443 0 2 -2.000 10.425 29.190 4.170
11444 0 2 -2.000 8.340 25.020 6.255
11445 0 2 -2.000 10.425 27.105 10.425
11446 0 2 -2.000 12.510 27.105 8.340
11447 0 2 -2.000 10.425 29.190 8.340
11448 0 2 -2.000 8.340 25.020 10.425
11449 0 2 -2.000 10.425 27.105 14.595
11450 0 2 -2.000 12.510 27.105 12.510
11451 0 2 -2.000 10.425 29.190 12.510
11452 0 2 -2.000 8.340 25.020 14.595
11453 0 2 -2.000 10.425 27.105 18.765
11454 0 2 -2.000 12.510 27.105 16.680
11455 0 2 -2.000 10.425 29.190 16.680
11456 0 2 -2.000 8.340 25.020 18.765
11457 0 2 -2.000 10.425 27.105 22.935
11458 0 2 -2.000 12.510 27.105 20.850
11459 0 2 -2.000 10.425 29.190 20.850
11460 0 2 -2.000 8.340 25.020 22.935
11461 0 2 -2.000 10.425 27.105 27.105
11462 0 2 -2.000 12.510 27.105 25.020
11463 0 2 -2.000 10.425 29.190 25.020
11464 0 2 -2.000 8.340 25.020 27.105
11465 0 2 -2.000 10.425 27.105 31.275
11466 0 2 -2.000 12.510 27.105 29.190
11467 0 2 -2.000 10.425 29.190 29.190
11468 0 2 -2.000 10.425 29.190 33.360
11469 0 2 -2.000 10.425 31.275 2.085
11470 0 2 -2.000 12.510 31.275 0.000
11471 0 2 -2.000 10.425 33.360 0.000
11472 0 2 -2.000 8.340 29.190 2.085
11473 0 2 -2.000 10.425 31.275 6.255
11474 0 2 -2.000 12.510 31.275 4.170
11475 0 2 -2.000 10.425 33.360 4.170
11476 0 2 -2.000 8.340 29.190 6.255
11477 0 2 -2.000 10.425 31.275 10.425
11478 0 2 -2.000 12.510 31.275 8.340
11479 0 2 -2.000 10.425 33.360 8.340
11480 0 2 -2.000 8.340 29.190 10.425
11481 0 2 -2.000 10.425 31.275 14.595
11482 0 2 -2.000 12.510 31.275 12.510
11483 0 2 -2.000 10.425 33.360 12.510
11484 0 2 -2.000 8.340 29.190 14.595
11485 0 2 -2.000 10.425 31.275 18.765
11486 0 2 -2.000 12.510 31.275 16.680
11487 0 2 -2.000 10.425 33.360 16.680
11488 0 2 -2.000 8.340 29.190 18.765
11489 0 2 -2.000 10.425 31.275 22.935
11490 0 2 -2.000 12.510 31.275 20.850
11491 0 2 -2.000 10.425 33.360 20.850
11492 0 2 -2.000 8.340 29.190 22.935
11493 0 2 -2.000 10.425 31.275 27.105
11494 0 2 -2.000 12.510 31.275 25.020
11495 0 2 -2.000 10.425 33.360 25.020
11496 0 2 -2.000 8.340 29.190 27.105
11497 0 2 -2.000 10.425 31.275 31.275
11498 0 2 -2.000 12.510 31.275 29.190
11499 0 2 -2.000 10.425 33.360 29.190
11500 0 2 -2.000 8.340 29.190 31.275
11501 0 2 -2.000 10.425 31.275 35.445
11502 0 2 -2.000 12.510 31.275 33.360
11503 0 2 -2.000 10.425 33.360 33.360
11504 0 2 -2.000 10.425 33.360 37.530
11505 0 2 -2.000 10.425 35.445 2.085
11506 0 2 -2.000 12.510 35.445 0.000
11507 0 2 -2.000 10.425 37.530 0.000
11508 0 2 -2.000 8.340 33.360 2.085
11509 0 2 -2.000 10.425 35.445 6.255
11510 0 2 -2.000 12.510 35.445 4.170
11511 0 2 -2.000 10.425 37.530 4.170
11512 0 2 -2.000 8.340 33.360 6.255
11513 0 2 -2.000 10.425 35.445 10.425
11514 0 2 -2.000 12.510 35.445 8.340
11515 0 2 -2.000 10.425 37.530 8.340
11516 0 2 -2.000 8.340 33.360 10.425
11517 0 2 -2.000 10.425 35.445 14.595
11518 0 2 -2.000 12.510 35.445 12.510
11519 0 2 -2.000 10.425 37.530 12.510
11520 0 2 -2.000 8.340 33.360 14.595
11521 0 2 -2.000 10.425 35.445 18.765
11522 0 2 -2.000 12.510 35.445 16.680
11523 0 2 -2.000 10.425 37.530 16.680
11524 0 2 -2.000 8.340 33.360 18.765
11525 0 2 -2.000 10.425 35.445 22.935
11526 0 2 -2.000 12.510 35.445 20.850
11527 0 2 -2.000 10.425 37.530 20.850
11528 0 2 -2.000 8.340 33.360 22.935
11529 0 2 -2.000 10.425 35.445 27.105
11530 0 2 -2.000 12.510 35.445 25.020
11531 0 2 -2.000 10.425 37.530 25.020
11532 0 2 -2.000 8.340 33.360 27.105
11533 0 2 -2.000 10.425 35.445 31.275
11534 0 2 -2.000 12.510 35.445 29.190
11535 0 2 -2.000 10.425 37.530 29.190
11536 0 2 -2.000 8.340 33.360 31.275
11537 0 2 -2.000 10.425 35.445 35.445
11538 0 2 -2.000 12.510 35.445 33.360
11539 0 2 -2.000 10.425 37.530 33.360
11540 0 2 -2.000 8.340 33.360 35.445
11541 0 2 -2.000 10.425 35.445 39.615
11542 0 2 -2.000 12.510 35.445 37.530
11543 0 2 -2.000 10.425 37.530 37.530
11544 0 2 -2.000 10.425 39.615 2.085
11545 0 2 -2.000 12.510 39.615 0.000
11546 0 2 -2.000 10.425 0.000 0.000
11547 0 2 -2.000 8.340 37.530 2.085
11548 0 2 -2.000 10.425 39.615 6.255
11549 0 2 -2.000 12.510 39.615 4.170
11550 0 2 -2.000 10.425 0.000 4.170
11551 0 2 -2.000 8.340 37.530 6.255
11552 0 2 -2.000 10.425 39.615 10.425
11553 0 2 -2.000 12.510 39.615 8.340
11554 0 2 -2.000 10.425 0.000 8.340
11555 0 2 -2.000 8.340 37.530 10.425
11556 0 2 -2.000 10.425 39.615 14.595
11557 0 2 -2.000 12.510 39.615 12.510
11558 0 2 -2.000 10.425 0.000 12.510
11559 0 2 -2.000 8.340 37.530 14.595
11560 0 2 -2.000 10.425 39.615 18.765
11561 0 2 -2.000 12.510 39.615 16.680
11562 0 2 -2.000 10.425 0.000 16.680
11563 0 2 -2.000 8.340 37.530 18.765
11564 0 2 -2.000 10.425 39.615 22.935
11565 0 2 -2.000 12.510 39.615 20.850
11566 0 2 -2.000 10.425 0.000 20.850
11567 0 2 -2.000 8.340 37.530 22.935
11568 0 2 -2.000 10.425 39.615 27.105
11569 0 2 -2.000 12.510 39.615 25.020
11570 0 2 -2.000 10.425 0.000 25.020
11571 0 2 -2.000 8.340 37.530 27.105
11572 0 2 -2.000 10.425 39.615 31.275
11573 0 2 -2.000 12.510 39.615 29.190
11574 0 2 -2.000 10.425 0.000 29.190
11575 0 2 -2.000 8.340 37.530 31.275
11576 0 2 -2.000 10.425 39.615 35.445
11577 0 2 -2.000 12.510 39.615 33.360
11578 0 2 -2.000 10.425 0.000 33.360
11579 0 2 -2.000 8.340 37.530 35.445
11580 0 2 -2.000 10.425 39.615 39.615
11581 0 2 -2.000 12.510 39.615 37.530
11582 0 2 -2.000 10.425 0.000 37.530
11583 0 2 -2.000 8.340 37.530 39.615
11584 0 2 -2.000 14.595 2.085 2.085
11585 0 2 -2.000 16.680 2.085 0.000
11586 0 2 -2.000 14.595 4.170 0.000
11587 0 2 -2.000 12.510 0.000 2.085
11588 0 2 -2.000 14.595 2.085 6.255
11589 0 2 -2.000 16.680 2.085 4.170
11590 0 2 -2.000 14.595 4.170 4.170
11591 0 2 -2.000 12.510 0.000 6.255
11592 0 2 -2.000 14.595 2.085 10.425
11593 0 2 -2.000 16.680 2.085 8.340
11594 0 2 -2.000 14.595 4.170 8.340
11595 0 2 -2.000 12.510 0.000 10.425
11596 0 2 -2.000 14.595 2.085 14.595
11597 0 2 -2.000 16.680 2.085 12.510
11598 0 2 -2.000 14.595 4.170 12.510
11599 0 2 -2.000 12.510 0.000 14.595
11600 0 2 -2.000 14.595 2.085 18.765
11601 0 2 -2.000 16.680 2.085 16.680
11602 0 2 -2.000 14.595 4.170 16.680
11603 0 2 -2.000 12.510 0.000 18.765
11604 0 2 -2.000 14.595 2.085 22.935
11605 0 2 -2.000 16.680 2.085 20.850
11606 0 2 -2.000 14.595 4.170 20.850
11607 0 2 -2.000 12.510 0.000 22.935
11608 0 2 -2.000 14.595 2.085 27.105
11609 0 2 -2.000 16.680 2.085 25.020
11610 0 2 -2.000 14.595 4.170 25.020
11611 0 2 -2.000 12.510 0.000 27.105
11612 0 2 -2.000 14.595 2.085 31.275
11613 0 2 -2.000 16.680 2.085 29.190
11614 0 2 -2.000 14.595 4.170 29.190
11615 0 2 -2.000 12.510 0.000 31.275
11616 0 2 -2.000 14.595 2.085 35.445
11617 0 2 -2.000 16.680 2.085 33.360
11618 0 2 -2.000 14.595 4.170 33.360
11619 0 2 -2.000 12.510 0.000 35.445
11620 0 2 -2.000 14.595 2.085 39.615
11621 0 2 -2.000 16.680 2.085 37.530
11622 0 2 -2.000 14.595 4.170 37.530
11623 0 2 -2.000 12.510 0.000 39.615
11624 0 2 -2.000 14.595 6.255 2.085
11625 0 2 -2.000 16.680 6.255 0.000
11626 0 2 -2.000 14.595 8.340 0.000
11627 0 2 -2.000 12.510 4.170 2.085
11628 0 2 -2.000 14.595 6.255 6.255
11629 0 2 -2.000 16.680 6.255 4.170
11630 0 2 -2.000 14.595 8.340 4.170
11631 0 2 -2.000 12.510 4.170 6.255
11632 0 2 -2.000 14.595 6.255 10.425
11633 0 2 -2.000 16.680 6.255 8.340
11634 0 2 -2.000 14.595 8.340 8.340
11635 0 2 -2.000 12.510 4.170 10.425
11636 0 2 -2.000 14.595 6.255 14.595
11637 0 2 -2.000 16.680 6.255 12.510
11638 0 2 -2.000 14.595 8.340 12.510
11639 0 2 -2.000 12.510 4.170 14.595
11640 0 2 -2.000 14.595 6.255 18.765
11641 0 2 -2.000 16.680 6.255 16.680
11642 0 2 -2.000 14.595 8.340 16.680
11643 0 2 -2.000 12.510 4.170 18.765
11644 0 2 -2.000 14.595 6.255 22.935
11645 0 2 -2.000 16.680 6.255 20.850
11646 0 2 -2.000 14.595 8.340 20.850
11647 0 2 -2.000 12.510 4.170 22.935
11648 0 2 -2.000 14.595 6.255 27.105
11649 0 2 -2.000 16.680 6.255 25.020
11650 0 2 -2.000 14.595 8.340 25.020
11651 0 2 -2.000 12.510 4.170 27.105
11652 0 2 -2.000 14.595 6.255 31.275
11653 0 2 -2.000 16.680 6.255 29.190
11654 0 2 -2.000 14.595 8.340 29.190
11655 0 2 -2.000 12.510 4.170 31.275
11656 0 2 -2.000 14.595 6.255 35.445
11657 0 2 -2.000 16.680 6.255 33.360
11658 0 2 -2.000 14.595 8.340 33.360
11659 0 2 -2.000 12.510 4.170 35.445
11660 0 2 -2.000 14.595 6.255 39.615
11661 0 2 -2.000 16.680 6.255 37.530
11662 0 2 -2.000 14.595 8.340 37.530
11663 0 2 -2.000 12.510 4.170 39.615
11664 0 2 -2.000 14.595 10.425 2.085
11665 0 2 -2.000 16.680 10.425 0.000
11666 0 2 -2.000 14.595 12.510 0.000
11667 0 2 -2.000 12.510 8.340 2.085
11668 0 2 -2.000 14.595 10.425 6.255
11669 0 2 -2.000 16.680 10.425 4.170
11670 0 2 -2.000 14.595 12.510 4.170
11671 0 2 -2.000 12.510 8.340 6.255
11672 0 2 -2.000 14.595 10.425 10.425
11673 0 2 -2.000 16.680 10.425 8.340
11674 0 2 -2.000 14.595 12.510 8.340
11675 0 2 -2.000 12.510 8.340 10.425
11676 0 2 -2.000 14.595 10.425 14.595
11677 0 2 -2.000 16.680 10.425 12.510
11678 0 2 -2.000 14.595 12.510 12.510
11679 0 2 -2.000 12.510 8.340 14.595
11680 0 2 -2.000 14.595 10.425 18.765
11681 0 2 -2.000 16.680 10.425 16.680
11682 0 2 -2.000 14.595 12.510 16.680
11683 0 2 -2.000 12.510 8.340 18.765
11684 0 2 -2.000 14.595 10.425 22.935
11685 0 2 -2.000 16.680 10.425 20.850
11686 0 2 -2.000 14.595 12.510 20.850
11687 0 2 -2.000 12.510 8.340 22.935
11688 0 2 -2.000 14.595 10.425 27.105
11689 0 2 -2.000 16.680 10.425 25.020
11690 0 2 -2.000 14.595 12.510 25.020
11691 0 2 -2.000 12.510 8.340 27.105
11692 0 2 -2.000 14.595 10.425 31.275
11693 0 2 -2.000 16.680 10.425 29.190
11694 0 2 -2.000 14.595 12.510 29.190
11695 0 2 -2.000 12.510 8.340 31.275
11696 0 2 -2.000 14.595 10.425 35.445
11697 0 2 -2.000 16.680 10.425 33.360
11698 0 2 -2.000 14.595 12.510 33.360
11699 0 2 -2.000 12.510 8.340 35.445
11700 0 2 -2.000 14.595 14.595 2.085
11701 0 2 -2.000 16.680 14.595 0.000
11702 0 2 -2.000 14.595 16.680 0.000
11703 0 2 -2.000 12.510 12.510 2.085
11704 0 2 -2.000 14.595 14.595 6.255
11705 0 2 -2.000 16.680 14.595 4.170
11706 0 2 -2.000 14.595 16.680 4.170
11707 0 2 -2.000 12.510 12.510 6.255
11708 0 2 -2.000 14.595 14.595 10.425
11709 0 2 -2.000 16.680 14.595 8.340
11710 0 2 -2.000 14.595 16.680 8.340
11711 0 2 -2.000 12.510 12.510 10.425
11712 0 2 -2.000 14.595 14.595 14.595
11713 0 2 -2.000 16.680 14.595 12.510
11714 0 2 -2.000 14.595 16.680 12.510
11715 0 2 -2.000 12.510 12.510 14.595
11716 0 2 -2.000 14.595 14.595 18.765
11717 0 2 -2.000 16.680 14.595 16.680
11718 0 2 -2.000 14.595 16.680 16.680
11719 0 2 -2.000 12.510 12.510 18.765
11720 0 2 -2.000 14.595 14.595 22.935
11721 0 2 -2.000 16.680 14.595 20.850
11722 0 2 -2.000 14.595 16.680 20.850
11723 0 2 -2.000 12.510 12.510 22.935
11724 0 2 -2.000 14.595 14.595 27.105
11725 0 2 -2.000 16.680 14.595 25.020
11726 0 2 -2.000 14.595 16.680 25.020
11727 0 2 -2.000 12.510 12.510 27.105
11728 0 2 -2.000 14.595 14.595 31.275
11729 0 2 -2.000 16.680 14.595 29.190
11730 0 2 -2.000 14.595 16.680 29.190
11731 0 2 -2.000 12.510 12.510 31.275
11732 0 2 -2.000 14.595 18.765 2.085
11733 0 2 -2.000 16.680 18.765 0.000
11734 0 2 -2.000 14.595 20.850 0.000
11735 0 2 -2.000 12.510 16.680 2.085
11736 0 2 -2.000 14.595 18.765 6.255
11737 0 2 -2.000 16.680 18.765 4.170
11738 0 2 -2.000 14.595 20.850 4.170
11739 0 2 -2.000 12.510 16.680 6.255
11740 0 2 -2.000 14.595 18.765 10.425
11741 0 2 -2.000 16.680 18.765 8.340
11742 0 2 -2.000 14.595 20.850 8.340
11743 0 2 -2.000 12.510 16.680 10.425
11744 0 2 -2.000 14.595 18.765 14.595
11745 0 2 -2.000 16.680 18.765 12.510
11746 0 2 -2.000 14.595 20.850 12.510
11747 0 2 -2.000 12.510 16.680 14.595
11748 0 2 -2.000 14.595 18.765 18.765
11749 0 2 -2.000 16.680 18.765 16.680
11750 0 2 -2.000 14.595 20.850 16.680
11751 0 2 -2.000 12.510 16.680 18.765
11752 0 2 -2.000 14.595 18.765 22.935
11753 0 2 -2.000 16.680 18.765 20.850
11754 0 2 -2.000 14.595 20.850 20.850
11755 0 2 -2.000 12.510 16.680 22.935
11756 0 2 -2.000 14.595 18.765 27.105
11757 0 2 -2.000 16.680 18.765 25.020
11758 0 2 -2.000 14.595 20.850 25.020
11759 0 2 -2.000 12.510 16.680 27.105
11760 0 2 -2.000 14.595 22.935 2.085
11761 0 2 -2.000 16.680 22.935 0.000
11762 0 2 -2.000 14.595 25.020 0.000
11763 0 2 -2.000 12.510 20.850 2.085
11764 0 2 -2.000 14.595 22.935 6.255
11765 0 2 -2.000 16.680 22.935 4.170
11766 0 2 -2.000 14.595 25.020 4.170
11767 0 2 -2.000 12.510 20.850 6.255
11768 0 2 -2.000 14.595 22.935 10.425
11769 0 2 -2.000 16.680 22.935 8.340
11770 0 2 -2.000 14.595 25.020 8.340
11771 0 2 -2.000 12.510 20.850 10.425
11772 0 2 -2.000 14.595 22.935 14.595
11773 0 2 -2.000 16.680 22.935 12.510
11774 0 2 -2.000 14.595 25.020 12.510
11775 0 2 -2.000 12.510 20.850 14.595
11776 0 2 -2.000 14.595 22.935 18.765
11777 0 2 -2.000 16.680 22.935 16.680
11778 0 2 -2.000 14.595 25.020 16.680
11779 0 2 -2.000 12.510 20.850 18.765
11780 0 2 -2.000 14.595 22.935 22.935
11781 0 2 -2.000 16.680 22.935 20.850
11782 0 2 -2.000 14.595 25.020 20.850
11783 0 2 -2.000 12.510 20.850 22.935
11784 0 2 -2.000 14.595 22.935 27.105
11785 0 2 -2.000 16.680 22.935 25.020
11786 0 2 -2.000 14.595 25.020 25.020
11787 0 2 -2.000 14.595 25.020 29.190
11788 0 2 -2.000 14.595 27.105 2.085
11789 0 2 -2.000 16.680 27.105 0.000
11790 0 2 -2.000 14.595 29.190 0.000
11791 0 2 -2.000 12.510 25.020 2.085
11792 0 2 -2.000 14.595 27.105 6.255
11793 0 2 -2.000 16.680 27.105 4.170
11794 0 2 -2.000 14.595 29.190 4.170
11795 0 2 -2.000 12.510 25.020 6.255
11796 0 2 -2.000 14.595 27.105 10.425
11797 0 2 -2.000 16.680 27.105 8.340
11798 0 2 -2.000 14.595 29.190 8.340
11799 0 2 -2.000 12.510 25.020 10.425
11800 0 2 -2.000 14.595 27.105 14.595
11801 0 2 -2.000 16.680 27.105 12.510
11802 0 2 -2.000 14.595 29.190 12.510
11803 0 2 -2.000 12.510 25.020 14.595
11804 0 2 -2.000 14.595 27.105 18.765
11805 0 2 -2.000 16.680 27.105 16.680
11806 0 2 -2.000 14.595 29.190 16.680
11807 0 2 -2.000 12.510 25.020 18.765
11808 0 2 -2.000 14.595 27.105 22.935
11809 0 2 -2.000 16.680 27.105 20.850
11810 0 2 -2.000 14.595 29.190 20.850
11811 0 2 -2.000 12.510 25.020 22.935
11812 0 2 -2.000 14.595 27.105 27.105
11813 0 2 -2.000 16.680 27.105 25.020
11814 0 2 -2.000 14.595 29.190 25.020
11815 0 2 -2.000 12.510 25.020 27.105
11816 0 2 -2.000 14.595 27.105 31.275
11817 0 2 -2.000 16.680 27.105 29.190
11818 0 2 -2.000 14.595 29.190 29.190
11819 0 2 -2.000 14.595 29.190 33.360
11820 0 2 -2.000 14.595 31.275 2.085
11821 0 2 -2.000 16.680 31.275 0.000
11822 0 2 -2.000 14.595 33.360 0.000
11823 0 2 -2.000 12.510 29.190 2.085
11824 0 2 -2.000 14.595 31.275 6.255
11825 0 2 -2.000 16.680 31.275 4.170
11826 0 2 -2.000 14.595 33.360 4.170
11827 0 2 -2.000 12.510 29.190 6.255
11828 0 2 -2.000 14.595 31.275 10.425
11829 0 2 -2.000 16.680 31.275 8.340
11830 0 2 -2.000 14.595 33.360 8.340
11831 0 2 -2.000 12.510 29.190 10.425
11832 0 2 -2.000 14.595 31.275 14.595
11833 0 2 -2.000 16.680 31.275 12.510
11834 0 2 -2.000 14.595 33.360 12.510
11835 0 2 -2.000 12.510 29.190 14.595
11836 0 2 -2.000 14.595 31.275 18.765
11837 0 2 -2.000 16.680 31.275 16.680
11838 0 2 -2.000 14.595 33.360 16.680
11839 0 2 -2.000 12.510 29.190 18.765
11840 0 2 -2.000 14.595 31.275 22.935
11841 0 2 -2.000 16.680 31.275 20.850
11842 0 2 -2.000 14.595 33.360 20.850
11843 0 2 -2.000 12.510 29.190 22.935
11844 0 2 -2.000 14.595 31.275 27.105
11845 0 2 -2.000 16.680 31.275 25.020
11846 0 2 -2.000 14.595 33.360 25.020
11847 0 2 -2.000 12.510 29.190 27.105
11848 0 2 -2.000 14.595 31.275 31.275
11849 0 2 -2.000 16.680 31.275 29.190
11850 0 2 -2.000 14.595 33.360 29.190
11851 0 2 -2.000 12.510 29.190 31.275
11852 0 2 -2.000 14.595 31.275 35.445
11853 0 2 -2.000 16.680 31.275 33.360
11854 0 2 -2.000 14.595 33.360 33.360
11855 0 2 -2.000 14.595 33.360 37.530
11856 0 2 -2.000 14.595 35.445 2.085
11857 0 2 -2.000 16.680 35.445 0.000
11858 0 2 -2.000 14.595 37.530 0.000
11859 0 2 -2.000 12.510 33.360 2.085
11860 0 2 -2.000 14.595 35.445 6.255
11861 0 2 -2.000 16.680 35.445 4.170
11862 0 2 -2.000 14.595 37.530 4.170
11863 0 2 -2.000 12.510 33.360 6.255
11864 0 2 -2.000 14.595 35.445 10.425
11865 0 2 -2.000 16.680 35.445 8.340
11866 0 2 -2.000 14.595 37.530 8.340
11867 0 2 -2.000 12.510 33.360 10.425
11868 0 2 -2.000 14.595 35.445 14.595
11869 0 2 -2.000 16.680 35.445 12.510
11870 0 2 -2.000 14.595 37.530 12.510
11871 0 2 -2.000 12.510 33.360 14.595
11872 0 2 -2.000 14.595 35.445 18.765
11873 0 2 -2.000 16.680 35.445 16.680
11874 0 2 -2.000 14.595 37.530 16.680
11875 0 2 -2.000 12.510 33.360 18.765
11876 0 2 -2.000 14.595 35.445 22.935
11877 0 2 -2.000 16.680 35.445 20.850
11878 0 2 -2.000 14.595 37.530 20.850
11879 0 2 -2.000 12.510 33.360 22.935
11880 0 2 -2.000 14.595 35.445 27.105
11881 0 2 -2.000 16.680 35.445 25.020
11882 0 2 -2.000 14.595 37.530 25.020
11883 0 2 -2.000 12.510 33.360 27.105
11884 0 2 -2.000 14.595 35.445 31.275
11885 0 2 -2.000 16.680 35.445 29.190
11886 0 2 -2.000 14.595 37.530 29.190
11887 0 2 -2.000 12.510 33.360 31.275
11888 0 2 -2.000 14.595 35.445 35.445
11889 0 2 -2.000 16.680 35.445 33.360
11890 0 2 -2.000 14.595 37.530 33.360
11891 0 2 -2.000 12.510 33.360 35.445
11892 0 2 -2.000 14.595 35.445 39.615
11893 0 2 -2.000 16.680 35.445 37.530
11894 0 2 -2.000 14.595 37.530 37.530
11895 0 2 -2.000 14.595 39.615 2.085
11896 0 2 -2.000 16.680 39.615 0.000
11897 0 2 -2.000 14.595 0.000 0.000
11898 0 2 -2.000 12.510 37.530 2.085
11899 0 2 -2.000 14.595 39.615 6.255
11900 0 2 -2.000 16.680 39.615 4.170
11901 0 2 -2.000 14.595 0.000 4.170
11902 0 2 -2.000 12.510 37.530 6.255
11903 0 2 -2.000 14.595 39.615 10.425
11904 0 2 -2.000 16.680 39.615 8.340
11905 0 2 -2.000 14.595 0.000 8.340
11906 0 2 -2.000 12.510 37.530 10.425
11907 0 2 -2.000 14.595 39.615 14.595
11908 0 2 -2.000 16.680 39.615 12.510
11909 0 2 -2.000 14.595 0.000 12.510
11910 0 2 -2.000 12.510 37.530 14.595
11911 0 2 -2.000 14.595 39.615 18.765
11912 0 2 -2.000 16.680 39.615 16.680
11913 0 2 -2.000 14.595 0.000 16.680
11914 0 2 -2.000 12.510 37.530 18.765
11915 0 2 -2.000 14.595 39.615 22.935
11916 0 2 -2.000 16.680 39.615 20.850
11917 0 2 -2.000 14.595 0.000 20.850
11918 0 2 -2.000 12.510 37.530 22.935
11919 0 2 -2.000 14.595 39.615 27.105
11920 0 2 -2.000 16.680 39.615 25.020
11921 0 2 -2.000 14.595 0.000 25.020
11922 0 2 -2.000 12.510 37.530 27.105
11923 0 2 -2.000 14.595 39.615 31.275
11924 0 2 -2.000 16.680 39.615 29.190
11925 0 2 -2.000 14.595 0.000 29.190
11926 0 2 -2.000 12.510 37.530 31.275
11927 0 2 -2.000 14.595 39.615 35.445
11928 0 2 -2.000 16.680 39.615 33.360
11929 0 2 -2.000 14.595 0.000 33.360
11930 0 2 -2.000 12.510 37.530 35.445
11931 0 2 -2.000 14.595 39.615 39.615
11932 0 2 -2.000 16.680 39.615 37.530
11933 0 2 -2.000 14.595 0.000 37.530
11934 0 2 -2.000 12.510 37.530 39.615
11935 0 2 -2.000 18.765 2.085 2.085
11936 0 2 -2.000 20.850 2.085 0.000
11937 0 2 -2.000 18.765 4.170 0.000
11938 0 2 -2.000 16.680 0.000 2.085
11939 0 2 -2.000 18.765 2.085 6.255
11940 0 2 -2.000 20.850 2.085 4.170
11941 0 2 -2.000 18.765 4.170 4.170
11942 0 2 -2.000 16.680 0.000 6.255
11943 0 2 -2.000 18.765 2.085 10.425
11944 0 2 -2.000 20.850 2.085 8.340
11945 0 2 -2.000 18.765 4.170 8.340
11946 0 2 -2.000 16.680 0.000 10.425
11947 0 2 -2.000 18.765 2.085 14.595
11948 0 2 -2.000 20.850 2.085 12.510
11949 0 2 -2.000 18.765 4.170 12.510
11950 0 2 -2.000 16.680 0.000 14.595
11951 0 2 -2.000 18.765 2.085 18.765
11952 0 2 -2.000 20.850 2.085 16.680
11953 0 2 -2.000 18.765 4.170 16.680
11954 0 2 -2.000 16.680 0.000 18.765
11955 0 2 -2.000 18.765 2.085 22.935
11956 0 2 -2.000 20.850 2.085 20.850
11957 0 2 -2.000 18.765 4.170 20.850
11958 0 2 -2.000 16.680 0.000 22.935
11959 0 2 -2.000 18.765 2.085 27.105
11960 0 2 -2.000 20.850 2.085 25.020
11961 0 2 -2.000 18.765 4.170 25.020
11962 0 2 -2.000 16.680 0.000 27.105
11963 0 2 -2.000 18.765 2.085 31.275
11964 0 2 -2.000 20.850 2.085 29.190
11965 0 2 -2.000 18.765 4.170 29.190
11966 0 2 -2.000 16.680 0.000 31.275
11967 0 2 -2.000 18.765 2.085 35.445
11968 0 2 -2.000 20.850 2.085 33.360
11969 0 2 -2.000 18.765 4.170 33.360
11970 0 2 -2.000 16.680 0.000 35.445
11971 0 2 -2.000 18.765 2.085 39.615
11972 0 2 -2.000 20.850 2.085 37.530
11973 0 2 -2.000 18.765 4.170 37.530
11974 0 2 -2.000 16.680 0.000 39.615
11975 0 2 -2.000 18.765 6.255 2.085
11976 0 2 -2.000 20.850 6.255 0.000
11977 0 2 -2.000 18.765 8.340 0.000
11978 0 2 -2.000 16.680 4.170 2.085
11979 0 2 -2.000 18.765 6.255 6.255
11980 0 2 -2.000 20.850 6.255 4.170
11981 0 2 -2.000 18.765 8.340 4.170
11982 0 2 -2.000 16.680 4.170 6.255
11983 0 2 -2.000 18.765 6.255 10.425
11984 0 2 -2.000 20.850 6.255 8.340
11985 0 2 -2.000 18.765 8.340 8.340
11986 0 2 -2.000 16.680 4.170 10.425
11987 0 2 -2.000 18.765 6.255 14.595
11988 0 2 -2.000 20.850 6.255 12.510
11989 0 2 -2.000 18.765 8.340 12.510
11990 0 2 -2.000 16.680 4.170 14.595
11991 0 2 -2.000 18.765 6.255 18.765
11992 0 2 -2.000 20.850 6.255 16.680
11993 0 2 -2.000 18.765 8.340 16.680
11994 0 2 -2.000 16.680 4.170 18.765
11995 0 2 -2.000 18.765 6.255 22.935
11996 0 2 -2.000 20.850 6.255 20.850
11997 0 2 -2.000 18.765 8.340 20.850
11998 0 2 -2.000 16.680 4.170 22.935
11999 0 2 -2.000 18.765 6.255 27.105
12000 0 2 -2.000 20.850 6.255 25.020
12001 0 2 -2.000 18.765 8.340 25.020
12002 0 2 -2.000 16.680 4.170 27.105
12003 0 2 -2.000 18.765 6.255 31.275
12004 0 2 -2.000 20.850 6.255 29.190
12005 0 2 -2.000 18.765 8.340 29.190
12006 0 2 -2.000 16.680 4.170 31.275
12007 0 2 -2.000 18.765 6.255 35.445
12008 0 2 -2.000 20.850 6.255 33.360
12009 0 2 -2.000 18.765 8.340 33.360
12010 0 2 -2.000 16.680 4.170 35.445
12011 0 2 -2.000 18.765 6.255 39.615
12012 0 2 -2.000 20.850 6.255 37.530
12013 0 2 -2.000 18.765 8.340 37.530
12014 0 2 -2.000 16.680 4.170 39.615
12015 0 2 -2.000 18.765 10.425 2.085
12016 0 2 -2.000 20.850 10.425 0.000
12017 0 2 -2.000 18.765 12.510 0.000
12018 0 2 -2.000 16.680 8.340 2.085
12019 0 2 -2.000 18.765 10.425 6.255
12020 0 2 -2.000 20.850 10.425 4.170
12021 0 2 -2.000 18.765 12.510 4.170
12022 0 2 -2.000 16.680 8.340 6.255
12023 0 2 -2.000 18.765 10.425 10.425
12024 0 2 -2.000 20.850 10.425 8.340
12025 0 2 -2.000 18.765 12.510 8.340
12026 0 2 -2.000 16.680 8.340 10.425
12027 0 2 -2.000 18.765 10.425 14.595
12028 0 2 -2.000 20.850 10.425 12.510
12029 0 2 -2.000 18.765 12.510 12.510
12030 0 2 -2.000 16.680 8.340 14.595
12031 0 2 -2.000 18.765 10.425 18.765
12032 0 2 -2.000 20.850 10.425 16.680
12033 0 2 -2.000 18.765 12.510 16.680
12034 0 2 -2.000 16.680 8.340 18.765
12035 0 2 -2.000 18.765 10.425 22.935
12036 0 2 -2.000 20.850 10.425 20.850
12037 0 2 -2.000 18.765 12.510 20.850
12038 0 2 -2.000 16.680 8.340 22.935
12039 0 2 -2.000 18.765 10.425 27.105
12040 0 2 -2.000 20.850 10.425 25.020
12041 0 2 -2.000 18.765 12.510 25.020
12042 0 2 -2.000 16.680 8.340 27.105
12043 0 2 -2.000 18.765 10.425 31.275
12044 0 2 -2.000 20.850 10.425 29.190
12045 0 2 -2.000 18.765 12.510 29.190
12046 0 2 -2.000 16.680 8.340 31.275
12047 0 2 -2.000 18.765 10.425 35.445
12048 0 2 -2.000 20.850 10.425 33.360
12049 0 2 -2.000 18.765 12.510 33.360
12050 0 2 -2.000 16.680 8.340 35.445
12051 0 2 -2.000 18.765 14.595 2.085
12052 0 2 -2.000 20.850 14.595 0.000
12053 0 2 -2.000 18.765 16.680 0.000
12054 0 2 -2.000 16.680 12.510 2.085
12055 0 2 -2.000 18.765 14.595 6.255
12056 0 2 -2.000 20.850 14.595 4.170
12057 0 2 -2.000 18.765 16.680 4.170
12058 0 2 -2.000 16.680 12.510 6.255
12059 0 2 -2.000 18.765 14.595 10.425
12060 0 2 -2.000 20.850 14.595 8.340
12061 0 2 -2.000 18.765 16.680 8.340
12062 0 2 -2.000 16.680 12.510 10.425
12063 0 2 -2.000 18.765 14.595 14.595
12064 0 2 -2.000 20.850 14.595 12.510
12065 0 2 -2.000 18.765 16.680 12.510
12066 0 2 -2.000 16.680 12.510 14.595
12067 0 2 -2.000 18.765 14.595 18.765
12068 0 2 -2.000 20.850 14.595 16.680
12069 0 2 -2.000 18.765 16.680 16.680
12070 0 2 -2.000 16.680 12.510 18.765
12071 0 2 -2.000 18.765 14.595 22.935
12072 0 2 -2.000 20.850 14.595 20.850
12073 0 2 -2.000 18.765 16.680 20.850
12074 0 2 -2.000 16.680 12.510 22.935
12075 0 2 -2.000 18.765 14.595 27.105
12076 0 2 -2.000 20.850 14.595 25.020
12077 0 2 -2.000 18.765 16.680 25.020
12078 0 2 -2.000 16.680 12.510 27.105
12079 0 2 -2.000 18.765 14.595 31.275
12080 0 2 -2.000 20.850 14.595 29.190
12081 0 2 -2.000 18.765 16.680 29.190
12082 0 2 -2.000 16.680 12.510 31.275
12083 0 2 -2.000 18.765 18.765 2.085
12084 0 2 -2.000 20.850 18.765 0.000
12085 0 2 -2.000 18.765 20.850 0.000
12086 0 2 -2.000 16.680 16.680 2.085
12087 0 2 -2.000 18.765 18.765 6.255
12088 0 2 -2.000 20.850 18.765 4.170
12089 0 2 -2.000 18.765 20.850 4.170
12090 0 2 -2.000 16.680 16.680 6.255
12091 0 2 -2.000 18.765 18.765 10.425
12092 0 2 -2.000 20.850 18.765 8.340
12093 0 2 -2.000 18.765 20.850 8.340
12094 0 2 -2.000 16.680 16.680 10.425
12095 0 2 -2.000 18.765 18.765 14.595
12096 0 2 -2.000 20.850 18.765 12.510
12097 0 2 -2.000 18.765 20.850 12.510
12098 0 2 -2.000 16.680 16.680 14.595
12099 0 2 -2.000 18.765 18.765 18.765
12100 0 2 -2.000 20.850 18.765 16.680
12101 0 2 -2.000 18.765 20.850 16.680
12102 0 2 -2.000 16.680 16.680 18.765
12103 0 2 -2.000 18.765 18.765 22.935
12104 0 2 -2.000 20.850 18.765 20.850
12105 0 2 -2.000 18.765 20.850 20.850
12106 0 2 -2.000 16.680 16.680 22.935
12107 0 2 -2.000 18.765 18.765 27.105
12108 0 2 -2.000 20.850 18.765 25.020
12109 0 2 -2.000 18.765 20.850 25.020
12110 0 2 -2.000 16.680 16.680 27.105
12111 0 2 -2.000 18.765 22.935 2.085
12112 0 2 -2.000 20.850 22.935 0.000
12113 0 2 -2.000 18.765 25.020 0.000
12114 0 2 -2.000 16.680 20.850 2.085
12115 0 2 -2.000 18.765 22.935 6.255
12116 0 2 -2.000 20.850 22.935 4.170
12117 0 2 -2.000 18.765 25.020 4.170
12118 0 2 -2.000 16.680 20.850 6.255
12119 0 2 -2.000 18.765 22.935 10.425
12120 0 2 -2.000 20.850 22.935 8.340
12121 0 2 -2.000 18.765 25.020 8.340
12122 0 2 -2.000 16.680 20.850 10.425
12123 0 2 -2.000 18.765 22.935 14.595
12124 0 2 -2.000 20.850 22.935 12.510
12125 0 2 -2.000 18.765 25.020 12.510
12126 0 2 -2.000 16.680 20.850 14.595
12127 0 2 -2.000 18.765 22.935 18.765
12128 0 2 -2.000 20.850 22.935 16.680
12129 0 2 -2.000 18.765 25.020 16.680
12130 0 2 -2.000 16.680 20.850 18.765
12131 0 2 -2.000 18.765 22.935 22.935
12132 0 2 -2.000 20.850 22.935 20.850
12133 0 2 -2.000 18.765 25.020 20.850
12134 0 2 -2.000 16.680 20.850 22.935
12135 0 2 -2.000 18.765 22.935 27.105
12136 0 2 -2.000 20.850 22.935 25.020
12137 0 2 -2.000 18.765 25.020 25.020
12138 0 2 -2.000 18.765 25.020 29.190
12139 0 2 -2.000 18.765 27.105 2.085
12140 0 2 -2.000 20.850 27.105 0.000
12141 0 2 -2.000 18.765 29.190 0.000
12142 0 2 -2.000 16.680 25.020 2.085
12143 0 2 -2.000 18.765 27.105 6.255
12144 0 2 -2.000 20.850 27.105 4.170
12145 0 2 -2.000 18.765 29.190 4.170
12146 0 2 -2.000 16.680 25.020 6.255
12147 0 2 -2.000 18.765 27.105 10.425
12148 0 2 -2.000 20.850 27.105 8.340
12149 0 2 -2.000 18.765 29.190 8.340
12150 0 2 -2.000 16.680 25.020 10.425
12151 0 2 -2.000 18.765 27.105 14.595
12152 0 2 -2.000 20.850 27.105 12.510
12153 0 2 -2.000 18.765 29.190 12.510
12154 0 2 -2.000 16.680 25.020 14.595
12155 0 2 -2.000 18.765 27.105 18.765
12156 0 2 -2.000 20.850 27.105 16.680
12157 0 2 -2.000 18.765 29.190 16.680
12158 0 2 -2.000 16.680 25.020 18.765
12159 0 2 -2.000 18.765 27.105 22.935
12160 0 2 -2.000 20.850 27.105 20.850
12161 0 2 -2.000 18.765 29.190 20.850
12162 0 2 -2.000 16.680 25.020 22.935
12163 0 2 -2.000 18.765 27.105 27.105
12164 0 2 -2.000 20.850 27.105 25.020
12165 0 2 -2.000 18.765 29.190 25.020
12166 0 2 -2.000 16.680 25.020 27.105
12167 0 2 -2.000 18.765 27.105 31.275
12168 0 2 -2.000 20.850 27.105 29.190
12169 0 2 -2.000 18.765 29.190 29.190
12170 0 2 -2.000 18.765 29.190 33.360
12171 0 2 -2.000 18.765 31.275 2.085
12172 0 2 -2.000 20.850 31.275 0.000
12173 0 2 -2.000 18.765 33.360 0.000
12174 0 2 -2.000 16.680 29.190 2.085
12175 0 2 -2.000 18.765 31.275 6.255
12176 0 2 -2.000 20.850 31.275 4.170
12177 0 2 -2.000 18.765 33.360 4.170
12178 0 2 -2.000 16.680 29.190 6.255
12179 0 2 -2.000 18.765 31.275 10.425
12180 0 2 -2.000 20.850 31.275 8.340
12181 0 2 -2.000 18.765 33.360 8.340
12182 0 2 -2.000 16.680 29.190 10.425
12183 0 2 -2.000 18.765 31.275 14.595
12184 0 2 -2.000 20.850 31.275 12.510
12185 0 2 -2.000 18.765 33.360 12.510
12186 0 2 -2.000 16.680 29.190 14.595
12187 0 2 -2.000 18.765 31.275 18.765
12188 0 2 -2.000 20.850 31.275 16.680
12189 0 2 -2.000 18.765 33.360 16.680
12190 0 2 -2.000 16.680 29.190 18.765
12191 0 2 -2.000 18.765 31.275 22.935
12192 0 2 -2.000 20.850 31.275 20.850
12193 0 2 -2.000 18.765 33.360 20.850
12194 0 2 -2.000 16.680 29.190 22.935
12195 0 2 -2.000 18.765 31.275 27.105
12196 0 2 -2.000 20.850 31.275 25.020
12197 0 2 -2.000 18.765 33.360 25.020
12198 0 2 -2.000 16.680 29.190 27.105
12199 0 2 -2.000 18.765 31.275 31.275
12200 0 2 -2.000 20.850 31.275 29.190
12201 0 2 -2.000 18.765 33.360 29.190
12202 0 2 -2.000 16.680 29.190 31.275
12203 0 2 -2.000 18.765 31.275 35.445
12204 0 2 -2.000 20.850 31.275 33.360
12205 0 2 -2.000 18.765 33.360 33.360
12206 0 2 -2.000 18.765 33.360 37.530
12207 0 2 -2.000 18.765 35.445 2.085
12208 0 2 -2.000 20.850 35.445 0.000
12209 0 2 -2.000 18.765 37.530 0.000
12210 0 2 -2.000 16.680 33.360 2.085
12211 0 2 -2.000 18.765 35.445 6.255
12212 0 2 -2.000 20.850 35.445 4.170
12213 0 2 -2.000 18.765 37.530 4.170
12214 0 2 -2.000 16.680 33.360 6.255
12215 0 2 -2.000 18.765 35.445 10.425
12216 0 2 -2.000 20.850 35.445 8.340
12217 0 2 -2.000 18.765 37.530 8.340
12218 0 2 -2.000 16.680 33.360 10.425
12219 0 2 -2.000 18.765 35.445 14.595
12220 0 2 -2.000 20.850 35.445 12.510
12221 0 2 -2.000 18.765 37.530 12.510
12222 0 2 -2.000 16.680 33.360 14.595
12223 0 2 -2.000 18.765 35.445 18.765
12224 0 2 -2.000 20.850 35.445 16.680
12225 0 2 -2.000 18.765 37.530 16.680
12226 0 2 -2.000 16.680 33.360 18.765
12227 0 2 -2.000 18.765 35.445 22.935
12228 0 2 -2.000 20.850 35.445 20.850
12229 0 2 -2.000 18.765 37.530 20.850
12230 0 2 -2.000 16.680 33.360 22.935
12231 0 2 -2.000 18.765 35.445 27.105
12232 0 2 -2.000 20.850 35.445 25.020
12233 0 2 -2.000 18.765 37.530 25.020
12234 0 2 -2.000 16.680 33.360 27.105
12235 0 2 -2.000 18.765 35.445 31.275
12236 0 2 -2.000 20.850 35.445 29.190
12237 0 2 -2.000 18.765 37.530 29.190
12238 0 2 -2.000 16.680 33.360 31.275
12239 0 2 -2.000 18.765 35.445 35.445
12240 0 2 -2.000 20.850 35.445 33.360
12241 0 2 -2.000 18.765 37.530 33.360
12242 0 2 -2.000 16.680 33.360 35.445
12243 0 2 -2.000 18.765 35.445 39.615
12244 0 2 -2.000 20.850 35.445 37.530
12245 0 2 -2.000 18.765 37.530 37.530
12246 0 2 -2.000 18.765 39.615 2.085
12247 0 2 -2.000 20.850 39.615 0.000
12248 0 2 -2.000 18.765 0.000 0.000
12249 0 2 -2.000 16.680 37.530 2.085
12250 0 2 -2.000 18.765 39.615 6.255
12251 0 2 -2.000 20.850 39.615 4.170
12252 0 2 -2.000 18.765 0.000 4.170
12253 0 2 -2.000 16.680 37.530 6.255
12254 0 2 -2.000 18.765 39.615 10.425
12255 0 2 -2.000 20.850 39.615 8.340
12256 0 2 -2.000 18.765 0.000 8.340
12257 0 2 -2.000 16.680 37.530 10.425
12258 0 2 -2.000 18.765 39.615 14.595
12259 0 2 -2.000 20.850 39.615 12.510
12260 0 2 -2.000 18.765 0.000 12.510
12261 0 2 -2.000 16.680 37.530 14.595
12262 0 2 -2.000 18.765 39.615 18.765
12263 0 2 -2.000 20.850 39.615 16.680
12264 0 2 -2.000 18.765 0.000 16.680
12265 0 2 -2.000 16.680 37.530 18.765
12266 0 2 -2.000 18.765 39.615 22.935
12267 0 2 -2.000 20.850 39.615 20.850
12268 0 2 -2.000 18.765 0.000 20.850
12269 0 2 -2.000 16.680 37.530 22.935
12270 0 2 -2.000 18.765 39.615 27.105
12271 0 2 -2.000 20.850 39.615 25.020
12272 0 2 -2.000 18.765 0.000 25.020
12273 0 2 -2.000 16.680 37.530 27.105
12274 0 2 -2.000 18.765 39.615 31.275
12275 0 2 -2.000 20.850 39.615 29.190
12276 0 2 -2.000 18.765 0.000 29.190
12277 0 2 -2.000 16.680 37.530 31.275
12278 0 2 -2.000 18.765 39.615 35.445
12279 0 2 -2.000 20.850 39.615 33.360
12280 0 2 -2.000 18.765 0.000 33.360
12281 0 2 -2.000 16.680 37.530 35.445
12282 0 2 -2.000 18.765 39.615 39.615
12283 0 2 -2.000 20.850 39.615 37.530
12284 0 2 -2.000 18.765 0.000 37.530
12285 0 2 -2.000 16.680 37.530 39.615
12286 0 2 -2.000 22.935 2.085 2.085
12287 0 2 -2.000 25.020 2.085 0.000
12288 0 2 -2.000 22.935 4.170 0.000
12289 0 2 -2.000 20.850 0.000 2.085
12290 0 2 -2.000 22.935 2.085 6.255
12291 0 2 -2.000 25.020 2.085 4.170
12292 0 2 -2.000 22.935 4.170 4.170
12293 0 2 -2.000 20.850 0.000 6.255
12294 0 2 -2.000 22.935 2.085 10.425
12295 0 2 -2.000 25.020 2.085 8.340
12296 0 2 -2.000 22.935 4.170 8.340
12297 0 2 -2.000 20.850 0.000 10.425
12298 0 2 -2.000 22.935 2.085 14.595
12299 0 2 -2.000 25.020 2.085 12.510
12300 0 2 -2.000 22.935 4.170 12.510
12301 0 2 -2.000 20.850 0.000 14.595
12302 0 2 -2.000 22.935 2.085 18.765
12303 0 2 -2.000 25.020 2.085 16.680
12304 0 2 -2.000 22.935 4.170 16.680
12305 0 2 -2.000 20.850 0.000 18.765
12306 0 2 -2.000 22.935 2.085 22.935
12307 0 2 -2.000 25.020 2.085 20.850
12308 0 2 -2.000 22.935 4.170 20.850
12309 0 2 -2.000 20.850 0.000 22.935
12310 0 2 -2.000 22.935 2.085 27.105
12311 0 2 -2.000 25.020 2.085 25.020
12312 0 2 -2.000 22.935 4.170 25.020
12313 0 2 -2.000 20.850 0.000 27.105
12314 0 2 -2.000 22.935 2.085 31.275
12315 0 2 -2.000 25.020 2.085 29.190
12316 0 2 -2.000 22.935 4.170 29.190
12317 0 2 -2.000 20.850 0.000 31.275
12318 0 2 -2.000 22.935 2.085 35.445
12319 0 2 -2.000 25.020 2.085 33.360
12320 0 2 -2.000 22.935 4.170 33.360
12321 0 2 -2.000 20.850 0.000 35.445
12322 0 2 -2.000 22.935 2.085 39.615
12323 0 2 -2.000 25.020 2.085 37.530
12324 0 2 -2.000 22.935 4.170 37.530
12325 0 2 -2.000 20.850 0.000 39.615
12326 0 2 -2.000 22.935 6.255 2.085
12327 0 2 -2.000 25.020 6.255 0.000
12328 0 2 -2.000 22.935 8.340 0.000
12329 0 2 -2.000 20.850 4.170 2.085
12330 0 2 -2.000 22.935 6.255 6.255
12331 0 2 -2.000 25.020 6.255 4.170
12332 0 2 -2.000 22.935 8.340 4.170
12333 0 2 -2.000 20.850 4.170 6.255
12334 0 2 -2.000 22.935 6.255 10.425
12335 0 2 -2.000 25.020 6.255 8.340
12336 0 2 -2.000 22.935 8.340 8.340
12337 0 2 -2.000 20.850 4.170 10.425
12338 0 2 -2.000 22.935 6.255 14.595
12339 0 2 -2.000 25.020 6.255 12.510
12340 0 2 -2.000 22.935 8.340 12.510
12341 0 2 -2.000 20.850 4.170 14.595
12342 0 2 -2.000 22.935 6.255 18.765
12343 0 2 -2.000 25.020 6.255 16.680
12344 0 2 -2.000 22.935 8.340 16.680
12345 0 2 -2.000 20.850 4.170 18.765
12346 0 2 -2.000 22.935 6.255 22.935
12347 0 2 -2.000 25.020 6.255 20.850
12348 0 2 -2.000 22.935 8.340 20.850
12349 0 2 -2.000 20.850 4.170 22.935
12350 0 2 -2.000 22.935 6.255 27.105
12351 0 2 -2.000 25.020 6.255 25.020
12352 0 2 -2.000 22.935 8.340 25.020
12353 0 2 -2.000 20.850 4.170 27.105
12354 0 2 -2.000 22.935 6.255 31.275
12355 0 2 -2.000 25.020 6.255 29.190
12356 0 2 -2.000 22.935 8.340 29.190
12357 0 2 -2.000 20.850 4.170 31.275
12358 0 2 -2.000 22.935 6.255 35.445
12359 0 2 -2.000 25.020 6.255 33.360
12360 0 2 -2.000 22.935 8.340 33.360
12361 0 2 -2.000 20.850 4.170 35.445
12362 0 2 -2.000 22.935 6.255 39.615
12363 0 2 -2.000 25.020 6.255 37.530
12364 0 2 -2.000 22.935 8.340 37.530
12365 0 2 -2.000 20.850 4.170 39.615
12366 0 2 -2.000 22.935 10.425 2.085
12367 0 2 -2.000 25.020 10.425 0.000
12368 0 2 -2.000 22.935 12.510 0.000
12369 0 2 -2.000 20.850 8.340 2.085
12370 0 2 -2.000 22.935 10.425 6.255
12371 0 2 -2.000 25.020 10.425 4.170
12372 0 2 -2.000 22.935 12.510 4.170
12373 0 2 -2.000 20.850 8.340 6.255
12374 0 2 -2.000 22.935 10.425 10.425
12375 0 2 -2.000 25.020 10.425 8.340
12376 0 2 -2.000 22.935 12.510 8.340
12377 0 2 -2.000 20.850 8.340 10.425
12378 0 2 -2.000 22.935 10.425 14.595
12379 0 2 -2.000 25.020 10.425 12.510
12380 0 2 -2.000 22.935 12.510 12.510
12381 0 2 -2.000 20.850 8.340 14.595
12382 0 2 -2.000 22.935 10.425 18.765
12383 0 2 -2.000 25.020 10.425 16.680
12384 0 2 -2.000 22.935 12.510 16.680
12385 0 2 -2.000 20.850 8.340 18.765
12386 0 2 -2.000 22.935 10.425 22.935
12387 0 2 -2.000 25.020 10.425 20.850
12388 0 2 -2.000 22.935 12.510 20.850
12389 0 2 -2.000 20.850 8.340 22.935
12390 0 2 -2.000 22.935 10.425 27.105
12391 0 2 -2.000 25.020 10.425 25.020
12392 0 2 -2.000 22.935 12.510 25.020
12393 0 2 -2.000 20.850 8.340 27.105
12394 0 2 -2.000 22.935 10.425 31.275
12395 0 2 -2.000 25.020 10.425 29.190
12396 0 2 -2.000 22.935 12.510 29.190
12397 0 2 -2.000 20.850 8.340 31.275
12398 0 2 -2.000 22.935 10.425 35.445
12399 0 2 -2.000 25.020 10.425 33.360
12400 0 2 -2.000 22.935 12.510 33.360
12401 0 2 -2.000 20.850 8.340 35.445
12402 0 2 -2.000 22.935 14.595 2.085
12403 0 2 -2.000 25.020 14.595 0.000
12404 0 2 -2.000 22.935 16.680 0.000
12405 0 2 -2.000 20.850 12.510 2.085
12406 0 2 -2.000 22.935 14.595 6.255
12407 0 2 -2.000 25.020 14.595 4.170
12408 0 2 -2.000 22.935 16.680 4.170
12409 0 2 -2.000 20.850 12.510 6.255
12410 0 2 -2.000 22.935 14.595 10.425
12411 0 2 -2.000 25.020 14.595 8.340
12412 0 2 -2.000 22.935 16.680 8.340
12413 0 2 -2.000 20.850 12.510 10.425
12414 0 2 -2.000 22.935 14.595 14.595
12415 0 2 -2.000 25.020 14.595 12.510
12416 0 2 -2.000 22.935 16.680 12.510
12417 0 2 -2.000 20.850 12.510 14.595
12418 0 2 -2.000 22.935 14.595 18.765
12419 0 2 -2.000 25.020 14.595 16.680
12420 0 2 -2.000 22.935 16.680 16.680
12421 0 2 -2.000 20.850 12.510 18.765
12422 0 2 -2.000 22.935 14.595 22.935
12423 0 2 -2.000 25.020 14.595 20.850
12424 0 2 -2.000 22.935 16.680 20.850
12425 0 2 -2.000 20.850 12.510 22.935
12426 0 2 -2.000 22.935 14.595 27.105
12427 0 2 -2.000 25.020 14.595 25.020
12428 0 2 -2.000 22.935 16.680 25.020
12429 0 2 -2.000 20.850 12.510 27.105
12430 0 2 -2.000 22.935 14.595 31.275
12431 0 2 -2.000 25.020 14.595 29.190
12432 0 2 -2.000 22.935 16.680 29.190
12433 0 2 -2.000 20.850 12.510 31.275
12434 0 2 -2.000 22.935 18.765 2.085
12435 0 2 -2.000 25.020 18.765 0.000
12436 0 2 -2.000 22.935 20.850 0.000
12437 0 2 -2.000 20.850 16.680 2.085
12438 0 2 -2.000 22.935 18.765 6.255
12439 0 2 -2.000 25.020 18.765 4.170
12440 0 2 -2.000 22.935 20.850 4.170
12441 0 2 -2.000 20.850 16.680 6.255
12442 0 2 -2.000 22.935 18.765 10.425
12443 0 2 -2.000 25.020 18.765 8.340
12444 0 2 -2.000 22.935 20.850 8.340
12445 0 2 -2.000 20.850 16.680 10.425
12446 0 2 -2.000 22.935 18.765 14.595
12447 0 2 -2.000 25.020 18.765 12.510
12448 0 2 -2.000 22.935 20.850 12.510
12449 0 2 -2.000 20.850 16.680 14.595
12450 0 2 -2.000 22.935 18.765 18.765
12451 0 2 -2.000 25.020 18.765 16.680
12452 0 2 -2.000 22.935 20.850 16.680
12453 0 2 -2.000 20.850 16.680 18.765
12454 0 2 -2.000 22.935 18.765 22.935
12455 0 2 -2.000 25.020 18.765 20.850
12456 0 2 -2.000 22.935 20.850 20.850
12457 0 2 -2.000 20.850 16.680 22.935
12458 0 2 -2.000 22.935 18.765 27.105
12459 0 2 -2.000 25.020 18.765 25.020
12460 0 2 -2.000 22.935 20.850 25.020
12461 0 2 -2.000 20.850 16.680 27.105
12462 0 2 -2.000 22.935 22.935 2.085
12463 0 2 -2.000 25.020 22.935 0.000
12464 0 2 -2.000 22.935 25.020 0.000
12465 0 2 -2.000 20.850 20.850 2.085
12466 0 2 -2.000 22.935 22.935 6.255
12467 0 2 -2.000 25.020 22.935 4.170
12468 0 2 -2.000 22.935 25.020 4.170
12469 0 2 -2.000 20.850 20.850 6.255
12470 0 2 -2.000 22.935 22.935 10.425
12471 0 2 -2.000 25.020 22.935 8.340
12472 0 2 -2.000 22.935 25.020 8.340
12473 0 2 -2.000 20.850 20.850 10.425
12474 0 2 -2.000 22.935 22.935 14.595
12475 0 2 -2.000 25.020 22.935 12.510
12476 0 2 -2.000 22.935 25.020 12.510
12477 0 2 -2.000 20.850 20.850 14.595
12478 0 2 -2.000 22.935 22.935 18.765
12479 0 2 -2.000 25.020 22.935 16.680
12480 0 2 -2.000 22.935 25.020 16.680
12481 0 2 -2.000 20.850 20.850 18.765
12482 0 2 -2.000 22.935 22.935 22.935
12483 0 2 -2.000 25.020 22.935 20.850
12484 0 2 -2.000 22.935 25.020 20.850
12485 0 2 -2.000 20.850 20.850 22.935
12486 0 2 -2.000 22.935 22.935 27.105
12487 0 2 -2.000 25.020 22.935 25.020
12488 0 2 -2.000 22.935 25.020 25.020
12489 0 2 -2.000 22.935 25.020 29.190
12490 0 2 -2.000 22.935 27.105 2.085
12491 0 2 -2.000 25.020 27.105 0.000
12492 0 2 -2.000 22.935 29.190 0.000
12493 0 2 -2.000 20.850 25.020 2.085
12494 0 2 -2.000 22.935 27.105 6.255
12495 0 2 -2.000 25.020 27.105 4.170
12496 0 2 -2.000 22.935 29.190 4.170
12497 0 2 -2.000 20.850 25.020 6.255
12498 0 2 -2.000 22.935 27.105 10.425
12499 0 2 -2.000 25.020 27.105 8.340
12500 0 2 -2.000 22.935 29.190 8.340
12501 0 2 -2.000 20.850 25.020 10.425
12502 0 2 -2.000 22.935 27.105 14.595
12503 0 2 -2.000 25.020 27.105 12.510
12504 0 2 -2.000 22.935 29.190 12.510
12505 0 2 -2.000 20.850 25.020 14.595
12506 0 2 -2.000 22.935 27.105 18.765
12507 0 2 -2.000 25.020 27.105 16.680
12508 0 2 -2.000 22.935 29.190 16.680
12509 0 2 -2.000 20.850 25.020 18.765
12510 0 2 -2.000 22.935 27.105 22.935
12511 0 2 -2.000 25.020 27.105 20.850
12512 0 2 -2.000 22.935 29.190 20.850
12513 0 2 -2.000 20.850 25.020 22.935
12514 0 2 -2.000 22.935 27.105 27.105
12515 0 2 -2.000 25.020 27.105 25.020
12516 0 2 -2.000 22.935 29.190 25.020
12517 0 2 -2.000 20.850 25.020 27.105
12518 0 2 -2.000 22.935 27.105 31.275
12519 0 2 -2.000 25.020 27.105 29.190
12520 0 2 -2.000 22.935 29.190 29.190
12521 0 2 -2.000 22.935 29.190 33.360
12522 0 2 -2.000 22.935 31.275 2.085
12523 0 2 -2.000 25.020 31.275 0.000
12524 0 2 -2.000 22.935 33.360 0.000
12525 0 2 -2.000 20.850 29.190 2.085
12526 0 2 -2.000 22.935 31.275 6.255
12527 0 2 -2.000 25.020 31.275 4.170
12528 0 2 -2.000 22.935 33.360 4.170
12529 0 2 -2.000 20.850 29.190 6.255
12530 0 2 -2.000 22.935 31.275 10.425
12531 0 2 -2.000 25.020 31.275 8.340
12532 0 2 -2.000 22.935 33.360 8.340
12533 0 2 -2.000 20.850 29.190 10.425
12534 0 2 -2.000 22.935 31.275 14.595
12535 0 2 -2.000 25.020 31.275 12.510
12536 0 2 -2.000 22.935 33.360 12.510
12537 0 2 -2.000 20.850 29.190 14.595
12538 0 2 -2.000 22.935 31.275 18.765
12539 0 2 -2.000 25.020 31.275 16.680
12540 0 2 -2.000 22.935 33.360 16.680
12541 0 2 -2.000 20.850 29.190 18.765
12542 0 2 -2.000 22.935 31.275 22.935
12543 0 2 -2.000 25.020 31.275 20.850
12544 0 2 -2.000 22.935 33.360 20.850
12545 0 2 -2.000 20.850 29.190 22.935
12546 0 2 -2.000 22.935 31.275 27.105
12547 0 2 -2.000 25.020 31.275 25.020
12548 0 2 -2.000 22.935 33.360 25.020
12549 0 2 -2.000 20.850 29.190 27.105
12550 0 2 -2.000 22.935 31.275 31.275
12551 0 2 -2.000 25.020 31.275 29.190
12552 0 2 -2.000 22.935 33.360 29.190
12553 0 2 -2.000 20.850 29.190 31.275
12554 0 2 -2.000 22.935 31.275 35.445
12555 0 2 -2.000 25.020 31.275 33.360
12556 0 2 -2.000 22.935 33.360 33.360
12557 0 2 -2.000 22.935 33.360 37.530
12558 0 2 -2.000 22.935 35.445 2.085
12559 0 2 -2.000 25.020 35.445 0.000
12560 0 2 -2.000 22.935 37.530 0.000
12561 0 2 -2.000 20.850 33.360 2.085
12562 0 2 -2.000 22.935 35.445 6.255
12563 0 2 -2.000 25.020 35.445 4.170
12564 0 2 -2.000 22.935 37.530 4.170
12565 0 2 -2.000 20.850 33.360 6.255
12566 0 2 -2.000 22.935 35.445 10.425
12567 0 2 -2.000 25.020 35.445 8.340
12568 0 2 -2.000 22.935 37.530 8.340
12569 0 2 -2.000 20.850 33.360 10.425
12570 0 2 -2.000 22.935 35.445 14.595
12571 0 2 -2.000 25.020 35.445 12.510
12572 0 2 -2.000 22.935 37.530 12.510
12573 0 2 -2.000 20.850 33.360 14.595
12574 0 2 -2.000 22.935 35.445 18.765
12575 0 2 -2.000 25.020 35.445 16.680
12576 0 2 -2.000 22.935 37.530 16.680
12577 0 2 -2.000 20.850 33.360 18.765
12578 0 2 -2.000 22.935 35.445 22.935
12579 0 2 -2.000 25.020 35.445 20.850
12580 0 2 -2.000 22.935 37.530 20.850
12581 0 2 -2.000 20.850 33.360 22.935
12582 0 2 -2.000 22.935 35.445 27.105
12583 0 2 -2.000 25.020 35.445 25.020
12584 0 2 -2.000 22.935 37.530 25.020
12585 0 2 -2.000 20.850 33.360 27.105
12586 0 2 -2.000 22.935 35.445 31.275
12587 0 2 -2.000 25.020 35.445 29.190
12588 0 2 -2.000 22.935 37.530 29.190
12589 0 2 -2.000 20.850 33.360 31.275
12590 0 2 -2.000 22.935 35.445 35.445
12591 0 2 -2.000 25.020 35.445 33.360
12592 0 2 -2.000 22.935 37.530 33.360
12593 0 2 -2.000 20.850 33.360 35.445
12594 0 2 -2.000 22.935 35.445 39.615
12595 0 2 -2.000 25.020 35.445 37.530
12596 0 2 -2.000 22.935 37.530 37.530
12597 0 2 -2.000 22.935 39.615 2.085
12598 0 2 -2.000 25.020 39.615 0.000
12599 0 2 -2.000 22.935 0.000 0.000
12600 0 2 -2.000 20.850 37.530 2.085
12601 0 2 -2.000 22.935 39.615 6.255
12602 0 2 -2.000 25.020 39.615 4.170
12603 0 2 -2.000 22.935 0.000 4.170
12604 0 2 -2.000 20.850 37.530 6.255
12605 0 2 -2.000 22.935 39.615 10.425
12606 0 2 -2.000 25.020 39.615 8.340
12607 0 2 -2.000 22.935 0.000 8.340
12608 0 2 -2.000 20.850 37.530 10.425
12609 0 2 -2.000 22.935 39.615 14.595
12610 0 2 -2.000 25.020 39.615 12.510
12611 0 2 -2.000 22.935 0.000 12.510
12612 0 2 -2.000 20.850 37.530 14.595
12613 0 2 -2.000 22.935 39.615 18.765
12614 0 2 -2.000 25.020 39.615 16.680
12615 0 2 -2.000 22.935 0.000 16.680
12616 0 2 -2.000 20.850 37.530 18.765
12617 0 2 -2.000 22.935 39.615 22.935
12618 0 2 -2.000 25.020 39.615 20.850
12619 0 2 -2.000 22.935 0.000 20.850
12620 0 2 -2.000 20.850 37.530 22.935
12621 0 2 -2.000 22.935 39.615 27.105
12622 0 2 -2.000 25.020 39.615 25.020
12623 0 2 -2.000 22.935 0.000 25.020
12624 0 2 -2.000 20.850 37.530 27.105
12625 0 2 -2.000 22.935 39.615 31.275
12626 0 2 -2.000 25.020 39.615 29.190
12627 0 2 -2.000 22.935 0.000 29.190
12628 0 2 -2.000 20.850 37.530 31.275
12629 0 2 -2.000 22.935 39.615 35.445
12630 0 2 -2.000 25.020 39.615 33.360
12631 0 2 -2.000 22.935 0.000 33.360
12632 0 2 -2.000 20.850 37.530 35.445
12633 0 2 -2.000 22.935 39.615 39.615
12634 0 2 -2.000 25.020 39.615 37.530
12635 0 2 -2.000 22.935 0.000 37.530
12636 0 2 -2.000 20.850 37.530 39.615
12637 0 2 -2.000 27.105 2.085 2.085
12638 0 2 -2.000 29.190 2.085 0.000
12639 0 2 -2.000 27.105 4.170 0.000
12640 0 2 -2.000 25.020 0.000 2.085
12641 0 2 -2.000 27.105 2.085 6.255
12642 0 2 -2.000 29.190 2.085 4.170
12643 0 2 -2.000 27.105 4.170 4.170
12644 0 2 -2.000 25.020 0.000 6.255
12645 0 2 -2.000 27.105 2.085 10.425
12646 0 2 -2.000 29.190 2.085 8.340
12647 0 2 -2.000 27.105 4.170 8.340
12648 0 2 -2.000 25.020 0.000 10.425
12649 0 2 -2.000 27.105 2.085 14.595
12650 0 2 -2.000 29.190 2.085 12.510
12651 0 2 -2.000 27.105 4.170 12.510
12652 0 2 -2.000 25.020 0.000 14.595
12653 0 2 -2.000 27.105 2.085 18.765
12654 0 2 -2.000 29.190 2.085 16.680
12655 0 2 -2.000 27.105 4.170 16.680
12656 0 2 -2.000 25.020 0.000 18.765
12657 0 2 -2.000 27.105 2.085 22.935
12658 0 2 -2.000 29.190 2.085 20.850
12659 0 2 -2.000 27.105 4.170 20.850
12660 0 2 -2.000 25.020 0.000 22.935
12661 0 2 -2.000 27.105 2.085 27.105
12662 0 2 -2.000 29.190 2.085 25.020
12663 0 2 -2.000 27.105 4.170 25.020
12664 0 2 -2.000 25.020 0.000 27.105
12665 0 2 -2.000 27.105 2.085 31.275
12666 0 2 -2.000 29.190 2.085 29.190
12667 0 2 -2.000 27.105 4.170 29.190
12668 0 2 -2.000 25.020 0.000 31.275
12669 0 2 -2.000 27.105 2.085 35.445
12670 0 2 -2.000 29.190 2.085 33.360
12671 0 2 -2.000 27.105 4.170 33.360
12672 0 2 -2.000 25.020 0.000 35.445
12673 0 2 -2.000 27.105 2.085 39.615
12674 0 2 -2.000 29.190 2.085 37.530
12675 0 2 -2.000 27.105 4.170 37.530
12676 0 2 -2.000 25.020 0.000 39.615
12677 0 2 -2.000 27.105 6.255 2.085
12678 0 2 -2.000 29.190 6.255 0.000
12679 0 2 -2.000 27.105 8.340 0.000
12680 0 2 -2.000 25.020 4.170 2.085
12681 0 2 -2.000 27.105 6.255 6.255
12682 0 2 -2.000 29.190 6.255 4.170
12683 0 2 -2.000 27.105 8.340 4.170
12684 0 2 -2.000 25.020 4.170 6.255
12685 0 2 -2.000 27.105 6.255 10.425
12686 0 2 -2.000 29.190 6.255 8.340
12687 0 2 -2.000 27.105 8.340 8.340
12688 0 2 -2.000 25.020 4.170 10.425
12689 0 2 -2.000 27.105 6.255 14.595
12690 0 2 -2.000 29.190 6.255 12.510
12691 0 2 -2.000 27.105 8.340 12.510
12692 0 2 -2.000 25.020 4.170 14.595
12693 0 2 -2.000 27.105 6.255 18.765
12694 0 2 -2.000 29.190 6.255 16.680
12695 0 2 -2.000 27.105 8.340 16.680
12696 0 2 -2.000 25.020 4.170 18.765
12697 0 2 -2.000 27.105 6.255 22.935
12698 0 2 -2.000 29.190 6.255 20.850
12699 0 2 -2.000 27.105 8.340 20.850
12700 0 2 -2.000 25.020 4.170 22.935
12701 0 2 -2.000 27.105 6.255 27.105
12702 0 2 -2.000 29.190 6.255 25.020
12703 0 2 -2.000 27.105 8.340 25.020
12704 0 2 -2.000 25.020 4.170 27.105
12705 0 2 -2.000 27.105 6.255 31.275
12706 0 2 -2.000 29.190 6.255 29.190
12707 0 2 -2.000 27.105 8.340 29.190
12708 0 2 -2.000 25.020 4.170 31.275
12709 0 2 -2.000 27.105 6.255 35.445
12710 0 2 -2.000 29.190 6.255 33.360
12711 0 2 -2.000 27.105 8.340 33.360
12712 0 2 -2.000 25.020 4.170 35.445
12713 0 2 -2.000 27.105 6.255 39.615
12714 0 2 -2.000 29.190 6.255 37.530
12715 0 2 -2.000 27.105 8.340 37.530
12716 0 2 -2.000 25.020 4.170 39.615
12717 0 2 -2.000 27.105 10.425 2.085
12718 0 2 -2.000 29.190 10.425 0.000
12719 0 2 -2.000 27.105 12.510 0.000
12720 0 2 -2.000 25.020 8.340 2.085
12721 0 2 -2.000 27.105 10.425 6.255
12722 0 2 -2.000 29.190 10.425 4.170
12723 0 2 -2.000 27.105 12.510 4.170
12724 0 2 -2.000 25.020 8.340 6.255
12725 0 2 -2.000 27.105 10.425 10.425
12726 0 2 -2.000 29.190 10.425 8.340
12727 0 2 -2.000 27.105 12.510 8.340
12728 0 2 -2.000 25.020 8.340 10.425
12729 0 2 -2.000 27.105 10.425 14.595
12730 0 2 -2.000 29.190 10.425 12.510
12731 0 2 -2.000 27.105 12.510 12.510
12732 0 2 -2.000 25.020 8.340 14.595
12733 0 2 -2.000 27.105 10.425 18.765
12734 0 2 -2.000 29.190 10.425 16.680
12735 0 2 -2.000 27.105 12.510 16.680
12736 0 2 -2.000 25.020 8.340 18.765
12737 0 2 -2.000 27.105 10.425 22.935
12738 0 2 -2.000 29.190 10.425 20.850
12739 0 2 -2.000 27.105 12.510 20.850
12740 0 2 -2.000 25.020 8.340 22.935
12741 0 2 -2.000 27.105 10.425 27.105
12742 0 2 -2.000 29.190 10.425 25.020
12743 0 2 -2.000 27.105 12.510 25.020
12744 0 2 -2.000 25.020 8.340 27.105
12745 0 2 -2.000 27.105 10.425 31.275
12746 0 2 -2.000 29.190 10.425 29.190
12747 0 2 -2.000 27.105 12.510 29.190
12748 0 2 -2.000 25.020 8.340 31.275
12749 0 2 -2.000 27.105 10.425 35.445
12750 0 2 -2.000 29.190 10.425 33.360
12751 0 2 -2.000 27.105 12.510 33.360
12752 0 2 -2.000 25.020 8.340 35.445
12753 0 2 -2.000 27.105 14.595 2.085
12754 0 2 -2.000 29.190 14.595 0.000
12755 0 2 -2.000 27.105 16.680 0.000
12756 0 2 -2.000 25.020 12.510 2.085
12757 0 2 -2.000 27.105 14.595 6.255
12758 0 2 -2.000 29.190 14.595 4.170
12759 0 2 -2.000 27.105 16.680 4.170
12760 0 2 -2.000 25.020 12.510 6.255
12761 0 2 -2.000 27.105 14.595 10.425
12762 0 2 -2.000 29.190 14.595 8.340
12763 0 2 -2.000 27.105 16.680 8.340
12764 0 2 -2.000 25.020 12.510 10.425
12765 0 2 -2.000 27.105 14.595 14.595
12766 0 2 -2.000 29.190 14.595 12.510
12767 0 2 -2.000 27.105 16.680 12.510
12768 0 2 -2.000 25.020 12.510 14.595
12769 0 2 -2.000 27.105 14.595 18.765
12770 0 2 -2.000 29.190 14.595 16.680
12771 0 2 -2.000 27.105 16.680 16.680
12772 0 2 -2.000 25.020 12.510 18.765
12773 0 2 -2.000 27.105 14.595 22.935
12774 0 2 -2.000 29.190 14.595 20.850
12775 0 2 -2.000 27.105 16.680 20.850
12776 0 2 -2.000 25.020 12.510 22.935
12777 0 2 -2.000 27.105 14.595 27.105
12778 0 2 -2.000 29.190 14.595 25.020
12779 0 2 -2.000 27.105 16.680 25.020
12780 0 2 -2.000 25.020 12.510 27.105
12781 0 2 -2.000 27.105 14.595 31.275
12782 0 2 -2.000 29.190 14.595 29.190
12783 0 2 -2.000 27.105 16.680 29.190
12784 0 2 -2.000 25.020 12.510 31.275
12785 0 2 -2.000 27.105 18.765 2.085
12786 0 2 -2.000 29.190 18.765 0.000
12787 0 2 -2.000 27.105 20.850 0.000
12788 0 2 -2.000 25.020 16.680 2.085
12789 0 2 -2.000 27.105 18.765 6.255
12790 0 2 -2.000 29.190 18.765 4.170
12791 0 2 -2.000 27.105 20.850 4.170
12792 0 2 -2.000 25.020 16.680 6.255
12793 0 2 -2.000 27.105 18.765 10.425
12794 0 2 -2.000 29.190 18.765 8.340
12795 0 2 -2.000 27.105 20.850 8.340
12796 0 2 -2.000 25.020 16.680 10.425
12797 0 2 -2.000 27.105 18.765 14.595
12798 0 2 -2.000 29.190 18.765 12.510
12799 0 2 -2.000 27.105 20.850 12.510
12800 0 2 -2.000 25.020 16.680 14.595
12801 0 2 -2.000 27.105 18.765 18.765
12802 0 2 -2.000 29.190 18.765 16.680
12803 0 2 -2.000 27.105 20.850 16.680
12804 0 2 -2.000 25.020 16.680 18.765
12805 0 2 -2.000 27.105 18.765 22.935
12806 0 2 -2.000 29.190 18.765 20.850
12807 0 2 -2.000 27.105 20.850 20.850
12808 0 2 -2.000 25.020 16.680 22.935
12809 0 2 -2.000 27.105 18.765 27.105
12810 0 2 -2.000 29.190 18.765 25.020
12811 0 2 -2.000 27.105 20.850 25.020
12812 0 2 -2.000 25.020 16.680 27.105
12813 0 2 -2.000 27.105 22.935 2.085
12814 0 2 -2.000 29.190 22.935 0.000
12815 0 2 -2.000 27.105 25.020 0.000
12816 0 2 -2.000 25.020 20.850 2.085
12817 0 2 -2.000 27.105 22.935 6.255
12818 0 2 -2.000 29.190 22.935 4.170
12819 0 2 -2.000 27.105 25.020 4.170
12820 0 2 -2.000 25.020 20.850 6.255
12821 0 2 -2.000 27.105 22.935 10.425
12822 0 2 -2.000 29.190 22.935 8.340
12823 0 2 -2.000 27.105 25.020 8.340
12824 0 2 -2.000 25.020 20.850 10.425
12825 0 2 -2.000 27.105 22.935 14.595
12826 0 2 -2.000 29.190 22.935 12.510
12827 0 2 -2.000 27.105 25.020 12.510
12828 0 2 -2.000 25.020 20.850 14.595
12829 0 2 -2.000 27.105 22.935 18.765
12830 0 2 -2.000 29.190 22.935 16.680
12831 0 2 -2.000 27.105 25.020 16.680
12832 0 2 -2.000 25.020 20.850 18.765
12833 0 2 -2.000 27.105 22.935 22.935
12834 0 2 -2.000 29.190 22.935 20.850
12835 0 2 -2.000 27.105 25.020 20.850
12836 0 2 -2.000 25.020 20.850 22.935
12837 0 2 -2.000 27.105 22.935 27.105
12838 0 2 -2.000 29.190 22.935 25.020
12839 0 2 -2.000 27.105 25.020 25.020
12840 0 2 -2.000 27.105 25.020 29.190
12841 0 2 -2.000 27.105 27.105 2.085
12842 0 2 -2.000 29.190 27.105 0.000
12843 0 2 -2.000 27.105 29.190 0.000
12844 0 2 -2.000 25.020 25.020 2.085
12845 0 2 -2.000 27.105 27.105 6.255
12846 0 2 -2.000 29.190 27.105 4.170
12847 0 2 -2.000 27.105 29.190 4.170
12848 0 2 -2.000 25.020 25.020 6.255
12849 0 2 -2.000 27.105 27.105 10.425
12850 0 2 -2.000 29.190 27.105 8.340
12851 0 2 -2.000 27.105 29.190 8.340
12852 0 2 -2.000 25.020 25.020 10.425
12853 0 2 -2.000 27.105 27.105 14.595
12854 0 2 -2.000 29.190 27.105 12.510
12855 0 2 -2.000 27.105 29.190 12.510
12856 0 2 -2.000 25.020 25.020 14.595
12857 0 2 -2.000 27.105 27.105 18.765
12858 0 2 -2.000 29.190 27.105 16.680
12859 0 2 -2.000 27.105 29.190 16.680
12860 0 2 -2.000 25.020 25.020 18.765
12861 0 2 -2.000 27.105 27.105 22.935
12862 0 2 -2.000 29.190 27.105 20.850
12863 0 2 -2.000 27.105 29.190 20.850
12864 0 2 -2.000 25.020 25.020 22.935
12865 0 2 -2.000 27.105 27.105 27.105
12866 0 2 -2.000 29.190 27.105 25.020
12867 0 2 -2.000 27.105 29.190 25.020
12868 0 2 -2.000 25.020 25.020 27.105
12869 0 2 -2.000 27.105 27.105 31.275
12870 0 2 -2.000 29.190 27.105 29.190
12871 0 2 -2.000 27.105 29.190 29.190
12872 0 2 -2.000 27.105 29.190 33.360
12873 0 2 -2.000 27.105 31.275 2.085
12874 0 2 -2.000 29.190 31.275 0.000
12875 0 2 -2.000 27.105 33.360 0.000
12876 0 2 -2.000 25.020 29.190 2.085
12877 0 2 -2.000 27.105 31.275 6.255
12878 0 2 -2.000 29.190 31.275 4.170
12879 0 2 -2.000 27.105 33.360 4.170
12880 0 2 -2.000 25.020 29.190 6.255
12881 0 2 -2.000 27.105 31.275 10.425
12882 0 2 -2.000 29.190 31.275 8.340
12883 0 2 -2.000 27.105 33.360 8.340
12884 0 2 -2.000 25.020 29.190 10.425
12885 0 2 -2.000 27.105 31.275 14.595
12886 0 2 -2.000 29.190 31.275 12.510
12887 0 2 -2.000 27.105 33.360 12.510
12888 0 2 -2.000 25.020 29.190 14.595
12889 0 2 -2.000 27.105 31.275 18.765
12890 0 2 -2.000 29.190 31.275 16.680
12891 0 2 -2.000 27.105 33.360 16.680
12892 0 2 -2.000 25.020 29.190 18.765
12893 0 2 -2.000 27.105 31.275 22.935
12894 0 2 -2.000 29.190 31.275 20.850
12895 0 2 -2.000 27.105 33.360 20.850
12896 0 2 -2.000 25.020 29.190 22.935
12897 0 2 -2.000 27.105 31.275 27.105
12898 0 2 -2.000 29.190 31.275 25.020
12899 0 2 -2.000 27.105 33.360 25.020
12900 0 2 -2.000 25.020 29.190 27.105
12901 0 2 -2.000 27.105 31.275 31.275
12902 0 2 -2.000 29.190 31.275 29.190
12903 0 2 -2.000 27.105 33.360 29.190
12904 0 2 -2.000 25.020 29.190 31.275
12905 0 2 -2.000 27.105 31.275 35.445
12906 0 2 -2.000 29.190 31.275 33.360
12907 0 2 -2.000 27.105 33.360 33.360
12908 0 2 -2.000 27.105 33.360 37.530
12909 0 2 -2.000 27.105 35.445 2.085
12910 0 2 -2.000 29.190 35.445 0.000
12911 0 2 -2.000 27.105 37.530 0.000
12912 0 2 -2.000 25.020 33.360 2.085
12913 0 2 -2.000 27.105 35.445 6.255
12914 0 2 -2.000 29.190 35.445 4.170
12915 0 2 -2.000 27.105 37.530 4.170
12916 0 2 -2.000 25.020 33.360 6.255
12917 0 2 -2.000 27.105 35.445 10.425
12918 0 2 -2.000 29.190 35.445 8.340
12919 0 2 -2.000 27.105 37.530 8.340
12920 0 2 -2.000 25.020 33.360 10.425
12921 0 2 -2.000 27.105 35.445 14.595
12922 0 2 -2.000 29.190 35.445 12.510
12923 0 2 -2.000 27.105 37.530 12.510
12924 0 2 -2.000 25.020 33.360 14.595
12925 0 2 -2.000 27.105 35.445 18.765
12926 0 2 -2.000 29.190 35.445 16.680
12927 0 2 -2.000 27.105 37.530 16.680
12928 0 2 -2.000 25.020 33.360 18.765
12929 0 2 -2.000 27.105 35.445 22.935
12930 0 2 -2.000 29.190 35.445 20.850
12931 0 2 -2.000 27.105 37.530 20.850
12932 0 2 -2.000 25.020 33.360 22.935
12933 0 2 -2.000 27.105 35.445 27.105
12934 0 2 -2.000 29.190 35.445 25.020
12935 0 2 -2.000 27.105 37.530 25.020
12936 0 2 -2.000 25.020 33.360 27.105
12937 0 2 -2.000 27.105 35.445 31.275
12938 0 2 -2.000 29.190 35.445 29.190
12939 0 2 -2.000 27.105 37.530 29.190
12940 0 2 -2.000 25.020 33.360 31.275
12941 0 2 -2.000 27.105 35.445 35.445
12942 0 2 -2.000 29.190 35.445 33.360
12943 0 2 -2.000 27.105 37.530 33.360
12944 0 2 -2.000 25.020 33.360 35.445
12945 0 2 -2.000 27.105 35.445 39.615
12946 0 2 -2.000 29.190 35.445 37.530
12947 0 2 -2.000 27.105 37.530 37.530
12948 0 2 -2.000 27.105 39.615 2.085
12949 0 2 -2.000 29.190 39.615 0.000
12950 0 2 -2.000 27.105 0.000 0.000
12951 0 2 -2.000 25.020 37.530 2.085
12952 0 2 -2.000 27.105 39.615 6.255
12953 0 2 -2.000 29.190 39.615 4.170
12954 0 2 -2.000 27.105 0.000 4.170
12955 0 2 -2.000 25.020 37.530 6.255
12956 0 2 -2.000 27.105 39.615 10.425
12957 0 2 -2.000 29.190 39.615 8.340
12958 0 2 -2.000 27.105 0.000 8.340
12959 0 2 -2.000 25.020 37.530 10.425
12960 0 2 -2.000 27.105 39.615 14.595
12961 0 2 -2.000 29.190 39.615 12.510
12962 0 2 -2.000 27.105 0.000 12.510
12963 0 2 -2.000 25.020 37.530 14.595
12964 0 2 -2.000 27.105 39.615 18.765
12965 0 2 -2.000 29.190 39.615 16.680
12966 0 2 -2.000 27.105 0.000 16.680
12967 0 2 -2.000 25.020 37.530 18.765
12968 0 2 -2.000 27.105 39.615 22.935
12969 0 2 -2.000 29.190 39.615 20.850
12970 0 2 -2.000 27.105 0.000 20.850
12971 0 2 -2.000 25.020 37.530 22.935
12972 0 2 -2.000 27.105 39.615 27.105
12973 0 2 -2.000 29.190 39.615 25.020
12974 0 2 -2.000 27.105 0.000 25.020
12975 0 2 -2.000 25.020 37.530 27.105
12976 0 2 -2.000 27.105 39.615 31.275
12977 0 2 -2.000 29.190 39.615 29.190
12978 0 2 -2.000 27.105 0.000 29.190
12979 0 2 -2.000 25.020 37.530 31.275
12980 0 2 -2.000 27.105 39.615 35.445
12981 0 2 -2.000 29.190 39.615 33.360
12982 0 2 -2.000 27.105 0.000 33.360
12983 0 2 -2.000 25.020 37.530 35.445
12984 0 2 -2.000 27.105 39.615 39.615
12985 0 2 -2.000 29.190 39.615 37.530
12986 0 2 -2.000 27.105 0.000 37.530
12987 0 2 -2.000 25.020 37.530 39.615
12988 0 2 -2.000 31.275 2.085 2.085
12989 0 2 -2.000 33.360 2.085 0.000
12990 0 2 -2.000 31.275 4.170 0.000
12991 0 2 -2.000 29.190 0.000 2.085
12992 0 2 -2.000 31.275 2.085 6.255
12993 0 2 -2.000 33.360 2.085 4.170
12994 0 2 -2.000 31.275 4.170 4.170
12995 0 2 -2.000 29.190 0.000 6.255
12996 0 2 -2.000 31.275 2.085 10.425
12997 0 2 -2.000 33.360 2.085 8.340
12998 0 2 -2.000 31.275 4.170 8.340
12999 0 2 -2.000 29.190 0.000 10.425
13000 0 2 -2.000 31.275 2.085 14.595
13001 0 2 -2.000 33.360 2.085 12.510
13002 0 2 -2.000 31.275 4.170 12.510
13003 0 2 -2.000 29.190 0.000 14.595
13004 0 2 -2.000 31.275 2.085 18.765
13005 0 2 -2.000 33.360 2.085 16.680
13006 0 2 -2.000 31.275 4.170 16.680
13007 0 2 -2.000 29.190 0.000 18.765
13008 0 2 -2.000 31.275 2.085 22.935
13009 0 2 -2.000 33.360 2.085 20.850
13010 0 2 -2.000 31.275 4.170 20.850
13011 0 2 -2.000 29.190 0.000 22.935
13012 0 2 -2.000 31.275 2.085 27.105
13013 0 2 -2.000 33.360 2.085 25.020
13014 0 2 -2.000 31.275 4.170 25.020
13015 0 2 -2.000 29.190 0.000 27.105
13016 0 2 -2.000 31.275 2.085 31.275
13017 0 2 -2.000 33.360 2.085 29.190
13018 0 2 -2.000 31.275 4.170 29.190
13019 0 2 -2.000 29.190 0.000 31.275
13020 0 2 -2.000 31.275 2.085 35.445
13021 0 2 -2.000 33.360 2.085 33.360
13022 0 2 -2.000 31.275 4.170 33.360
13023 0 2 -2.000 29.190 0.000 35.445
13024 0 2 -2.000 31.275 2.085 39.615
13025 0 2 -2.000 33.360 2.085 37.530
13026 0 2 -2.000 31.275 4.170 37.530
13027 0 2 -2.000 29.190 0.000 39.615
13028 0 2 -2.000 31.275 6.255 2.085
13029 0 2 -2.000 33.360 6.255 0.000
13030 0 2 -2.000 31.275 8.340 0.000
13031 0 2 -2.000 29.190 4.170 2.085
13032 0 2 -2.000 31.275 6.255 6.255
13033 0 2 -2.000 33.360 6.255 4.170
13034 0 2 -2.000 31.275 8.340 4.170
13035 0 2 -2.000 29.190 4.170 6.255
13036 0 2 -2.000 31.275 6.255 10.425
13037 0 2 -2.000 33.360 6.255 8.340
13038 0 2 -2.000 31.275 8.340 8.340
13039 0 2 -2.000 29.190 4.170 10.425
13040 0 2 -2.000 31.275 6.255 14.595
13041 0 2 -2.000 33.360 6.255 12.510
13042 0 2 -2.000 31.275 8.340 12.510
13043 0 2 -2.000 29.190 4.170 14.595
13044 0 2 -2.000 31.275 6.255 18.765
13045 0 2 -2.000 33.360 6.255 16.680
13046 0 2 -2.000 31.275 8.340 16.680
13047 0 2 -2.000 29.190 4.170 18.765
13048 0 2 -2.000 31.275 6.255 22.935
13049 0 2 -2.000 33.360 6.255 20.850
13050 0 2 -2.000 31.275 8.340 20.850
13051 0 2 -2.000 29.190 4.170 22.935
13052 0 2 -2.000 31.275 6.255 27.105
13053 0 2 -2.000 33.360 6.255 25.020
13054 0 2 -2.000 31.275 8.340 25.020
13055 0 2 -2.000 29.190 4.170 27.105
13056 0 2 -2.000 31.275 6.255 31.275
13057 0 2 -2.000 33.360 6.255 29.190
13058 0 2 -2.000 31.275 8.340 29.190
13059 0 2 -2.000 29.190 4.170 31.275
13060 0 2 -2.000 31.275 6.255 35.445
13061 0 2 -2.000 33.360 6.255 33.360
13062 0 2 -2.000 31.275 8.340 33.360
13063 0 2 -2.000 29.190 4.170 35.445
13064 0 2 -2.000 31.275 6.255 39.615
13065 0 2 -2.000 33.360 6.255 37.530
13066 0 2 -2.000 31.275 8.340 37.530
13067 0 2 -2.000 29.190 4.170 39.615
13068 0 2 -2.000 31.275 10.425 2.085
13069 0 2 -2.000 33.360 10.425 0.000
13070 0 2 -2.000 31.275 12.510 0.000
13071 0 2 -2.000 29.190 8.340 2.085
13072 0 2 -2.000 31.275 10.425 6.255
13073 0 2 -2.000 33.360 10.425 4.170
13074 0 2 -2.000 31.275 12.510 4.170
13075 0 2 -2.000 29.190 8.340 6.255
13076 0 2 -2.000 31.275 10.425 10.425
13077 0 2 -2.000 33.360 10.425 8.340
13078 0 2 -2.000 31.275 12.510 8.340
13079 0 2 -2.000 29.190 8.340 10.425
13080 0 2 -2.000 31.275 10.425 14.595
13081 0 2 -2.000 33.360 10.425 12.510
13082 0 2 -2.000 31.275 12.510 12.510
13083 0 2 -2.000 29.190 8.340 14.595
13084 0 2 -2.000 31.275 10.425 18.765
13085 0 2 -2.000 33.360 10.425 16.680
13086 0 2 -2.000 31.275 12.510 16.680
13087 0 2 -2.000 29.190 8.340 18.765
13088 0 2 -2.000 31.275 10.425 22.935
13089 0 2 -2.000 33.360 10.425 20.850
13090 0 2 -2.000 31.275 12.510 20.850
13091 0 2 -2.000 29.190 8.340 22.935
13092 0 2 -2.000 31.275 10.425 27.105
13093 0 2 -2.000 33.360 10.425 25.020
13094 0 2 -2.000 31.275 12.510 25.020
13095 0 2 -2.000 29.190 8.340 27.105
13096 0 2 -2.000 31.275 10.425 31.275
13097 0 2 -2.000 33.360 10.425 29.190
13098 0 2 -2.000 31.275 12.510 29.190
13099 0 2 -2.000 29.190 8.340 31.275
13100 0 2 -2.000 31.275 10.425 35.445
13101 0 2 -2.000 33.360 10.425 33.360
13102 0 2 -2.000 31.275 12.510 33.360
13103 0 2 -2.000 29.190 8.340 35.445
13104 0 2 -2.000 31.275 14.595 2.085
13105 0 2 -2.000 33.360 14.595 0.000
13106 0 2 -2.000 31.275 16.680 0.000
13107 0 2 -2.000 29.190 12.510 2.085
13108 0 2 -2.000 31.275 14.595 6.255
13109 0 2 -2.000 33.360 14.595 4.170
13110 0 2 -2.000 31.275 16.680 4.170
13111 0 2 -2.000 29.190 12.510 6.255
13112 0 2 -2.000 31.275 14.595 10.425
13113 0 2 -2.000 33.360 14.595 8.340
13114 0 2 -2.000 31.275 16.680 8.340
13115 0 2 -2.000 29.190 12.510 10.425
13116 0 2 -2.000 31.275 14.595 14.595
13117 0 2 -2.000 33.360 14.595 12.510
13118 0 2 -2.000 31.275 16.680 12.510
13119 0 2 -2.000 29.190 12.510 14.595
13120 0 2 -2.000 31.275 14.595 18.765
13121 0 2 -2.000 33.360 14.595 16.680
13122 0 2 -2.000 31.275 16.680 16.680
13123 0 2 -2.000 29.190 12.510 18.765
13124 0 2 -2.000 31.275 14.595 22.935
13125 0 2 -2.000 33.360 14.595 20.850
13126 0 2 -2.000 31.275 16.680 20.850
13127 0 2 -2.000 29.190 12.510 22.935
13128 0 2 -2.000 31.275 14.595 27.105
13129 0 2 -2.000 33.360 14.595 25.020
13130 0 2 -2.000 31.275 16.680 25.020
13131 0 2 -2.000 29.190 12.510 27.105
13132 0 2 -2.000 31.275 14.595 31.275
13133 0 2 -2.000 33.360 14.595 29.190
13134 0 2 -2.000 31.275 16.680 29.190
13135 0 2 -2.000 29.190 12.510 31.275
13136 0 2 -2.000 31.275 18.765 2.085
13137 0 2 -2.000 33.360 18.765 0.000
13138 0 2 -2.000 31.275 20.850 0.000
13139 0 2 -2.000 29.190 16.680 2.085
13140 0 2 -2.000 31.275 18.765 6.255
13141 0 2 -2.000 33.360 18.765 4.170
13142 0 2 -2.000 31.275 20.850 4.170
13143 0 2 -2.000 29.190 16.680 6.255
13144 0 2 -2.000 31.275 18.765 10.425
13145 0 2 -2.000 33.360 18.765 8.340
13146 0 2 -2.000 31.275 20.850 8.340
13147 0 2 -2.000 29.190 16.680 10.425
13148 0 2 -2.000 31.275 18.765 14.595
13149 0 2 -2.000 33.360 18.765 12.510
13150 0 2 -2.000 31.275 20.850 12.510
13151 0 2 -2.000 29.190 16.680 14.595
13152 0 2 -2.000 31.275 18.765 18.765
13153 0 2 -2.000 33.360 18.765 16.680
13154 0 2 -2.000 31.275 20.850 16.680
13155 0 2 -2.000 29.190 16.680 18.765
13156 0 2 -2.000 31.275 18.765 22.935
13157 0 2 -2.000 33.360 18.765 20.850
13158 0 2 -2.000 31.275 20.850 20.850
13159 0 2 -2.000 29.190 16.680 22.935
13160 0 2 -2.000 31.275 18.765 27.105
13161 0 2 -2.000 33.360 18.765 25.020
13162 0 2 -2.000 31.275 20.850 25.020
13163 0 2 -2.000 29.190 16.680 27.105
13164 0 2 -2.000 31.275 22.935 2.085
13165 0 2 -2.000 33.360 22.935 0.000
13166 0 2 -2.000 31.275 25.020 0.000
13167 0 2 -2.000 29.190 20.850 2.085
13168 0 2 -2.000 31.275 22.935 6.255
13169 0 2 -2.000 33.360 22.935 4.170
13170 0 2 -2.000 31.275 25.020 4.170
13171 0 2 -2.000 29.190 20.850 6.255
13172 0 2 -2.000 31.275 22.935 10.425
13173 0 2 -2.000 33.360 22.935 8.340
13174 0 2 -2.000 31.275 25.020 8.340
13175 0 2 -2.000 29.190 20.850 10.425
13176 0 2 -2.000 31.275 22.935 14.595
13177 0 2 -2.000 33.360 22.935 12.510
13178 0 2 -2.000 31.275 25.020 12.510
13179 0 2 -2.000 29.190 20.850 14.595
13180 0 2 -2.000 31.275 22.935 18.765
13181 0 2 -2.000 33.360 22.935 16.680
13182 0 2 -2.000 31.275 25.020 16.680
13183 0 2 -2.000 29.190 20.850 18.765
13184 0 2 -2.000 31.275 22.935 22.935
13185 0 2 -2.000 33.360 22.935 20.850
13186 0 2 -2.000 31.275 25.020 20.850
13187 0 2 -2.000 29.190 20.850 22.935
13188 0 2 -2.000 31.275 22.935 27.105
13189 0 2 -2.000 33.360 22.935 25.020
13190 0 2 -2.000 31.275 25.020 25.020
13191 0 2 -2.000 31.275 25.020 29.190
13192 0 2 -2.000 31.275 27.105 2.085
13193 0 2 -2.000 33.360 27.105 0.000
13194 0 2 -2.000 31.275 29.190 0.000
13195 0 2 -2.000 29.190 25.020 2.085
13196 0 2 -2.000 31.275 27.105 6.255
13197 0 2 -2.000 33.360 27.105 4.170
13198 0 2 -2.000 31.275 29.190 4.170
13199 0 2 -2.000 29.190 25.020 6.255
13200 0 2 -2.000 31.275 27.105 10.425
13201 0 2 -2.000 33.360 27.105 8.340
13202 0 2 -2.000 31.275 29.190 8.340
13203 0 2 -2.000 29.190 25.020 10.425
13204 0 2 -2.000 31.275 27.105 14.595
13205 0 2 -2.000 33.360 27.105 12.510
13206 0 2 -2.000 31.275 29.190 12.510
13207 0 2 -2.000 29.190 25.020 14.595
13208 0 2 -2.000 31.275 27.105 18.765
13209 0 2 -2.000 33.360 27.105 16.680
13210 0 2 -2.000 31.275 29.190 16.680
13211 0 2 -2.000 29.190 25.020 18.765
13212 0 2 -2.000 31.275 27.105 22.935
13213 0 2 -2.000 33.360 27.105 20.850
13214 0 2 -2.000 31.275 29.190 20.850
13215 0 2 -2.000 29.190 25.020 22.935
13216 0 2 -2.000 31.275 27.105 27.105
13217 0 2 -2.000 33.360 27.105 25.020
13218 0 2 -2.000 31.275 29.190 25.020
13219 0 2 -2.000 29.190 25.020 27.105
13220 0 2 -2.000 31.275 27.105 31.275
13221 0 2 -2.000 33.360 27.105 29.190
13222 0 2 -2.000 31.275 29.190 29.190
13223 0 2 -2.000 31.275 29.190 33.360
13224 0 2 -2.000 31.275 31.275 2.085
13225 0 2 -2.000 33.360 31.275 0.000
13226 0 2 -2.000 31.275 33.360 0.000
13227 0 2 -2.000 29.190 29.190 2.085
13228 0 2 -2.000 31.275 31.275 6.255
13229 0 2 -2.000 33.360 31.275 4.170
13230 0 2 -2.000 31.275 33.360 4.170
13231 0 2 -2.000 29.190 29.190 6.255
13232 0 2 -2.000 31.275 31.275 10.425
13233 0 2 -2.000 33.360 31.275 8.340
13234 0 2 -2.000 31.275 33.360 8.340
13235 0 2 -2.000 29.190 29.190 10.425
13236 0 2 -2.000 31.275 31.275 14.595
13237 0 2 -2.000 33.360 31.275 12.510
13238 0 2 -2.000 31.275 33.360 12.510
13239 0 2 -2.000 29.190 29.190 14.595
13240 0 2 -2.000 31.275 31.275 18.765
13241 0 2 -2.000 33.360 31.275 16.680
13242 0 2 -2.000 31.275 33.360 16.680
13243 0 2 -2.000 29.190 29.190 18.765
13244 0 2 -2.000 31.275 31.275 22.935
13245 0 2 -2.000 33.360 31.275 20.850
13246 0 2 -2.000 31.275 33.360 20.850
13247 0 2 -2.000 29.190 29.190 22.935
13248 0 2 -2.000 31.275 31.275 27.105
13249 0 2 -2.000 33.360 31.275 25.020
13250 0 2 -2.000 31.275 33.360 25.020
13251 0 2 -2.000 29.190 29.190 27.105
13252 0 2 -2.000 31.275 31.275 31.275
13253 0 2 -2.000 33.360 31.275 29.190
13254 0 2 -2.000 31.275 33.360 29.190
13255 0 2 -2.000 29.190 29.190 31.275
13256 0 2 -2.000 31.275 31.275 35.445
13257 0 2 -2.000 33.360 31.275 33.360
13258 0 2 -2.000 31.275 33.360 33.360
13259 0 2 -2.000 31.275 33.360 37.530
13260 0 2 -2.000 31.275 35.445 2.085
13261 0 2 -2.000 33.360 35.445 0.000
13262 0 2 -2.000 31.275 37.530 0.000
13263 0 2 -2.000 29.190 33.360 2.085
13264 0 2 -2.000 31.275 35.445 6.255
13265 0 2 -2.000 33.360 35.445 4.170
13266 0 2 -2.000 31.275 37.530 4.170
13267 0 2 -2.000 29.190 33.360 6.255
13268 0 2 -2.000 31.275 35.445 10.425
13269 0 2 -2.000 33.360 35.445 8.340
13270 0 2 -2.000 31.275 37.530 8.340
13271 0 2 -2.000 29.190 33.360 10.425
13272 0 2 -2.000 31.275 35.445 14.595
13273 0 2 -2.000 33.360 35.445 12.510
13274 0 2 -2.000 31.275 37.530 12.510
13275 0 2 -2.000 29.190 33.360 14.595
13276 0 2 -2.000 31.275 35.445 18.765
13277 0 2 -2.000 33.360 35.445 16.680
13278 0 2 -2.000 31.275 37.530 16.680
13279 0 2 -2.000 29.190 33.360 18.765
13280 0 2 -2.000 31.275 35.445 22.935
13281 0 2 -2.000 33.360 35.445 20.850
13282 0 2 -2.000 31.275 37.530 20.850
13283 0 2 -2.000 29.190 33.360 22.935
13284 0 2 -2.000 31.275 35.445 27.105
13285 0 2 -2.000 33.360 35.445 25.020
13286 0 2 -2.000 31.275 37.530 25.020
13287 0 2 -2.000 29.190 33.360 27.105
13288 0 2 -2.000 31.275 35.445 31.275
13289 0 2 -2.000 33.360 35.445 29.190
13290 0 2 -2.000 31.275 37.530 29.190
13291 0 2 -2.000 29.190 33.360 31.275
13292 0 2 -2.000 31.275 35.445 35.445
13293 0 2 -2.000 33.360 35.445 33.360
13294 0 2 -2.000 31.275 37.530 33.360
13295 0 2 -2.000 29.190 33.360 35.445
13296 0 2 -2.000 31.275 35.445 39.615
13297 0 2 -2.000 33.360 35.445 37.530
13298 0 2 -2.000 31.275 37.530 37.530
13299 0 2 -2.000 31.275 39.615 2.085
13300 0 2 -2.000 33.360 39.615 0.000
13301 0 2 -2.000 31.275 0.000 0.000
13302 0 2 -2.000 29.190 37.530 2.085
13303 0 2 -2.000 31.275 39.615 6.255
13304 0 2 -2.000 33.360 39.615 4.170
13305 0 2 -2.000 31.275 0.000 4.170
13306 0 2 -2.000 29.190 37.530 6.255
13307 0 2 -2.000 31.275 39.615 10.425
13308 0 2 -2.000 33.360 39.615 8.340
13309 0 2 -2.000 31.275 0.000 8.340
13310 0 2 -2.000 29.190 37.530 10.425
13311 0 2 -2.000 31.275 39.615 14.595
13312 0 2 -2.000 33.360 39.615 12.510
13313 0 2 -2.000 31.275 0.000 12.510
13314 0 2 -2.000 29.190 37.530 14.595
13315 0 2 -2.000 31.275 39.615 18.765
13316 0 2 -2.000 33.360 39.615 16.680
13317 0 2 -2.000 31.275 0.000 16.680
13318 0 2 -2.000 29.190 37.530 18.765
13319 0 2 -2.000 31.275 39.615 22.935
13320 0 2 -2.000 33.360 39.615 20.850
13321 0 2 -2.000 31.275 0.000 20.850
13322 0 2 -2.000 29.190 37.530 22.935
13323 0 2 -2.000 31.275 39.615 27.105
13324 0 2 -2.000 33.360 39.615 25.020
13325 0 2 -2.000 31.275 0.000 25.020
13326 0 2 -2.000 29.190 37.530 27.105
13327 0 2 -2.000 31.275 39.615 31.275
13328 0 2 -2.000 33.360 39.615 29.190
13329 0 2 -2.000 31.275 0.000 29.190
13330 0 2 -2.000 29.190 37.530 31.275
13331 0 2 -2.000 31.275 39.615 35.445
13332 0 2 -2.000 33.360 39.615 33.360
13333 0 2 -2.000 31.275 0.000 33.360
13334 0 2 -2.000 29.190 37.530 35.445
13335 0 2 -2.000 31.275 39.615 39.615
13336 0 2 -2.000 33.360 39.615 37.530
13337 0 2 -2.000 31.275 0.000 37.530
13338 0 2 -2.000 29.190 37.530 39.615
13339 0 2 -2.000 35.445 2.085 2.085
13340 0 2 -2.000 37.530 2.085 0.000
13341 0 2 -2.000 35.445 4.170 0.000
13342 0 2 -2.000 33.360 0.000 2.085
13343 0 2 -2.000 35.445 2.085 6.255
13344 0 2 -2.000 37.530 2.085 4.170
13345 0 2 -2.000 35.445 4.170 4.170
13346 0 2 -2.000 33.360 0.000 6.255
13347 0 2 -2.000 35.445 2.085 10.425
13348 0 2 -2.000 37.530 2.085 8.340
13349 0 2 -2.000 35.445 4.170 8.340
13350 0 2 -2.000 33.360 0.000 10.425
13351 0 2 -2.000 35.445 2.085 14.595
13352 0 2 -2.000 37.530 2.085 12.510
13353 0 2 -2.000 35.445 4.170 12.510
13354 0 2 -2.000 33.360 0.000 14.595
13355 0 2 -2.000 35.445 2.085 18.765
13356 0 2 -2.000 37.530 2.085 16.680
13357 0 2 -2.000 35.445 4.170 16.680
13358 0 2 -2.000 33.360 0.000 18.765
13359 0 2 -2.000 35.445 2.085 22.935
13360 0 2 -2.000 37.530 2.085 20.850
13361 0 2 -2.000 35.445 4.170 20.850
13362 0 2 -2.000 33.360 0.000 22.935
13363 0 2 -2.000 35.445 2.085 27.105
13364 0 2 -2.000 37.530 2.085 25.020
13365 0 2 -2.000 35.445 4.170 25.020
13366 0 2 -2.000 33.360 0.000 27.105
13367 0 2 -2.000 35.445 2.085 31.275
13368 0 2 -2.000 37.530 2.085 29.190
13369 0 2 -2.000 35.445 4.170 29.190
13370 0 2 -2.000 33.360 0.000 31.275
13371 0 2 -2.000 35.445 2.085 35.445
13372 0 2 -2.000 37.530 2.085 33.360
13373 0 2 -2.000 35.445 4.170 33.360
13374 0 2 -2.000 33.360 0.000 35.445
13375 0 2 -2.000 35.445 2.085 39.615
13376 0 2 -2.000 37.530 2.085 37.530
13377 0 2 -2.000 35.445 4.170 37.530
13378 0 2 -2.000 33.360 0.000 39.615
13379 0 2 -2.000 35.445 6.255 2.085
13380 0 2 -2.000 37.530 6.255 0.000
13381 0 2 -2.000 35.445 8.340 0.000
13382 0 2 -2.000 33.360 4.170 2.085
13383 0 2 -2.000 35.445 6.255 6.255
13384 0 2 -2.000 37.530 6.255 4.170
13385 0 2 -2.000 35.445 8.340 4.170
13386 0 2 -2.000 33.360 4.170 6.255
13387 0 2 -2.000 35.445 6.255 10.425
13388 0 2 -2.000 37.530 6.255 8.340
13389 0 2 -2.000 35.445 8.340 8.340
13390 0 2 -2.000 33.360 4.170 10.425
13391 0 2 -2.000 35.445 6.255 14.595
13392 0 2 -2.000 37.530 6.255 12.510
13393 0 2 -2.000 35.445 8.340 12.510
13394 0 2 -2.000 33.360 4.170 14.595
13395 0 2 -2.000 35.445 6.255 18.765
13396 0 2 -2.000 37.530 6.255 16.680
13397 0 2 -2.000 35.445 8.340 16.680
13398 0 2 -2.000 33.360 4.170 18.765
13399 0 2 -2.000 35.445 6.255 22.935
13400 0 2 -2.000 37.530 6.255 20.850
13401 0 2 -2.000 35.445 8.340 20.850
13402 0 2 -2.000 33.360 4.170 22.935
13403 0 2 -2.000 35.445 6.255 27.105
13404 0 2 -2.000 37.530 6.255 25.020
13405 0 2 -2.000 35.445 8.340 25.020
13406 0 2 -2.000 33.360 4.170 27.105
13407 0 2 -2.000 35.445 6.255 31.275
13408 0 2 -2.000 37.530 6.255 29.190
13409 0 2 -2.000 35.445 8.340 29.190
13410 0 2 -2.000 33.360 4.170 31.275
13411 0 2 -2.000 35.445 6.255 35.445
13412 0 2 -2.000 37.530 6.255 33.360
13413 0 2 -2.000 35.445 8.340 33.360
13414 0 2 -2.000 33.360 4.170 35.445
13415 0 2 -2.000 35.445 6.255 39.615
13416 0 2 -2.000 37.530 6.255 37.530
13417 0 2 -2.000 35.445 8.340 37.530
13418 0 2 -2.000 33.360 4.170 39.615
13419 0 2 -2.000 35.445 10.425 2.085
13420 0 2 -2.000 37.530 10.425 0.000
13421 0 2 -2.000 35.445 12.510 0.000
13422 0 2 -2.000 33.360 8.340 2.085
13423 0 2 -2.000 35.445 10.425 6.255
13424 0 2 -2.000 37.530 10.425 4.170
13425 0 2 -2.000 35.445 12.510 4.170
13426 0 2 -2.000 33.360 8.340 6.255
13427 0 2 -2.000 35.445 10.425 10.425
13428 0 2 -2.000 37.530 10.425 8.340
13429 0 2 -2.000 35.445 12.510 8.340
13430 0 2 -2.000 33.360 8.340 10.425
13431 0 2 -2.000 35.445 10.425 14.595
13432 0 2 -2.000 37.530 10.425 12.510
13433 0 2 -2.000 35.445 12.510 12.510
13434 0 2 -2.000 33.360 8.340 14.595
13435 0 2 -2.000 35.445 10.425 18.765
13436 0 2 -2.000 37.530 10.425 16.680
13437 0 2 -2.000 35.445 12.510 16.680
13438 0 2 -2.000 33.360 8.340 18.765
13439 0 2 -2.000 35.445 10.425 22.935
13440 0 2 -2.000 37.530 10.425 20.850
13441 0 2 -2.000 35.445 12.510 20.850
13442 0 2 -2.000 33.360 8.340 22.935
13443 0 2 -2.000 35.445 10.425 27.105
13444 0 2 -2.000 37.530 10.425 25.020
13445 0 2 -2.000 35.445 12.510 25.020
13446 0 2 -2.000 33.360 8.340 27.105
13447 0 2 -2.000 35.445 10.425 31.275
13448 0 2 -2.000 37.530 10.425 29.190
13449 0 2 -2.000 35.445 12.510 29.190
13450 0 2 -2.000 33.360 8.340 31.275
13451 0 2 -2.000 35.445 10.425 35.445
13452 0 2 -2.000 37.530 10.425 33.360
13453 0 2 -2.000 35.445 12.510 33.360
13454 0 2 -2.000 33.360 8.340 35.445
13455 0 2 -2.000 35.445 14.595 2.085
13456 0 2 -2.000 37.530 14.595 0.000
13457 0 2 -2.000 35.445 16.680 0.000
13458 0 2 -2.000 33.360 12.510 2.085
13459 0 2 -2.000 35.445 14.595 6.255
13460 0 2 -2.000 37.530 14.595 4.170
13461 0 2 -2.000 35.445 16.680 4.170
13462 0 2 -2.000 33.360 12.510 6.255
13463 0 2 -2.000 35.445 14.595 10.425
13464 0 2 -2.000 37.530 14.595 8.340
13465 0 2 -2.000 35.445 16.680 8.340
13466 0 2 -2.000 33.360 12.510 10.425
13467 0 2 -2.000 35.445 14.595 14.595
13468 0 2 -2.000 37.530 14.595 12.510
13469 0 2 -2.000 35.445 16.680 12.510
13470 0 2 -2.000 33.360 12.510 14.595
13471 0 2 -2.000 35.445 14.595 18.765
13472 0 2 -2.000 37.530 14.595 16.680
13473 0 2 -2.000 35.445 16.680 16.680
13474 0 2 -2.000 33.360 12.510 18.765
13475 0 2 -2.000 35.445 14.595 22.935
13476 0 2 -2.000 37.530 14.595 20.850
13477 0 2 -2.000 35.445 16.680 20.850
13478 0 2 -2.000 33.360 12.510 22.935
13479 0 2 -2.000 35.445 14.595 27.105
13480 0 2 -2.000 37.530 14.595 25.020
13481 0 2 -2.000 35.445 16.680 25.020
13482 0 2 -2.000 33.360 12.510 27.105
13483 0 2 -2.000 35.445 14.595 31.275
13484 0 2 -2.000 37.530 14.595 29.190
13485 0 2 -2.000 35.445 16.680 29.190
13486 0 2 -2.000 33.360 12.510 31.275
13487 0 2 -2.000 35.445 18.765 2.085
13488 0 2 -2.000 37.530 18.765 0.000
13489 0 2 -2.000 35.445 20.850 0.000
13490 0 2 -2.000 33.360 16.680 2.085
13491 0 2 -2.000 35.445 18.765 6.255
13492 0 2 -2.000 37.530 18.765 4.170
13493 0 2 -2.000 35.445 20.850 4.170
13494 0 2 -2.000 33.360 16.680 6.255
13495 0 2 -2.000 35.445 18.765 10.425
13496 0 2 -2.000 37.530 18.765 8.340
13497 0 2 -2.000 35.445 20.850 8.340
13498 0 2 -2.000 33.360 16.680 10.425
13499 0 2 -2.000 35.445 18.765 14.595
13500 0 2 -2.000 37.530 18.765 12.510
13501 0 2 -2.000 35.445 20.850 12.510
13502 0 2 -2.000 33.360 16.680 14.595
13503 0 2 -2.000 35.445 18.765 18.765
13504 0 2 -2.000 37.530 18.765 16.680
13505 0 2 -2.000 35.445 20.850 16.680
13506 0 2 -2.000 33.360 16.680 18.765
13507 0 2 -2.000 35.445 18.765 22.935
13508 0 2 -2.000 37.530 18.765 20.850
13509 0 2 -2.000 35.445 20.850 20.850
13510 0 2 -2.000 33.360 16.680 22.935
13511 0 2 -2.000 35.445 18.765 27.105
13512 0 2 -2.000 37.530 18.765 25.020
13513 0 2 -2.000 35.445 20.850 25.020
13514 0 2 -2.000 33.360 16.680 27.105
13515 0 2 -2.000 35.445 22.935 2.085
13516 0 2 -2.000 37.530 22.935 0.000
13517 0 2 -2.000 35.445 25.020 0.000
13518 0 2 -2.000 33.360 20.850 2.085
13519 0 2 -2.000 35.445 22.935 6.255
13520 0 2 -2.000 37.530 22.935 4.170
13521 0 2 -2.000 35.445 25.020 4.170
13522 0 2 -2.000 33.360 20.850 6.255
13523 0 2 -2.000 35.445 22.935 10.425
13524 0 2 -2.000 37.530 22.935 8.340
13525 0 2 -2.000 35.445 25.020 8.340
13526 0 2 -2.000 33.360 20.850 10.425
13527 0 2 -2.000 35.445 22.935 14.595
13528 0 2 -2.000 37.530 22.935 12.510
13529 0 2 -2.000 35.445 25.020 12.510
13530 0 2 -2.000 33.360 20.850 14.595
13531 0 2 -2.000 35.445 22.935 18.765
13532 0 2 -2.000 37.530 22.935 16.680
13533 0 2 -2.000 35.445 25.020 16.680
13534 0 2 -2.000 33.360 20.850 18.765
13535 0 2 -2.000 35.445 22.935 22.935
13536 0 2 -2.000 37.530 22.935 20.850
13537 0 2 -2.000 35.445 25.020 20.850
13538 0 2 -2.000 33.360 20.850 22.935
13539 0 2 -2.000 35.445 22.935 27.105
13540 0 2 -2.000 37.530 22.935 25.020
13541 0 2 -2.000 35.445 25.020 25.020
13542 0 2 -2.000 35.445 25.020 29.190
13543 0 2 -2.000 35.445 27.105 2.085
13544 0 2 -2.000 37.530 27.105 0.000
13545 0 2 -2.000 35.445 29.190 0.000
13546 0 2 -2.000 33.360 25.020 2.085
13547 0 2 -2.000 35.445 27.105 6.255
13548 0 2 -2.000 37.530 27.105 4.170
13549 0 2 -2.000 35.445 29.190 4.170
13550 0 2 -2.000 33.360 25.020 6.255
13551 0 2 -2.000 35.445 27.105 10.425
13552 0 2 -2.000 37.530 27.105 8.340
13553 0 2 -2.000 35.445 29.190 8.340
13554 0 2 -2.000 33.360 25.020 10.425
13555 0 2 -2.000 35.445 27.105 14.595
13556 0 2 -2.000 37.530 27.105 12.510
13557 0 2 -2.000 35.445 29.190 12.510
13558 0 2 -2.000 33.360 25.020 14.595
13559 0 2 -2.000 35.445 27.105 18.765
13560 0 2 -2.000 37.530 27.105 16.680
13561 0 2 -2.000 35.445 29.190 16.680
13562 0 2 -2.000 33.360 25.020 18.765
13563 0 2 -2.000 35.445 27.105 22.935
13564 0 2 -2.000 37.530 27.105 20.850
13565 0 2 -2.000 35.445 29.190 20.850
13566 0 2 -2.000 33.360 25.020 22.935
13567 0 2 -2.000 35.445 27.105 27.105
13568 0 2 -2.000 37.530 27.105 25.020
13569 0 2 -2.000 35.445 29.190 25.020
13570 0 2 -2.000 33.360 25.020 27.105
13571 0 2 -2.000 35.445 27.105 31.275
13572 0 2 -2.000 37.530 27.105 29.190
13573 0 2 -2.000 35.445 29.190 29.190
13574 0 2 -2.000 35.445 29.190 33.360
13575 0 2 -2.000 35.445 31.275 2.085
13576 0 2 -2.000 37.530 31.275 0.000
13577 0 2 -2.000 35.445 33.360 0.000
13578 0 2 -2.000 33.360 29.190 2.085
13579 0 2 -2.000 35.445 31.275 6.255
13580 0 2 -2.000 37.530 31.275 4.170
13581 0 2 -2.000 35.445 33.360 4.170
13582 0 2 -2.000 33.360 29.190 6.255
13583 0 2 -2.000 35.445 31.275 10.425
13584 0 2 -2.000 37.530 31.275 8.340
13585 0 2 -2.000 35.445 33.360 8.340
13586 0 2 -2.000 33.360 29.190 10.425
13587 0 2 -2.000 35.445 31.275 14.595
13588 0 2 -2.000 37.530 31.275 12.510
13589 0 2 -2.000 35.445 33.360 12.510
13590 0 2 -2.000 33.360 29.190 14.595
13591 0 2 -2.000 35.445 31.275 18.765
13592 0 2 -2.000 37.530 31.275 16.680
13593 0 2 -2.000 35.445 33.360 16.680
13594 0 2 -2.000 33.360 29.190 18.765
13595 0 2 -2.000 35.445 31.275 22.935
13596 0 2 -2.000 37.530 31.275 20.850
13597 0 2 -2.000 35.445 33.360 20.850
13598 0 2 -2.000 33.360 29.190 22.935
13599 0 2 -2.000 35.445 31.275 27.105
13600 0 2 -2.000 37.530 31.275 25.020
13601 0 2 -2.000 35.445 33.360 25.020
13602 0 2 -2.000 33.360 29.190 27.105
13603 0 2 -2.000 35.445 31.275 31.275
13604 0 2 -2.000 37.530 31.275 29.190
13605 0 2 -2.000 35.445 33.360 29.190
13606 0 2 -2.000 33.360 29.190 31.275
13607 0 2 -2.000 35.445 31.275 35.445
13608 0 2 -2.000 37.530 31.275 33.360
13609 0 2 -2.000 35.445 33.360 33.360
13610 0 2 -2.000 35.445 33.360 37.530
13611 0 2 -2.000 35.445 35.445 2.085
13612 0 2 -2.000 37.530 35.445 0.000
13613 0 2 -2.000 35.445 37.530 0.000
13614 0 2 -2.000 33.360 33.360 2.085
13615 0 2 -2.000 35.445 35.445 6.255
13616 0 2 -2.000 37.530 35.445 4.170
13617 0 2 -2.000 35.445 37.530 4.170
13618 0 2 -2.000 33.360 33.360 6.255
13619 0 2 -2.000 35.445 35.445 10.425
13620 0 2 -2.000 37.530 35.445 8.340
13621 0 2 -2.000 35.445 37.530 8.340
13622 0 2 -2.000 33.360 33.360 10.425
13623 0 2 -2.000 35.445 35.445 14.595
13624 0 2 -2.000 37.530 35.445 12.510
13625 0 2 -2.000 35.445 37.530 12.510
13626 0 2 -2.000 33.360 33.360 14.595
13627 0 2 -2.000 35.445 35.445 18.765
13628 0 2 -2.000 37.530 35.445 16.680
13629 0 2 -2.000 35.445 37.530 16.680
13630 0 2 -2.000 33.360 33.360 18.765
13631 0 2 -2.000 35.445 35.445 22.935
13632 0 2 -2.000 37.530 35.445 20.850
13633 0 2 -2.000 35.445 37.530 20.850
13634 0 2 -2.000 33.360 33.360 22.935
13635 0 2 -2.000 35.445 35.445 27.105
13636 0 2 -2.000 37.530 35.445 25.020
13637 0 2 -2.000 35.445 37.530 25.020
13638 0 2 -2.000 33.360 33.360 27.105
13639 0 2 -2.000 35.445 35.445 31.275
13640 0 2 -2.000 37.530 35.445 29.190
13641 0 2 -2.000 35.445 37.530 29.190
13642 0 2 -2.000 33.360 33.360 31.275
13643 0 2 -2.000 35.445 35.445 35.445
13644 0 2 -2.000 37.530 35.445 33.360
13645 0 2 -2.000 35.445 37.530 33.360
13646 0 2 -2.000 33.360 33.360 35.445
13647 0 2 -2.000 35.445 35.445 39.615
13648 0 2 -2.000 37.530 35.445 37.530
13649 0 2 -2.000 35.445 37.530 37.530
13650 0 2 -2.000 35.445 39.615 2.085
13651 0 2 -2.000 37.530 39.615 0.000
13652 0 2 -2.000 35.445 0.000 0.000
13653 0 2 -2.000 33.360 37.530 2.085
13654 0 2 -2.000 35.445 39.615 6.255
13655 0 2 -2.000 37.530 39.615 4.170
13656 0 2 -2.000 35.445 0.000 4.170
13657 0 2 -2.000 33.360 37.530 6.255
13658 0 2 -2.000 35.445 39.615 10.425
13659 0 2 -2.000 37.530 39.615 8.340
13660 0 2 -2.000 35.445 0.000 8.340
13661 0 2 -2.000 33.360 37.530 10.425
13662 0 2 -2.000 35.445 39.615 14.595
13663 0 2 -2.000 37.530 39.615 12.510
13664 0 2 -2.000 35.445 0.000 12.510
13665 0 2 -2.000 33.360 37.530 14.595
13666 0 2 -2.000 35.445 39.615 18.765
13667 0 2 -2.000 37.530 39.615 16.680
13668 0 2 -2.000 35.445 0.000 16.680
13669 0 2 -2.000 33.360 37.530 18.765
13670 0 2 -2.000 35.445 39.615 22.935
13671 0 2 -2.000 37.530 39.615 20.850
13672 0 2 -2.000 35.445 0.000 20.850
13673 0 2 -2.000 33.360 37.530 22.935
13674 0 2 -2.000 35.445 39.615 27.105
13675 0 2 -2.000 37.530 39.615 25.020
13676 0 2 -2.000 35.445 0.000 25.020
13677 0 2 -2.000 33.360 37.530 27.105
13678 0 2 -2.000 35.445 39.615 31.275
13679 0 2 -2.000 37.530 39.615 29.190
13680 0 2 -2.000 35.445 0.000 29.190
13681 0 2 -2.000 33.360 37.530 31.275
13682 0 2 -2.000 35.445 39.615 35.445
13683 0 2 -2.000 37.530 39.615 33.360
13684 0 2 -2.000 35.445 0.000 33.360
13685 0 2 -2.000 33.360 37.530 35.445
13686 0 2 -2.000 35.445 39.615 39.615
13687 0 2 -2.000 37.530 39.615 37.530
13688 0 2 -2.000 35.445 0.000 37.530
13689 0 2 -2.000 33.360 37.530 39.615
13690 0 2 -2.000 39.615 2.085 2.085
13691 0 2 -2.000 41.700 2.085 0.000
13692 0 2 -2.000 39.615 4.170 0.000
13693 0 2 -2.000 37.530 0.000 2.085
13694 0 2 -2.000 39.615 2.085 6.255
13695 0 2 -2.000 41.700 2.085 4.170
13696 0 2 -2.000 39.615 4.170 4.170
13697 0 2 -2.000 37.530 0.000 6.255
13698 0 2 -2.000 39.615 2.085 10.425
13699 0 2 -2.000 41.700 2.085 8.340
13700 0 2 -2.000 39.615 4.170 8.340
13701 0 2 -2.000 37.530 0.000 10.425
13702 0 2 -2.000 39.615 2.085 14.595
13703 0 2 -2.000 41.700 2.085 12.510
13704 0 2 -2.000 39.615 4.170 12.510
13705 0 2 -2.000 37.530 0.000 14.595
13706 0 2 -2.000 39.615 2.085 18.765
13707 0 2 -2.000 41.700 2.085 16.680
13708 0 2 -2.000 39.615 4.170 16.680
13709 0 2 -2.000 37.530 0.000 18.765
13710 0 2 -2.000 39.615 2.085 22.935
13711 0 2 -2.000 41.700 2.085 20.850
13712 0 2 -2.000 39.615 4.170 20.850
13713 0 2 -2.000 37.530 0.000 22.935
13714 0 2 -2.000 39.615 2.085 27.105
13715 0 2 -2.000 41.700 2.085 25.020
13716 0 2 -2.000 39.615 4.170 25.020
13717 0 2 -2.000 37.530 0.000 27.105
13718 0 2 -2.000 39.615 2.085 31.275
13719 0 2 -2.000 41.700 2.085 29.190
13720 0 2 -2.000 39.615 4.170 29.190
13721 0 2 -2.000 37.530 0.000 31.275
13722 0 2 -2.000 39.615 2.085 35.445
13723 0 2 -2.000 41.700 2.085 33.360
13724 0 2 -2.000 39.615 4.170 33.360
13725 0 2 -2.000 37.530 0.000 35.445
13726 0 2 -2.000 39.615 2.085 39.615
13727 0 2 -2.000 41.700 2.085 37.530
13728 0 2 -2.000 39.615 4.170 37.530
13729 0 2 -2.000 37.530 0.000 39.615
13730 0 2 -2.000 39.615 6.255 2.085
13731 0 2 -2.000 41.700 6.255 0.000
13732 0 2 -2.000 39.615 8.340 0.000
13733 0 2 -2.000 37.530 4.170 2.085
13734 0 2 -2.000 39.615 6.255 6.255
13735 0 2 -2.000 41.700 6.255 4.170
13736 0 2 -2.000 39.615 8.340 4.170
13737 0 2 -2.000 37.530 4.170 6.255
13738 0 2 -2.000 39.615 6.255 10.425
13739 0 2 -2.000 41.700 6.255 8.340
13740 0 2 -2.000 39.615 8.340 8.340
13741 0 2 -2.000 37.530 4.170 10.425
13742 0 2 -2.000 39.615 6.255 14.595
13743 0 2 -2.000 41.700 6.255 12.510
13744 0 2 -2.000 39.615 8.340 12.510
13745 0 2 -2.000 37.530 4.170 14.595
13746 0 2 -2.000 39.615 6.255 18.765
13747 0 2 -2.000 41.700 6.255 16.680
13748 0 2 -2.000 39.615 8.340 16.680
13749 0 2 -2.000 37.530 4.170 18.765
13750 0 2 -2.000 39.615 6.255 22.935
13751 0 2 -2.000 41.700 6.255 20.850
13752 0 2 -2.000 39.615 8.340 20.850
13753 0 2 -2.000 37.530 4.170 22.935
13754 0 2 -2.000 39.615 6.255 27.105
13755 0 2 -2.000 41.700 6.255 25.020
13756 0 2 -2.000 39.615 8.340 25.020
13757 0 2 -2.000 37.530 4.170 27.105
13758 0 2 -2.000 39.615 6.255 31.275
13759 0 2 -2.000 41.700 6.255 29.190
13760 0 2 -2.000 39.615 8.340 29.190
13761 0 2 -2.000 37.530 4.170 31.275
13762 0 2 -2.000 39.615 6.255 35.445
13763 0 2 -2.000 41.700 6.255 33.360
13764 0 2 -2.000 39.615 8.340 33.360
13765 0 2 -2.000 37.530 4.170 35.445
13766 0 2 -2.000 39.615 6.255 39.615
13767 0 2 -2.000 41.700 6.255 37.530
13768 0 2 -2.000 39.615 8.340 37.530
13769 0 2 -2.000 37.530 4.170 39.615
13770 0 2 -2.000 39.615 10.425 2.085
13771 0 2 -2.000 41.700 10.425 0.000
13772 0 2 -2.000 39.615 12.510 0.000
13773 0 2 -2.000 37.530 8.340 2.085
13774 0 2 -2.000 39.615 10.425 6.255
13775 0 2 -2.000 41.700 10.425 4.170
13776 0 2 -2.000 39.615 12.510 4.170
13777 0 2 -2.000 37.530 8.340 6.255
13778 0 2 -2.000 39.615 10.425 10.425
13779 0 2 -2.000 41.700 10.425 8.340
13780 0 2 -2.000 39.615 12.510 8.340
13781 0 2 -2.000 37.530 8.340 10.425
13782 0 2 -2.000 39.615 10.425 14.595
13783 0 2 -2.000 41.700 10.425 12.510
13784 0 2 -2.000 39.615 12.510 12.510
13785 0 2 -2.000 37.530 8.340 14.595
13786 0 2 -2.000 39.615 10.425 18.765
13787 0 2 -2.000 41.700 10.425 16.680
13788 0 2 -2.000 39.615 12.510 16.680
13789 0 2 -2.000 37.530 8.340 18.765
13790 0 2 -2.000 39.615 10.425 22.935
13791 0 2 -2.000 41.700 10.425 20.850
13792 0 2 -2.000 39.615 12.510 20.850
13793 0 2 -2.000 37.530 8.340 22.935
13794 0 2 -2.000 39.615 10.425 27.105
13795 0 2 -2.000 41.700 10.425 25.020
13796 0 2 -2.000 39.615 12.510 25.020
13797 0 2 -2.000 37.530 8.340 27.105
13798 0 2 -2.000 39.615 10.425 31.275
13799 0 2 -2.000 41.700 10.425 29.190
13800 0 2 -2.000 39.615 12.510 29.190
13801 0 2 -2.000 37.530 8.340 31.275
13802 0 2 -2.000 39.615 10.425 35.445
13803 0 2 -2.000 41.700 10.425 33.360
13804 0 2 -2.000 39.615 12.510 33.360
13805 0 2 -2.000 37.530 8.340 35.445
13806 0 2 -2.000 39.615 14.595 2.085
13807 0 2 -2.000 41.700 14.595 0.000
13808 0 2 -2.000 39.615 16.680 0.000
13809 0 2 -2.000 37.530 12.510 2.085
13810 0 2 -2.000 39.615 14.595 6.255
13811 0 2 -2.000 41.700 14.595 4.170
13812 0 2 -2.000 39.615 16.680 4.170
13813 0 2 -2.000 37.530 12.510 6.255
13814 0 2 -2.000 39.615 14.595 10.425
13815 0 2 -2.000 41.700 14.595 8.340
13816 0 2 -2.000 39.615 16.680 8.340
13817 0 2 -2.000 37.530 12.510 10.425
13818 0 2 -2.000 39.615 14.595 14.595
13819 0 2 -2.000 41.700 14.595 12.510
13820 0 2 -2.000 39.615 16.680 12.510
13821 0 2 -2.000 37.530 12.510 14.595
13822 0 2 -2.000 39.615 14.595 18.765
13823 0 2 -2.000 41.700 14.595 16.680
13824 0 2 -2.000 39.615 16.680 16.680
13825 0 2 -2.000 37.530 12.510 18.765
13826 0 2 -2.000 39.615 14.595 22.935
13827 0 2 -2.000 41.700 14.595 20.850
13828 0 2 -2.000 39.615 16.680 20.850
13829 0 2 -2.000 37.530 12.510 22.935
13830 0 2 -2.000 39.615 14.595 27.105
13831 0 2 -2.000 41.700 14.595 25.020
13832 0 2 -2.000 39.615 16.680 25.020
13833 0 2 -2.000 37.530 12.510 27.105
13834 0 2 -2.000 39.615 14.595 31.275
13835 0 2 -2.000 41.700 14.595 29.190
13836 0 2 -2.000 39.615 16.680 29.190
13837 0 2 -2.000 37.530 12.510 31.275
13838 0 2 -2.000 39.615 18.765 2.085
13839 0 2 -2.000 41.700 18.765 0.000
13840 0 2 -2.000 39.615 20.850 0.000
13841 0 2 -2.000 37.530 16.680 2.085
13842 0 2 -2.000 39.615 18.765 6.255
13843 0 2 -2.000 41.700 18.765 4.170
13844 0 2 -2.000 39.615 20.850 4.170
13845 0 2 -2.000 37.530 16.680 6.255
13846 0 2 -2.000 39.615 18.765 10.425
13847 0 2 -2.000 41.700 18.765 8.340
13848 0 2 -2.000 39.615 20.850 8.340
13849 0 2 -2.000 37.530 16.680 10.425
13850 0 2 -2.000 39.615 18.765 14.595
13851 0 2 -2.000 41.700 18.765 12.510
13852 0 2 -2.000 39.615 20.850 12.510
13853 0 2 -2.000 37.530 16.680 14.595
13854 0 2 -2.000 39.615 18.765 18.765
13855 0 2 -2.000 41.700 18.765 16.680
13856 0 2 -2.000 39.615 20.850 16.680
13857 0 2 -2.000 37.530 16.680 18.765
13858 0 2 -2.000 39.615 18.765 22.935
13859 0 2 -2.000 41.700 18.765 20.850
13860 0 2 -2.000 39.615 20.850 20.850
13861 0 2 -2.000 37.530 16.680 22.935
13862 0 2 -2.000 39.615 18.765 27.105
13863 0 2 -2.000 41.700 18.765 25.020
13864 0 2 -2.000 39.615 20.850 25.020
13865 0 2 -2.000 37.530 16.680 27.105
13866 0 2 -2.000 39.615 22.935 2.085
13867 0 2 -2.000 41.700 22.935 0.000
13868 0 2 -2.000 39.615 25.020 0.000
13869 0 2 -2.000 37.530 20.850 2.085
13870 0 2 -2.000 39.615 22.935 6.255
13871 0 2 -2.000 41.700 22.935 4.170
13872 0 2 -2.000 39.615 25.020 4.170
13873 0 2 -2.000 37.530 20.850 6.255
13874 0 2 -2.000 39.615 22.935 10.425
13875 0 2 -2.000 41.700 22.935 8.340
13876 0 2 -2.000 39.615 25.020 8.340
13877 0 2 -2.000 37.530 20.850 10.425
13878 0 2 -2.000 39.615 22.935 14.595
13879 0 2 -2.000 41.700 22.935 12.510
13880 0 2 -2.000 39.615 25.020 12.510
13881 0 2 -2.000 37.530 20.850 14.595
13882 0 2 -2.000 39.615 22.935 18.765
13883 0 2 -2.000 41.700 22.935 16.680
13884 0 2 -2.000 39.615 25.020 16.680
13885 0 2 -2.000 37.530 20.850 18.765
13886 0 2 -2.000 39.615 22.935 22.935
13887 0 2 -2.000 41.700 22.935 20.850
13888 0 2 -2.000 39.615 25.020 20.850
13889 0 2 -2.000 37.530 20.850 22.935
13890 0 2 -2.000 39.615 22.935 27.105
13891 0 2 -2.000 41.700 22.935 25.020
13892 0 2 -2.000 39.615 25.020 25.020
13893 0 2 -2.000 39.615 25.020 29.190
13894 0 2 -2.000 39.615 27.105 2.085
13895 0 2 -2.000 41.700 27.105 0.000
13896 0 2 -2.000 39.615 29.190 0.000
13897 0 2 -2.000 37.530 25.020 2.085
13898 0 2 -2.000 39.615 27.105 6.255
13899 0 2 -2.000 41.700 27.105 4.170
13900 0 2 -2.000 39.615 29.190 4.170
13901 0 2 -2.000 37.530 25.020 6.255
13902 0 2 -2.000 39.615 27.105 10.425
13903 0 2 -2.000 41.700 27.105 8.340
13904 0 2 -2.000 39.615 29.190 8.340
13905 0 2 -2.000 37.530 25.020 10.425
13906 0 2 -2.000 39.615 27.105 14.595
13907 0 2 -2.000 41.700 27.105 12.510
13908 0 2 -2.000 39.615 29.190 12.510
13909 0 2 -2.000 37.530 25.020 14.595
13910 0 2 -2.000 39.615 27.105 18.765
13911 0 2 -2.000 41.700 27.105 16.680
13912 0 2 -2.000 39.615 29.190 16.680
13913 0 2 -2.000 37.530 25.020 18.765
13914 0 2 -2.000 39.615 27.105 22.935
13915 0 2 -2.000 41.700 27.105 20.850
13916 0 2 -2.000 39.615 29.190 20.850
13917 0 2 -2.000 37.530 25.020 22.935
13918 0 2 -2.000 39.615 27.105 27.105
13919 0 2 -2.000 41.700 27.105 25.020
13920 0 2 -2.000 39.615 29.190 25.020
13921 0 2 -2.000 37.530 25.020 27.105
13922 0 2 -2.000 39.615 27.105 31.275
13923 0 2 -2.000 41.700 27.105 29.190
13924 0 2 -2.000 39.615 29.190 29.190
13925 0 2 -2.000 39.615 29.190 33.360
13926 0 2 -2.000 39.615 31.275 2.085
13927 0 2 -2.000 41.700 31.275 0.000
13928 0 2 -2.000 39.615 33.360 0.000
13929 0 2 -2.000 37.530 29.190 2.085
13930 0 2 -2.000 39.615 31.275 6.255
13931 0 2 -2.000 41.700 31.275 4.170
13932 0 2 -2.000 39.615 33.360 4.170
13933 0 2 -2.000 37.530 29.190 6.255
13934 0 2 -2.000 39.615 31.275 10.425
13935 0 2 -2.000 41.700 31.275 8.340
13936 0 2 -2.000 39.615 33.360 8.340
13937 0 2 -2.000 37.530 29.190 10.425
13938 0 2 -2.000 39.615 31.275 14.595
13939 0 2 -2.000 41.700 31.275 12.510
13940 0 2 -2.000 39.615 33.360 12.510
13941 0 2 -2.000 37.530 29.190 14.595
13942 0 2 -2.000 39.615 31.275 18.765
13943 0 2 -2.000 41.700 31.275 16.680
13944 0 2 -2.000 39.615 33.360 16.680
13945 0 2 -2.000 37.530 29.190 18.765
13946 0 2 -2.000 39.615 31.275 22.935
13947 0 2 -2.000 41.700 31.275 20.850
13948 0 2 -2.000 39.615 33.360 20.850
13949 0 2 -2.000 37.530 29.190 22.935
13950 0 2 -2.000 39.615 31.275 27.105
13951 0 2 -2.000 41.700 31.275 25.020
13952 0 2 -2.000 39.615 33.360 25.020
13953 0 2 -2.000 37.530 29.190 27.105
13954 0 2 -2.000 39.615 31.275 31.275
13955 0 2 -2.000 41.700 31.275 29.190
13956 0 2 -2.000 39.615 33.360 29.190
13957 0 2 -2.000 37.530 29.190 31.275
13958 0 2 -2.000 39.615 31.275 35.445
13959 0 2 -2.000 41.700 31.275 33.360
13960 0 2 -2.000 39.615 33.360 33.360
13961 0 2 -2.000 39.615 33.360 37.530
13962 0 2 -2.000 39.615 35.445 2.085
13963 0 2 -2.000 41.700 35.445 0.000
13964 0 2 -2.000 39.615 37.530 0.000
13965 0 2 -2.000 37.530 33.360 2.085
13966 0 2 -2.000 39.615 35.445 6.255
13967 0 2 -2.000 41.700 35.445 4.170
13968 0 2 -2.000 39.615 37.530 4.170
13969 0 2 -2.000 37.530 33.360 6.255
13970 0 2 -2.000 39.615 35.445 10.425
13971 0 2 -2.000 41.700 35.445 8.340
13972 0 2 -2.000 39.615 37.530 8.340
13973 0 2 -2.000 37.530 33.360 10.425
13974 0 2 -2.000 39.615 35.445 14.595
13975 0 2 -2.000 41.700 35.445 12.510
13976 0 2 -2.000 39.615 37.530 12.510
13977 0 2 -2.000 37.530 33.360 14.595
13978 0 2 -2.000 39.615 35.445 18.765
13979 0 2 -2.000 41.700 35.445 16.680
13980 0 2 -2.000 39.615 37.530 16.680
13981 0 2 -2.000 37.530 33.360 18.765
13982 0 2 -2.000 39.615 35.445 22.935
13983 0 2 -2.000 41.700 35.445 20.850
13984 0 2 -2.000 39.615 37.530 20.850
13985 0 2 -2.000 37.530 33.360 22.935
13986 0 2 -2.000 39.615 35.445 27.105
13987 0 2 -2.000 41.700 35.445 25.020
13988 0 2 -2.000 39.615 37.530 25.020
13989 0 2 -2.000 37.530 33.360 27.105
13990 0 2 -2.000 39.615 35.445 31.275
13991 0 2 -2.000 41.700 35.445 29.190
13992 0 2 -2.000 39.615 37.530 29.190
13993 0 2 -2.000 37.530 33.360 31.275
13994 0 2 -2.000 39.615 35.445 35.445
13995 0 2 -2.000 41.700 35.445 33.360
13996 0 2 -2.000 39.615 37.530 33.360
13997 0 2 -2.000 37.530 33.360 35.445
13998 0 2 -2.000 39.615 35.445 39.615
13999 0 2 -2.000 41.700 35.445 37.530
14000 0 2 -2.000 39.615 37.530 37.530
14001 0 2 -2.000 39.615 39.615 2.085
14002 0 2 -2.000 41.700 39.615 0.000
14003 0 2 -2.000 39.615 0.000 0.000
14004 0 2 -2.000 37.530 37.530 2.085
14005 0 2 -2.000 39.615 39.615 6.255
14006 0 2 -2.000 41.700 39.615 4.170
14007 0 2 -2.000 39.615 0.000 4.170
14008 0 2 -2.000 37.530 37.530 6.255
14009 0 2 -2.000 39.615 39.615 10.425
14010 0 2 -2.000 41.700 39.615 8.340
14011 0 2 -2.000 39.615 0.000 8.340
14012 0 2 -2.000 37.530 37.530 10.425
14013 0 2 -2.000 39.615 39.615 14.595
14014 0 2 -2.000 41.700 39.615 12.510
14015 0 2 -2.000 39.615 0.000 12.510
14016 0 2 -2.000 37.530 37.530 14.595
14017 0 2 -2.000 39.615 39.615 18.765
14018 0 2 -2.000 41.700 39.615 16.680
14019 0 2 -2.000 39.615 0.000 16.680
14020 0 2 -2.000 37.530 37.530 18.765
14021 0 2 -2.000 39.615 39.615 22.935
14022 0 2 -2.000 41.700 39.615 20.850
14023 0 2 -2.000 39.615 0.000 20.850
14024 0 2 -2.000 37.530 37.530 22.935
14025 0 2 -2.000 39.615 39.615 27.105
14026 0 2 -2.000 41.700 39.615 25.020
14027 0 2 -2.000 39.615 0.000 25.020
14028 0 2 -2.000 37.530 37.530 27.105
14029 0 2 -2.000 39.615 39.615 31.275
14030 0 2 -2.000 41.700 39.615 29.190
14031 0 2 -2.000 39.615 0.000 29.190
14032 0 2 -2.000 37.530 37.530 31.275
14033 0 2 -2.000 39.615 39.615 35.445
14034 0 2 -2.000 41.700 39.615 33.360
14035 0 2 -2.000 39.615 0.000 33.360
14036 0 2 -2.000 37.530 37.530 35.445
14037 0 2 -2.000 39.615 39.615 39.615
14038 0 2 -2.000 41.700 39.615 37.530
14039 0 2 -2.000 39.615 0.000 37.530
14040 0 2 -2.000 37.530 37.530 39.615
14041 0 2 -2.000 43.785 2.085 2.085
14042 0 2 -2.000 45.870 2.085 0.000
14043 0 2 -2.000 43.785 4.170 0.000
14044 0 2 -2.000 41.700 0.000 2.085
14045 0 2 -2.000 43.785 2.085 6.255
14046 0 2 -2.000 45.870 2.085 4.170
14047 0 2 -2.000 43.785 4.170 4.170
14048 0 2 -2.000 41.700 0.000 6.255
14049 0 2 -2.000 43.785 2.085 10.425
14050 0 2 -2.000 45.870 2.085 8.340
14051 0 2 -2.000 43.785 4.170 8.340
14052 0 2 -2.000 41.700 0.000 10.425
14053 0 2 -2.000 43.785 2.085 14.595
14054 0 2 -2.000 45.870 2.085 12.510
14055 0 2 -2.000 43.785 4.170 12.510
14056 0 2 -2.000 41.700 0.000 14.595
14057 0 2 -2.000 43.785 2.085 18.765
14058 0 2 -2.000 45.870 2.085 16.680
14059 0 2 -2.000 43.785 4.170 16.680
14060 0 2 -2.000 41.700 0.000 18.765
14061 0 2 -2.000 43.785 2.085 22.935
14062 0 2 -2.000 45.870 2.085 20.850
14063 0 2 -2.000 43.785 4.170 20.850
14064 0 2 -2.000 41.700 0.000 22.935
14065 0 2 -2.000 43.785 2.085 27.105
14066 0 2 -2.000 45.870 2.085 25.020
14067 0 2 -2.000 43.785 4.170 25.020
14068 0 2 -2.000 41.700 0.000 27.105
14069 0 2 -2.000 43.785 2.085 31.275
14070 0 2 -2.000 45.870 2.085 29.190
14071 0 2 -2.000 43.785 4.170 29.190
14072 0 2 -2.000 41.700 0.000 31.275
14073 0 2 -2.000 43.785 2.085 35.445
14074 0 2 -2.000 45.870 2.085 33.360
14075 0 2 -2.000 43.785 4.170 33.360
14076 0 2 -2.000 41.700 0.000 35.445
14077 0 2 -2.000 43.785 2.085 39.615
14078 0 2 -2.000 45.870 2.085 37.530
14079 0 2 -2.000 43.785 4.170 37.530
14080 0 2 -2.000 41.700 0.000 39.615
14081 0 2 -2.000 43.785 6.255 2.085
14082 0 2 -2.000 45.870 6.255 0.000
14083 0 2 -2.000 43.785 8.340 0.000
14084 0 2 -2.000 41.700 4.170 2.085
14085 0 2 -2.000 43.785 6.255 6.255
14086 0 2 -2.000 45.870 6.255 4.170
14087 0 2 -2.000 43.785 8.340 4.170
14088 0 2 -2.000 41.700 4.170 6.255
14089 0 2 -2.000 43.785 6.255 10.425
14090 0 2 -2.000 45.870 6.255 8.340
14091 0 2 -2.000 43.785 8.340 8.340
14092 0 2 -2.000 41.700 4.170 10.425
14093 0 2 -2.000 43.785 6.255 14.595
14094 0 2 -2.000 45.870 6.255 12.510
14095 0 2 -2.000 43.785 8.340 12.510
14096 0 2 -2.000 41.700 4.170 14.595
14097 0 2 -2.000 43.785 6.255 18.765
14098 0 2 -2.000 45.870 6.255 16.680
14099 0 2 -2.000 43.785 8.340 16.680
14100 0 2 -2.000 41.700 4.170 18.765
14101 0 2 -2.000 43.785 6.255 22.935
14102 0 2 -2.000 45.870 6.255 20.850
14103 0 2 -2.000 43.785 8.340 20.850
14104 0 2 -2.000 41.700 4.170 22.935
14105 0 2 -2.000 43.785 6.255 27.105
14106 0 2 -2.000 45.870 6.255 25.020
14107 0 2 -2.000 43.785 8.340 25.020
14108 0 2 -2.000 41.700 4.170 27.105
14109 0 2 -2.000 43.785 6.255 31.275
14110 0 2 -2.000 45.870 6.255 29.190
14111 0 2 -2.000 43.785 8.340 29.190
14112 0 2 -2.000 41.700 4.170 31.275
14113 0 2 -2.000 43.785 6.255 35.445
14114 0 2 -2.000 45.870 6.255 33.360
14115 0 2 -2.000 43.785 8.340 33.360
14116 0 2 -2.000 41.700 4.170 35.445
14117 0 2 -2.000 43.785 6.255 39.615
14118 0 2 -2.000 45.870 6.255 37.530
14119 0 2 -2.000 43.785 8.340 37.530
14120 0 2 -2.000 41.700 4.170 39.615
14121 0 2 -2.000 43.785 10.425 2.085
14122 0 2 -2.000 45.870 10.425 0.000
14123 0 2 -2.000 43.785 12.510 0.000
14124 0 2 -2.000 41.700 8.340 2.085
14125 0 2 -2.000 43.785 10.425 6.255
14126 0 2 -2.000 45.870 10.425 4.170
14127 0 2 -2.000 43.785 12.510 4.170
14128 0 2 -2.000 41.700 8.340 6.255
14129 0 2 -2.000 43.785 10.425 10.425
14130 0 2 -2.000 45.870 10.425 8.340
14131 0 2 -2.000 43.785 12.510 8.340
14132 0 2 -2.000 41.700 8.340 10.425
14133 0 2 -2.000 43.785 10.425 14.595
14134 0 2 -2.000 45.870 10.425 12.510
14135 0 2 -2.000 43.785 12.510 12.510
14136 0 2 -2.000 41.700 8.340 14.595
14137 0 2 -2.000 43.785 10.425 18.765
14138 0 2 -2.000 45.870 10.425 16.680
14139 0 2 -2.000 43.785 12.510 16.680
14140 0 2 -2.000 41.700 8.340 18.765
14141 0 2 -2.000 43.785 10.425 22.935
14142 0 2 -2.000 45.870 10.425 20.850
14143 0 2 -2.000 43.785 12.510 20.850
14144 0 2 -2.000 41.700 8.340 22.935
14145 0 2 -2.000 43.785 10.425 27.105
14146 0 2 -2.000 45.870 10.425 25.020
14147 0 2 -2.000 43.785 12.510 25.020
14148 0 2 -2.000 41.700 8.340 27.105
14149 0 2 -2.000 43.785 10.425 31.275
14150 0 2 -2.000 45.870 10.425 29.190
14151 0 2 -2.000 43.785 12.510 29.190
14152 0 2 -2.000 41.700 8.340 31.275
14153 0 2 -2.000 43.785 10.425 35.445
14154 0 2 -2.000 45.870 10.425 33.360
14155 0 2 -2.000 43.785 12.510 33.360
14156 0 2 -2.000 41.700 8.340 35.445
14157 0 2 -2.000 43.785 14.595 2.085
14158 0 2 -2.000 45.870 14.595 0.000
14159 0 2 -2.000 43.785 16.680 0.000
14160 0 2 -2.000 41.700 12.510 2.085
14161 0 2 -2.000 43.785 14.595 6.255
14162 0 2 -2.000 45.870 14.595 4.170
14163 0 2 -2.000 43.785 16.680 4.170
14164 0 2 -2.000 41.700 12.510 6.255
14165 0 2 -2.000 43.785 14.595 10.425
14166 0 2 -2.000 45.870 14.595 8.340
14167 0 2 -2.000 43.785 16.680 8.340
14168 0 2 -2.000 41.700 12.510 10.425
14169 0 2 -2.000 43.785 14.595 14.595
14170 0 2 -2.000 45.870 14.595 12.510
14171 0 2 -2.000 43.785 16.680 12.510
14172 0 2 -2.000 41.700 12.510 14.595
14173 0 2 -2.000 43.785 14.595 18.765
14174 0 2 -2.000 45.870 14.595 16.680
14175 0 2 -2.000 43.785 16.680 16.680
14176 0 2 -2.000 41.700 12.510 18.765
14177 0 2 -2.000 43.785 14.595 22.935
14178 0 2 -2.000 45.870 14.595 20.850
14179 0 2 -2.000 43.785 16.680 20.850
14180 0 2 -2.000 41.700 12.510 22.935
14181 0 2 -2.000 43.785 14.595 27.105
14182 0 2 -2.000 45.870 14.595 25.020
14183 0 2 -2.000 43.785 16.680 25.020
14184 0 2 -2.000 41.700 12.510 27.105
14185 0 2 -2.000 43.785 14.595 31.275
14186 0 2 -2.000 45.870 14.595 29.190
14187 0 2 -2.000 43.785 16.680 29.190
14188 0 2 -2.000 41.700 12.510 31.275
14189 0 2 -2.000 43.785 18.765 2.085
14190 0 2 -2.000 45.870 18.765 0.000
14191 0 2 -2.000 43.785 20.850 0.000
14192 0 2 -2.000 41.700 16.680 2.085
14193 0 2 -2.000 43.785 18.765 6.255
14194 0 2 -2.000 45.870 18.765 4.170
14195 0 2 -2.000 43.785 20.850 4.170
14196 0 2 -2.000 41.700 16.680 6.255
14197 0 2 -2.000 43.785 18.765 10.425
14198 0 2 -2.000 45.870 18.765 8.340
14199 0 2 -2.000 43.785 20.850 8.340
14200 0 2 -2.000 41.700 16.680 10.425
14201 0 2 -2.000 43.785 18.765 14.595
14202 0 2 -2.000 45.870 18.765 12.510
14203 0 2 -2.000 43.785 20.850 12.510
14204 0 2 -2.000 41.700 16.680 14.595
14205 0 2 -2.000 43.785 18.765 18.765
14206 0 2 -2.000 45.870 18.765 16.680
14207 0 2 -2.000 43.785 20.850 16.680
14208 0 2 -2.000 41.700 16.680 18.765
14209 0 2 -2.000 43.785 18.765 22.935
14210 0 2 -2.000 45.870 18.765 20.850
14211 0 2 -2.000 43.785 20.850 20.850
14212 0 2 -2.000 41.700 16.680 22.935
14213 0 2 -2.000 43.785 18.765 27.105
14214 0 2 -2.000 45.870 18.765 25.020
14215 0 2 -2.000 43.785 20.850 25.020
14216 0 2 -2.000 41.700 16.680 27.105
14217 0 2 -2.000 43.785 22.935 2.085
14218 0 2 -2.000 45.870 22.935 0.000
14219 0 2 -2.000 43.785 25.020 0.000
14220 0 2 -2.000 41.700 20.850 2.085
14221 0 2 -2.000 43.785 22.935 6.255
14222 0 2 -2.000 45.870 22.935 4.170
14223 0 2 -2.000 43.785 25.020 4.170
14224 0 2 -2.000 41.700 20.850 6.255
14225 0 2 -2.000 43.785 22.935 10.425
14226 0 2 -2.000 45.870 22.935 8.340
14227 0 2 -2.000 43.785 25.020 8.340
14228 0 2 -2.000 41.700 20.850 10.425
14229 0 2 -2.000 43.785 22.935 14.595
14230 0 2 -2.000 45.870 22.935 12.510
14231 0 2 -2.000 43.785 25.020 12.510
14232 0 2 -2.000 41.700 20.850 14.595
14233 0 2 -2.000 43.785 22.935 18.765
14234 0 2 -2.000 45.870 22.935 16.680
14235 0 2 -2.000 43.785 25.020 16.680
14236 0 2 -2.000 41.700 20.850 18.765
14237 0 2 -2.000 43.785 22.935 22.935
14238 0 2 -2.000 45.870 22.935 20.850
14239 0 2 -2.000 43.785 25.020 20.850
14240 0 2 -2.000 41.700 20.850 22.935
14241 0 2 -2.000 43.785 22.935 27.105
14242 0 2 -2.000 45.870 22.935 25.020
14243 0 2 -2.000 43.785 25.020 25.020
14244 0 2 -2.000 43.785 25.020 29.190
14245 0 2 -2.000 43.785 27.105 2.085
14246 0 2 -2.000 45.870 27.105 0.000
14247 0 2 -2.000 43.785 29.190 0.000
14248 0 2 -2.000 41.700 25.020 2.085
14249 0 2 -2.000 43.785 27.105 6.255
14250 0 2 -2.000 45.870 27.105 4.170
14251 0 2 -2.000 43.785 29.190 4.170
14252 0 2 -2.000 41.700 25.020 6.255
14253 0 2 -2.000 43.785 27.105 10.425
14254 0 2 -2.000 45.870 27.105 8.340
14255 0 2 -2.000 43.785 29.190 8.340
14256 0 2 -2.000 41.700 25.020 10.425
14257 0 2 -2.000 43.785 27.105 14.595
14258 0 2 -2.000 45.870 27.105 12.510
14259 0 2 -2.000 43.785 29.190 12.510
14260 0 2 -2.000 41.700 25.020 14.595
14261 0 2 -2.000 43.785 27.105 18.765
14262 0 2 -2.000 45.870 27.105 16.680
14263 0 2 -2.000 43.785 29.190 16.680
14264 0 2 -2.000 41.700 25.020 18.765
14265 0 2 -2.000 43.785 27.105 22.935
14266 0 2 -2.000 45.870 27.105 20.850
14267 0 2 -2.000 43.785 29.190 20.850
14268 0 2 -2.000 41.700 25.020 22.935
14269 0 2 -2.000 43.785 27.105 27.105
14270 0 2 -2.000 45.870 27.105 25.020
14271 0 2 -2.000 43.785 29.190 25.020
14272 0 2 -2.000 41.700 25.020 27.105
14273 0 2 -2.000 43.785 27.105 31.275
14274 0 2 -2.000 45.870 27.105 29.190
14275 0 2 -2.000 43.785 29.190 29.190
14276 0 2 -2.000 43.785 29.190 33.360
14277 0 2 -2.000 43.785 31.275 2.085
14278 0 2 -2.000 45.870 31.275 0.000
14279 0 2 -2.000 43.785 33.360 0.000
14280 0 2 -2.000 41.700 29.190 2.085
14281 0 2 -2.000 43.785 31.275 6.255
14282 0 2 -2.000 45.870 31.275 4.170
14283 0 2 -2.000 43.785 33.360 4.170
14284 0 2 -2.000 41.700 29.190 6.255
14285 0 2 -2.000 43.785 31.275 10.425
14286 0 2 -2.000 45.870 31.275 8.340
14287 0 2 -2.000 43.785 33.360 8.340
14288 0 2 -2.000 41.700 29.190 10.425
14289 0 2 -2.000 43.785 31.275 14.595
14290 0 2 -2.000 45.870 31.275 12.510
14291 0 2 -2.000 43.785 33.360 12.510
14292 0 2 -2.000 41.700 29.190 14.595
14293 0 2 -2.000 43.785 31.275 18.765
14294 0 2 -2.000 45.870 31.275 16.680
14295 0 2 -2.000 43.785 33.360 16.680
14296 0 2 -2.000 41.700 29.190 18.765
14297 0 2 -2.000 43.785 31.275 22.935
14298 0 2 -2.000 45.870 31.275 20.850
14299 0 2 -2.000 43.785 33.360 20.850
14300 0 2 -2.000 41.700 29.190 22.935
14301 0 2 -2.000 43.785 31.275 27.105
14302 0 2 -2.000 45.870 31.275 25.020
14303 0 2 -2.000 43.785 33.360 25.020
14304 0 2 -2.000 41.700 29.190 27.105
14305 0 2 -2.000 43.785 31.275 31.275
14306 0 2 -2.000 45.870 31.275 29.190
14307 0 2 -2.000 43.785 33.360 29.190
14308 0 2 -2.000 41.700 29.190 31.275
14309 0 2 -2.000 43.785 31.275 35.445
14310 0 2 -2.000 45.870 31.275 33.360
14311 0 2 -2.000 43.785 33.360 33.360
14312 0 2 -2.000 43.785 33.360 37.530
14313 0 2 -2.000 43.785 35.445 2.085
14314 0 2 -2.000 45.870 35.445 0.000
14315 0 2 -2.000 43.785 37.530 0.000
14316 0 2 -2.000 41.700 33.360 2.085
14317 0 2 -2.000 43.785 35.445 6.255
14318 0 2 -2.000 45.870 35.445 4.170
14319 0 2 -2.000 43.785 37.530 4.170
14320 0 2 -2.000 41.700 33.360 6.255
14321 0 2 -2.000 43.785 35.445 10.425
14322 0 2 -2.000 45.870 35.445 8.340
14323 0 2 -2.000 43.785 37.530 8.340
14324 0 2 -2.000 41.700 33.360 10.425
14325 0 2 -2.000 43.785 35.445 14.595
14326 0 2 -2.000 45.870 35.445 12.510
14327 0 2 -2.000 43.785 37.530 12.510
14328 0 2 -2.000 41.700 33.360 14.595
14329 0 2 -2.000 43.785 35.445 18.765
14330 0 2 -2.000 45.870 35.445 16.680
14331 0 2 -2.000 43.785 37.530 16.680
14332 0 2 -2.000 41.700 33.360 18.765
14333 0 2 -2.000 43.785 35.445 22.935
14334 0 2 -2.000 45.870 35.445 20.850
14335 0 2 -2.000 43.785 37.530 20.850
14336 0 2 -2.000 41.700 33.360 22.935
14337 0 2 -2.000 43.785 35.445 27.105
14338 0 2 -2.000 45.870 35.445 25.020
14339 0 2 -2.000 43.785 37.530 25.020
14340 0 2 -2.000 41.700 33.360 27.105
14341 0 2 -2.000 43.785 35.445 31.275
14342 0 2 -2.000 45.870 35.445 29.190
14343 0 2 -2.000 43.785 37.530 29.190
14344 0 2 -2.000 41.700 33.360 31.275
14345 0 2 -2.000 43.785 35.445 35.445
14346 0 2 -2.000 45.870 35.445 33.360
14347 0 2 -2.000 43.785 37.530 33.360
14348 0 2 -2.000 41.700 33.360 35.445
14349 0 2 -2.000 43.785 35.445 39.615
14350 0 2 -2.000 45.870 35.445 37.530
14351 0 2 -2.000 43.785 37.530 37.530
14352 0 2 -2.000 43.785 39.615 2.085
14353 0 2 -2.000 45.870 39.615 0.000
14354 0 2 -2.000 43.785 0.000 0.000
14355 0 2 -2.000 41.700 37.530 2.085
14356 0 2 -2.000 43.785 39.615 6.255
14357 0 2 -2.000 45.870 39.615 4.170
14358 0 2 -2.000 43.785 0.000 4.170
14359 0 2 -2.000 41.700 37.530 6.255
14360 0 2 -2.000 43.785 39.615 10.425
14361 0 2 -2.000 45.870 39.615 8.340
14362 0 2 -2.000 43.785 0.000 8.340
14363 0 2 -2.000 41.700 37.530 10.425
14364 0 2 -2.000 43.785 39.615 14.595
14365 0 2 -2.000 45.870 39.615 12.510
14366 0 2 -2.000 43.785 0.000 12.510
14367 0 2 -2.000 41.700 37.530 14.595
14368 0 2 -2.000 43.785 39.615 18.765
14369 0 2 -2.000 45.870 39.615 16.680
14370 0 2 -2.000 43.785 0.000 16.680
14371 0 2 -2.000 41.700 37.530 18.765
14372 0 2 -2.000 43.785 39.615 22.935
14373 0 2 -2.000 45.870 39.615 20.850
14374 0 2 -2.000 43.785 0.000 20.850
14375 0 2 -2.000 41.700 37.530 22.935
14376 0 2 -2.000 43.785 39.615 27.105
14377 0 2 -2.000 45.870 39.615 25.020
14378 0 2 -2.000 43.785 0.000 25.020
14379 0 2 -2.000 41.700 37.530 27.105
14380 0 2 -2.000 43.785 39.615 31.275
14381 0 2 -2.000 45.870 39.615 29.190
14382 0 2 -2.000 43.785 0.000 29.190
14383 0 2 -2.000 41.700 37.530 31.275
14384 0 2 -2.000 43.785 39.615 35.445
14385 0 2 -2.000 45.870 39.615 33.360
14386 0 2 -2.000 43.785 0.000 33.360
14387 0 2 -2.000 41.700 37.530 35.445
14388 0 2 -2.000 43.785 39.615 39.615
14389 0 2 -2.000 45.870 39.615 37.530
14390 0 2 -2.000 43.785 0.000 37.530
14391 0 2 -2.000 41.700 37.530 39.615
14392 0 2 -2.000 47.955 2.085 2.085
14393 0 2 -2.000 50.040 2.085 0.000
14394 0 2 -2.000 47.955 4.170 0.000
14395 0 2 -2.000 45.870 0.000 2.085
14396 0 2 -2.000 47.955 2.085 6.255
14397 0 2 -2.000 50.040 2.085 4.170
14398 0 2 -2.000 47.955 4.170 4.170
14399 0 2 -2.000 45.870 0.000 6.255
14400 0 2 -2.000 47.955 2.085 10.425
14401 0 2 -2.000 50.040 2.085 8.340
14402 0 2 -2.000 47.955 4.170 8.340
14403 0 2 -2.000 45.870 0.000 10.425
14404 0 2 -2.000 47.955 2.085 14.595
14405 0 2 -2.000 50.040 2.085 12.510
14406 0 2 -2.000 47.955 4.170 12.510
14407 0 2 -2.000 45.870 0.000 14.595
14408 0 2 -2.000 47.955 2.085 18.765
14409 0 2 -2.000 50.040 2.085 16.680
14410 0 2 -2.000 47.955 4.170 16.680
14411 0 2 -2.000 45.870 0.000 18.765
14412 0 2 -2.000 47.955 2.085 22.935
14413 0 2 -2.000 50.040 2.085 20.850
14414 0 2 -2.000 47.955 4.170 20.850
14415 0 2 -2.000 45.870 0.000 22.935
14416 0 2 -2.000 47.955 2.085 27.105
14417 0 2 -2.000 50.040 2.085 25.020
14418 0 2 -2.000 47.955 4.170 25.020
14419 0 2 -2.000 45.870 0.000 27.105
14420 0 2 -2.000 47.955 2.085 31.275
14421 0 2 -2.000 50.040 2.085 29.190
14422 0 2 -2.000 47.955 4.170 29.190
14423 0 2 -2.000 45.870 0.000 31.275
14424 0 2 -2.000 47.955 2.085 35.445
14425 0 2 -2.000 50.040 2.085 33.360
14426 0 2 -2.000 47.955 4.170 33.360
14427 0 2 -2.000 45.870 0.000 35.445
14428 0 2 -2.000 47.955 2.085 39.615
14429 0 2 -2.000 50.040 2.085 37.530
14430 0 2 -2.000 47.955 4.170 37.530
14431 0 2 -2.000 45.870 0.000 39.615
14432 0 2 -2.000 47.955 6.255 2.085
14433 0 2 -2.000 50.040 6.255 0.000
14434 0 2 -2.000 47.955 8.340 0.000
14435 0 2 -2.000 45.870 4.170 2.085
14436 0 2 -2.000 47.955 6.255 6.255
14437 0 2 -2.000 50.040 6.255 4.170
14438 0 2 -2.000 47.955 8.340 4.170
14439 0 2 -2.000 45.870 4.170 6.255
14440 0 2 -2.000 47.955 6.255 10.425
14441 0 2 -2.000 50.040 6.255 8.340
14442 0 2 -2.000 47.955 8.340 8.340
14443 0 2 -2.000 45.870 4.170 10.425
14444 0 2 -2.000 47.955 6.255 14.595
14445 0 2 -2.000 50.040 6.255 12.510
14446 0 2 -2.000 47.955 8.340 12.510
14447 0 2 -2.000 45.870 4.170 14.595
14448 0 2 -2.000 47.955 6.255 18.765
14449 0 2 -2.000 50.040 6.255 16.680
14450 0 2 -2.000 47.955 8.340 16.680
14451 0 2 -2.000 45.870 4.170 18.765
14452 0 2 -2.000 47.955 6.255 22.935
14453 0 2 -2.000 50.040 6.255 20.850
14454 0 2 -2.000 47.955 8.340 20.850
14455 0 2 -2.000 45.870 4.170 22.935
14456 0 2 -2.000 47.955 6.255 27.105
14457 0 2 -2.000 50.040 6.255 25.020
14458 0 2 -2.000 47.955 8.340 25.020
14459 0 2 -2.000 45.870 4.170 27.105
14460 0 2 -2.000 47.955 6.255 31.275
14461 0 2 -2.000 50.040 6.255 29.190
14462 0 2 -2.000 47.955 8.340 29.190
14463 0 2 -2.000 45.870 4.170 31.275
14464 0 2 -2.000 47.955 6.255 35.445
14465 0 2 -2.000 50.040 6.255 33.360
14466 0 2 -2.000 47.955 8.340 33.360
14467 0 2 -2.000 45.870 4.170 35.445
14468 0 2 -2.000 47.955 6.255 39.615
14469 0 2 -2.000 50.040 6.255 37.530
14470 0 2 -2.000 47.955 8.340 37.530
14471 0 2 -2.000 45.870 4.170 39.615
14472 0 2 -2.000 47.955 10.425 2.085
14473 0 2 -2.000 50.040 10.425 0.000
14474 0 2 -2.000 47.955 12.510 0.000
14475 0 2 -2.000 45.870 8.340 2.085
14476 0 2 -2.000 47.955 10.425 6.255
14477 0 2 -2.000 50.040 10.425 4.170
14478 0 2 -2.000 47.955 12.510 4.170
14479 0 2 -2.000 45.870 8.340 6.255
14480 0 2 -2.000 47.955 10.425 10.425
14481 0 2 -2.000 50.040 10.425 8.340
14482 0 2 -2.000 47.955 12.510 8.340
14483 0 2 -2.000 45.870 8.340 10.425
14484 0 2 -2.000 47.955 10.425 14.595
14485 0 2 -2.000 50.040 10.425 12.510
14486 0 2 -2.000 47.955 12.510 12.510
14487 0 2 -2.000 45.870 8.340 14.595
14488 0 2 -2.000 47.955 10.425 18.765
14489 0 2 -2.000 50.040 10.425 16.680
14490 0 2 -2.000 47.955 12.510 16.680
14491 0 2 -2.000 45.870 8.340 18.765
14492 0 2 -2.000 47.955 10.425 22.935
14493 0 2 -2.000 50.040 10.425 20.850
14494 0 2 -2.000 47.955 12.510 20.850
14495 0 2 -2.000 45.870 8.340 22.935
14496 0 2 -2.000 47.955 10.425 27.105
14497 0 2 -2.000 50.040 10.425 25.020
14498 0 2 -2.000 47.955 12.510 25.020
14499 0 2 -2.000 45.870 8.340 27.105
14500 0 2 -2.000 47.955 10.425 31.275
14501 0 2 -2.000 50.040 10.425 29.190
14502 0 2 -2.000 47.955 12.510 29.190
14503 0 2 -2.000 45.870 8.340 31.275
14504 0 2 -2.000 47.955 10.425 35.445
14505 0 2 -2.000 50.040 10.425 33.360
14506 0 2 -2.000 47.955 12.510 33.360
14507 0 2 -2.000 45.870 8.340 35.445
14508 0 2 -2.000 47.955 14.595 2.085
14509 0 2 -2.000 50.040 14.595 0.000
14510 0 2 -2.000 47.955 16.680 0.000
14511 0 2 -2.000 45.870 12.510 2.085
14512 0 2 -2.000 47.955 14.595 6.255
14513 0 2 -2.000 50.040 14.595 4.170
14514 0 2 -2.000 47.955 16.680 4.170
14515 0 2 -2.000 45.870 12.510 6.255
14516 0 2 -2.000 47.955 14.595 10.425
14517 0 2 -2.000 50.040 14.595 8.340
14518 0 2 -2.000 47.955 16.680 8.340
14519 0 2 -2.000 45.870 12.510 10.425
14520 0 2 -2.000 47.955 14.595 14.595
14521 0 2 -2.000 50.040 14.595 12.510
14522 0 2 -2.000 47.955 16.680 12.510
14523 0 2 -2.000 45.870 12.510 14.595
14524 0 2 -2.000 47.955 14.595 18.765
14525 0 2 -2.000 50.040 14.595 16.680
14526 0 2 -2.000 47.955 16.680 16.680
14527 0 2 -2.000 45.870 12.510 18.765
14528 0 2 -2.000 47.955 14.595 22.935
14529 0 2 -2.000 50.040 14.595 20.850
14530 0 2 -2.000 47.955 16.680 20.850
14531 0 2 -2.000 45.870 12.510 22.935
14532 0 2 -2.000 47.955 14.595 27.105
14533 0 2 -2.000 50.040 14.595 25.020
14534 0 2 -2.000 47.955 16.680 25.020
14535 0 2 -2.000 45.870 12.510 27.105
14536 0 2 -2.000 47.955 14.595 31.275
14537 0 2 -2.000 50.040 14.595 29.190
14538 0 2 -2.000 47.955 16.680 29.190
14539 0 2 -2.000 45.870 12.510 31.275
14540 0 2 -2.000 47.955 18.765 2.085
14541 0 2 -2.000 50.040 18.765 0.000
14542 0 2 -2.000 47.955 20.850 0.000
14543 0 2 -2.000 45.870 16.680 2.085
14544 0 2 -2.000 47.955 18.765 6.255
14545 0 2 -2.000 50.040 18.765 4.170
14546 0 2 -2.000 47.955 20.850 4.170
14547 0 2 -2.000 45.870 16.680 6.255
14548 0 2 -2.000 47.955 18.765 10.425
14549 0 2 -2.000 50.040 18.765 8.340
14550 0 2 -2.000 47.955 20.850 8.340
14551 0 2 -2.000 45.870 16.680 10.425
14552 0 2 -2.000 47.955 18.765 14.595
14553 0 2 -2.000 50.040 18.765 12.510
14554 0 2 -2.000 47.955 20.850 12.510
14555 0 2 -2.000 45.870 16.680 14.595
14556 0 2 -2.000 47.955 18.765 18.765
14557 0 2 -2.000 50.040 18.765 16.680
14558 0 2 -2.000 47.955 20.850 16.680
14559 0 2 -2.000 45.870 16.680 18.765
14560 0 2 -2.000 47.955 18.765 22.935
14561 0 2 -2.000 50.040 18.765 20.850
14562 0 2 -2.000 47.955 20.850 20.850
14563 0 2 -2.000 45.870 16.680 22.935
14564 0 2 -2.000 47.955 18.765 27.105
14565 0 2 -2.000 50.040 18.765 25.020
14566 0 2 -2.000 47.955 20.850 25.020
14567 0 2 -2.000 45.870 16.680 27.105
14568 0 2 -2.000 47.955 22.935 2.085
14569 0 2 -2.000 50.040 22.935 0.000
14570 0 2 -2.000 47.955 25.020 0.000
14571 0 2 -2.000 45.870 20.850 2.085
14572 0 2 -2.000 47.955 22.935 6.255
14573 0 2 -2.000 50.040 22.935 4.170
14574 0 2 -2.000 47.955 25.020 4.170
14575 0 2 -2.000 45.870 20.850 6.255
14576 0 2 -2.000 47.955 22.935 10.425
14577 0 2 -2.000 50.040 22.935 8.340
14578 0 2 -2.000 47.955 25.020 8.340
14579 0 2 -2.000 45.870 20.850 10.425
14580 0 2 -2.000 47.955 22.935 14.595
14581 0 2 -2.000 50.040 22.935 12.510
14582 0 2 -2.000 47.955 25.020 12.510
14583 0 2 -2.000 45.870 20.850 14.595
14584 0 2 -2.000 47.955 22.935 18.765
14585 0 2 -2.000 50.040 22.935 16.680
14586 0 2 -2.000 47.955 25.020 16.680
14587 0 2 -2.000 45.870 20.850 18.765
14588 0 2 -2.000 47.955 22.935 22.935
14589 0 2 -2.000 50.040 22.935 20.850
14590 0 2 -2.000 47.955 25.020 20.850
14591 0 2 -2.000 45.870 20.850 22.935
14592 0 2 -2.000 47.955 22.935 27.105
14593 0 2 -2.000 50.040 22.935 25.020
14594 0 2 -2.000 47.955 25.020 25.020
14595 0 2 -2.000 47.955 25.020 29.190
14596 0 2 -2.000 47.955 27.105 2.085
14597 0 2 -2.000 50.040 27.105 0.000
14598 0 2 -2.000 47.955 29.190 0.000
14599 0 2 -2.000 45.870 25.020 2.085
14600 0 2 -2.000 47.955 27.105 6.255
14601 0 2 -2.000 50.040 27.105 4.170
14602 0 2 -2.000 47.955 29.190 4.170
14603 0 2 -2.000 45.870 25.020 6.255
14604 0 2 -2.000 47.955 27.105 10.425
14605 0 2 -2.000 50.040 27.105 8.340
14606 0 2 -2.000 47.955 29.190 8.340
14607 0 2 -2.000 45.870 25.020 10.425
14608 0 2 -2.000 47.955 27.105 14.595
14609 0 2 -2.000 50.040 27.105 12.510
14610 0 2 -2.000 47.955 29.190 12.510
14611 0 2 -2.000 45.870 25.020 14.595
14612 0 2 -2.000 47.955 27.105 18.765
14613 0 2 -2.000 50.040 27.105 16.680
14614 0 2 -2.000 47.955 29.190 16.680
14615 0 2 -2.000 45.870 25.020 18.765
14616 0 2 -2.000 47.955 27.105 22.935
14617 0 2 -2.000 50.040 27.105 20.850
14618 0 2 -2.000 47.955 29.190 20.850
14619 0 2 -2.000 45.870 25.020 22.935
14620 0 2 -2.000 47.955 27.105 27.105
14621 0 2 -2.000 50.040 27.105 25.020
14622 0 2 -2.000 47.955 29.190 25.020
14623 0 2 -2.000 45.870 25.020 27.105
14624 0 2 -2.000 47.955 27.105 31.275
14625 0 2 -2.000 50.040 27.105 29.190
14626 0 2 -2.000 47.955 29.190 29.190
14627 0 2 -2.000 47.955 29.190 33.360
14628 0 2 -2.000 47.955 31.275 2.085
14629 0 2 -2.000 50.040 31.275 0.000
14630 0 2 -2.000 47.955 33.360 0.000
14631 0 2 -2.000 45.870 29.190 2.085
14632 0 2 -2.000 47.955 31.275 6.255
14633 0 2 -2.000 50.040 31.275 4.170
14634 0 2 -2.000 47.955 33.360 4.170
14635 0 2 -2.000 45.870 29.190 6.255
14636 0 2 -2.000 47.955 31.275 10.425
14637 0 2 -2.000 50.040 31.275 8.340
14638 0 2 -2.000 47.955 33.360 8.340
14639 0 2 -2.000 45.870 29.190 10.425
14640 0 2 -2.000 47.955 31.275 14.595
14641 0 2 -2.000 50.040 31.275 12.510
14642 0 2 -2.000 47.955 33.360 12.510
14643 0 2 -2.000 45.870 29.190 14.595
14644 0 2 -2.000 47.955 31.275 18.765
14645 0 2 -2.000 50.040 31.275 16.680
14646 0 2 -2.000 47.955 33.360 16.680
14647 0 2 -2.000 45.870 29.190 18.765
14648 0 2 -2.000 47.955 31.275 22.935
14649 0 2 -2.000 50.040 31.275 20.850
14650 0 2 -2.000 47.955 33.360 20.850
14651 0 2 -2.000 45.870 29.190 22.935
14652 0 2 -2.000 47.955 31.275 27.105
14653 0 2 -2.000 50.040 31.275 25.020
14654 0 2 -2.000 47.955 33.360 25.020
14655 0 2 -2.000 45.870 29.190 27.105
14656 0 2 -2.000 47.955 31.275 31.275
14657 0 2 -2.000 50.040 31.275 29.190
14658 0 2 -2.000 47.955 33.360 29.190
14659 0 2 -2.000 45.870 29.190 31.275
14660 0 2 -2.000 47.955 31.275 35.445
14661 0 2 -2.000 50.040 31.275 33.360
14662 0 2 -2.000 47.955 33.360 33.360
14663 0 2 -2.000 47.955 33.360 37.530
14664 0 2 -2.000 47.955 35.445 2.085
14665 0 2 -2.000 50.040 35.445 0.000
14666 0 2 -2.000 47.955 37.530 0.000
14667 0 2 -2.000 45.870 33.360 2.085
14668 0 2 -2.000 47.955 35.445 6.255
14669 0 2 -2.000 50.040 35.445 4.170
14670 0 2 -2.000 47.955 37.530 4.170
14671 0 2 -2.000 45.870 33.360 6.255
14672 0 2 -2.000 47.955 35.445 10.425
14673 0 2 -2.000 50.040 35.445 8.340
14674 0 2 -2.000 47.955 37.530 8.340
14675 0 2 -2.000 45.870 33.360 10.425
14676 0 2 -2.000 47.955 35.445 14.595
14677 0 2 -2.000 50.040 35.445 12.510
14678 0 2 -2.000 47.955 37.530 12.510
14679 0 2 -2.000 45.870 33.360 14.595
14680 0 2 -2.000 47.955 35.445 18.765
14681 0 2 -2.000 50.040 35.445 16.680
14682 0 2 -2.000 47.955 37.530 16.680
14683 0 2 -2.000 45.870 33.360 18.765
14684 0 2 -2.000 47.955 35.445 22.935
14685 0 2 -2.000 50.040 35.445 20.850
14686 0 2 -2.000 47.955 37.530 20.850
14687 0 2 -2.000 45.870 33.360 22.935
14688 0 2 -2.000 47.955 35.445 27.105
14689 0 2 -2.000 50.040 35.445 25.020
14690 0 2 -2.000 47.955 37.530 25.020
14691 0 2 -2.000 45.870 33.360 27.105
14692 0 2 -2.000 47.955 35.445 31.275
14693 0 2 -2.000 50.040 35.445 29.190
14694 0 2 -2.000 47.955 37.530 29.190
14695 0 2 -2.000 45.870 33.360 31.275
14696 0 2 -2.000 47.955 35.445 35.445
14697 0 2 -2.000 50.040 35.445 33.360
14698 0 2 -2.000 47.955 37.530 33.360
14699 0 2 -2.000 45.870 33.360 35.445
14700 0 2 -2.000 47.955 35.445 39.615
14701 0 2 -2.000 50.040 35.445 37.530
14702 0 2 -2.000 47.955 37.530 37.530
14703 0 2 -2.000 47.955 39.615 2.085
14704 0 2 -2.000 50.040 39.615 0.000
14705 0 2 -2.000 47.955 0.000 0.000
14706 0 2 -2.000 45.870 37.530 2.085
14707 0 2 -2.000 47.955 39.615 6.255
14708 0 2 -2.000 50.040 39.615 4.170
14709 0 2 -2.000 47.955 0.000 4.170
14710 0 2 -2.000 45.870 37.530 6.255
14711 0 2 -2.000 47.955 39.615 10.425
14712 0 2 -2.000 50.040 39.615 8.340
14713 0 2 -2.000 47.955 0.000 8.340
14714 0 2 -2.000 45.870 37.530 10.425
14715 0 2 -2.000 47.955 39.615 14.595
14716 0 2 -2.000 50.040 39.615 12.510
14717 0 2 -2.000 47.955 0.000 12.510
14718 0 2 -2.000 45.870 37.530 14.595
14719 0 2 -2.000 47.955 39.615 18.765
14720 0 2 -2.000 50.040 39.615 16.680
14721 0 2 -2.000 47.955 0.000 16.680
14722 0 2 -2.000 45.870 37.530 18.765
14723 0 2 -2.000 47.955 39.615 22.935
14724 0 2 -2.000 50.040 39.615 20.850
14725 0 2 -2.000 47.955 0.000 20.850
14726 0 2 -2.000 45.870 37.530 22.935
14727 0 2 -2.000 47.955 39.615 27.105
14728 0 2 -2.000 50.040 39.615 25.020
14729 0 2 -2.000 47.955 0.000 25.020
14730 0 2 -2.000 45.870 37.530 27.105
14731 0 2 -2.000 47.955 39.615 31.275
14732 0 2 -2.000 50.040 39.615 29.190
14733 0 2 -2.000 47.955 0.000 29.190
14734 0 2 -2.000 45.870 37.530 31.275
14735 0 2 -2.000 47.955 39.615 35.445
14736 0 2 -2.000 50.040 39.615 33.360
14737 0 2 -2.000 47.955 0.000 33.360
14738 0 2 -2.000 45.870 37.530 35.445
14739 0 2 -2.000 47.955 39.615 39.615
14740 0 2 -2.000 50.040 39.615 37.530
14741 0 2 -2.000 47.955 0.000 37.530
14742 0 2 -2.000 45.870 37.530 39.615
14743 0 2 -2.000 52.125 2.085 2.085
14744 0 2 -2.000 54.210 2.085 0.000
14745 0 2 -2.000 52.125 4.170 0.000
14746 0 2 -2.000 50.040 0.000 2.085
14747 0 2 -2.000 52.125 2.085 6.255
14748 0 2 -2.000 54.210 2.085 4.170
14749 0 2 -2.000 52.125 4.170 4.170
14750 0 2 -2.000 50.040 0.000 6.255
14751 0 2 -2.000 52.125 2.085 10.425
14752 0 2 -2.000 54.210 2.085 8.340
14753 0 2 -2.000 52.125 4.170 8.340
14754 0 2 -2.000 50.040 0.000 10.425
14755 0 2 -2.000 52.125 2.085 14.595
14756 0 2 -2.000 54.210 2.085 12.510
14757 0 2 -2.000 52.125 4.170 12.510
14758 0 2 -2.000 50.040 0.000 14.595
14759 0 2 -2.000 52.125 2.085 18.765
14760 0 2 -2.000 54.210 2.085 16.680
14761 0 2 -2.000 52.125 4.170 16.680
14762 0 2 -2.000 50.040 0.000 18.765
14763 0 2 -2.000 52.125 2.085 22.935
14764 0 2 -2.000 54.210 2.085 20.850
14765 0 2 -2.000 52.125 4.170 20.850
14766 0 2 -2.000 50.040 0.000 22.935
14767 0 2 -2.000 52.125 2.085 27.105
14768 0 2 -2.000 54.210 2.085 25.020
14769 0 2 -2.000 52.125 4.170 25.020
14770 0 2 -2.000 50.040 0.000 27.105
14771 0 2 -2.000 52.125 2.085 31.275
14772 0 2 -2.000 54.210 2.085 29.190
14773 0 2 -2.000 52.125 4.170 29.190
14774 0 2 -2.000 50.040 0.000 31.275
14775 0 2 -2.000 52.125 2.085 35.445
14776 0 2 -2.000 54.210 2.085 33.360
14777 0 2 -2.000 52.125 4.170 33.360
14778 0 2 -2.000 50.040 0.000 35.445
14779 0 2 -2.000 52.125 2.085 39.615
14780 0 2 -2.000 54.210 2.085 37.530
14781 0 2 -2.000 52.125 4.170 37.530
14782 0 2 -2.000 50.040 0.000 39.615
14783 0 2 -2.000 52.125 6.255 2.085
14784 0 2 -2.000 54.210 6.255 0.000
14785 0 2 -2.000 52.125 8.340 0.000
14786 0 2 -2.000 50.040 4.170 2.085
14787 0 2 -2.000 52.125 6.255 6.255
14788 0 2 -2.000 54.210 6.255 4.170
14789 0 2 -2.000 52.125 8.340 4.170
14790 0 2 -2.000 50.040 4.170 6.255
14791 0 2 -2.000 52.125 6.255 10.425
14792 0 2 -2.000 54.210 6.255 8.340
14793 0 2 -2.000 52.125 8.340 8.340
14794 0 2 -2.000 50.040 4.170 10.425
14795 0 2 -2.000 52.125 6.255 14.595
14796 0 2 -2.000 54.210 6.255 12.510
14797 0 2 -2.000 52.125 8.340 12.510
14798 0 2 -2.000 50.040 4.170 14.595
14799 0 2 -2.000 52.125 6.255 18.765
14800 0 2 -2.000 54.210 6.255 16.680
14801 0 2 -2.000 52.125 8.340 16.680
14802 0 2 -2.000 50.040 4.170 18.765
14803 0 2 -2.000 52.125 6.255 22.935
14804 0 2 -2.000 54.210 6.255 20.850
14805 0 2 -2.000 52.125 8.340 20.850
14806 0 2 -2.000 50.040 4.170 22.935
14807 0 2 -2.000 52.125 6.255 27.105
14808 0 2 -2.000 54.210 6.255 25.020
14809 0 2 -2.000 52.125 8.340 25.020
14810 0 2 -2.000 50.040 4.170 27.105
14811 0 2 -2.000 52.125 6.255 31.275
14812 0 2 -2.000 54.210 6.255 29.190
14813 0 2 -2.000 52.125 8.340 29.190
14814 0 2 -2.000 50.040 4.170 31.275
14815 0 2 -2.000 52.125 6.255 35.445
14816 0 2 -2.000 54.210 6.255 33.360
14817 0 2 -2.000 52.125 8.340 33.360
14818 0 2 -2.000 50.040 4.170 35.445
14819 0 2 -2.000 52.125 6.255 39.615
14820 0 2 -2.000 54.210 6.255 37.530
14821 0 2 -2.000 52.125 8.340 37.530
14822 0 2 -2.000 50.040 4.170 39.615
14823 0 2 -2.000 52.125 10.425 2.085
14824 0 2 -2.000 54.210 10.425 0.000
14825 0 2 -2.000 52.125 12.510 0.000
14826 0 2 -2.000 50.040 8.340 2.085
14827 0 2 -2.000 52.125 10.425 6.255
14828 0 2 -2.000 54.210 10.425 4.170
14829 0 2 -2.000 52.125 12.510 4.170
14830 0 2 -2.000 50.040 8.340 6.255
14831 0 2 -2.000 52.125 10.425 10.425
14832 0 2 -2.000 54.210 10.425 8.340
14833 0 2 -2.000 52.125 12.510 8.340
14834 0 2 -2.000 50.040 8.340 10.425
14835 0 2 -2.000 52.125 10.425 14.595
14836 0 2 -2.000 54.210 10.425 12.510
14837 0 2 -2.000 52.125 12.510 12.510
14838 0 2 -2.000 50.040 8.340 14.595
14839 0 2 -2.000 52.125 10.425 18.765
14840 0 2 -2.000 54.210 10.425 16.680
14841 0 2 -2.000 52.125 12.510 16.680
14842 0 2 -2.000 50.040 8.340 18.765
14843 0 2 -2.000 52.125 10.425 22.935
14844 0 2 -2.000 54.210 10.425 20.850
14845 0 2 -2.000 52.125 12.510 20.850
14846 0 2 -2.000 50.040 8.340 22.935
14847 0 2 -2.000 52.125 10.425 27.105
14848 0 2 -2.000 54.210 10.425 25.020
14849 0 2 -2.000 52.125 12.510 25.020
14850 0 2 -2.000 50.040 8.340 27.105
14851 0 2 -2.000 52.125 10.425 31.275
14852 0 2 -2.000 54.210 10.425 29.190
14853 0 2 -2.000 52.125 12.510 29.190
14854 0 2 -2.000 50.040 8.340 31.275
14855 0 2 -2.000 52.125 10.425 35.445
14856 0 2 -2.000 54.210 10.425 33.360
14857 0 2 -2.000 52.125 12.510 33.360
14858 0 2 -2.000 50.040 8.340 35.445
14859 0 2 -2.000 52.125 14.595 2.085
14860 0 2 -2.000 54.210 14.595 0.000
14861 0 2 -2.000 52.125 16.680 0.000
14862 0 2 -2.000 50.040 12.510 2.085
14863 0 2 -2.000 52.125 14.595 6.255
14864 0 2 -2.000 54.210 14.595 4.170
14865 0 2 -2.000 52.125 16.680 4.170
14866 0 2 -2.000 50.040 12.510 6.255
14867 0 2 -2.000 52.125 14.595 10.425
14868 0 2 -2.000 54.210 14.595 8.340
14869 0 2 -2.000 52.125 16.680 8.340
14870 0 2 -2.000 50.040 12.510 10.425
14871 0 2 -2.000 52.125 14.595 14.595
14872 0 2 -2.000 54.210 14.595 12.510
14873 0 2 -2.000 52.125 16.680 12.510
14874 0 2 -2.000 50.040 12.510 14.595
14875 0 2 -2.000 52.125 14.595 18.765
14876 0 2 -2.000 54.210 14.595 16.680
14877 0 2 -2.000 52.125 16.680 16.680
14878 0 2 -2.000 50.040 12.510 18.765
14879 0 2 -2.000 52.125 14.595 22.935
14880 0 2 -2.000 54.210 14.595 20.850
14881 0 2 -2.000 52.125 16.680 20.850
14882 0 2 -2.000 50.040 12.510 22.935
14883 0 2 -2.000 52.125 14.595 27.105
14884 0 2 -2.000 54.210 14.595 25.020
14885 0 2 -2.000 52.125 16.680 25.020
14886 0 2 -2.000 50.040 12.510 27.105
14887 0 2 -2.000 52.125 14.595 31.275
14888 0 2 -2.000 54.210 14.595 29.190
14889 0 2 -2.000 52.125 16.680 29.190
14890 0 2 -2.000 50.040 12.510 31.275
14891 0 2 -2.000 52.125 18.765 2.085
14892 0 2 -2.000 54.210 18.765 0.000
14893 0 2 -2.000 52.125 20.850 0.000
14894 0 2 -2.000 50.040 16.680 2.085
14895 0 2 -2.000 52.125 18.765 6.255
14896 0 2 -2.000 54.210 18.765 4.170
14897 0 2 -2.000 52.125 20.850 4.170
14898 0 2 -2.000 50.040 16.680 6.255
14899 0 2 -2.000 52.125 18.765 10.425
14900 0 2 -2.000 54.210 18.765 8.340
14901 0 2 -2.000 52.125 20.850 8.340
14902 0 2 -2.000 50.040 16.680 10.425
14903 0 2 -2.000 52.125 18.765 14.595
14904 0 2 -2.000 54.210 18.765 12.510
14905 0 2 -2.000 52.125 20.850 12.510
14906 0 2 -2.000 50.040 16.680 14.595
14907 0 2 -2.000 52.125 18.765 18.765
14908 0 2 -2.000 54.210 18.765 16.680
14909 0 2 -2.000 52.125 20.850 16.680
14910 0 2 -2.000 50.040 16.680 18.765
14911 0 2 -2.000 52.125 18.765 22.935
14912 0 2 -2.000 54.210 18.765 20.850
14913 0 2 -2.000 52.125 20.850 20.850
14914 0 2 -2.000 50.040 16.680 22.935
14915 0 2 -2.000 52.125 18.765 27.105
14916 0 2 -2.000 54.210 18.765 25.020
14917 0 2 -2.000 52.125 20.850 25.020
14918 0 2 -2.000 50.040 16.680 27.105
14919 0 2 -2.000 52.125 22.935 2.085
14920 0 2 -2.000 54.210 22.935 0.000
14921 0 2 -2.000 52.125 25.020 0.000
14922 0 2 -2.000 50.040 20.850 2.085
14923 0 2 -2.000 52.125 22.935 6.255
14924 0 2 -2.000 54.210 22.935 4.170
14925 0 2 -2.000 52.125 25.020 4.170
14926 0 2 -2.000 50.040 20.850 6.255
14927 0 2 -2.000 52.125 22.935 10.425
14928 0 2 -2.000 54.210 22.935 8.340
14929 0 2 -2.000 52.125 25.020 8.340
14930 0 2 -2.000 50.040 20.850 10.425
14931 0 2 -2.000 52.125 22.935 14.595
14932 0 2 -2.000 54.210 22.935 12.510
14933 0 2 -2.000 52.125 25.020 12.510
14934 0 2 -2.000 50.040 20.850 14.595
14935 0 2 -2.000 52.125 22.935 18.765
14936 0 2 -2.000 54.210 22.935 16.680
14937 0 2 -2.000 52.125 25.020 16.680
14938 0 2 -2.000 50.040 20.850 18.765
14939 0 2 -2.000 52.125 22.935 22.935
14940 0 2 -2.000 54.210 22.935 20.850
14941 0 2 -2.000 52.125 25.020 20.850
14942 0 2 -2.000 50.040 20.850 22.935
14943 0 2 -2.000 52.125 22.935 27.105
14944 0 2 -2.000 54.210 22.935 25.020
14945 0 2 -2.000 52.125 25.020 25.020
14946 0 2 -2.000 52.125 25.020 29.190
14947 0 2 -2.000 52.125 27.105 2.085
14948 0 2 -2.000 54.210 27.105 0.000
14949 0 2 -2.000 52.125 29.190 0.000
14950 0 2 -2.000 50.040 25.020 2.085
14951 0 2 -2.000 52.125 27.105 6.255
14952 0 2 -2.000 54.210 27.105 4.170
14953 0 2 -2.000 52.125 29.190 4.170
14954 0 2 -2.000 50.040 25.020 6.255
14955 0 2 -2.000 52.125 27.105 10.425
14956 0 2 -2.000 54.210 27.105 8.340
14957 0 2 -2.000 52.125 29.190 8.340
14958 0 2 -2.000 50.040 25.020 10.425
14959 0 2 -2.000 52.125 27.105 14.595
14960 0 2 -2.000 54.210 27.105 12.510
14961 0 2 -2.000 52.125 29.190 12.510
14962 0 2 -2.000 50.040 25.020 14.595
14963 0 2 -2.000 52.125 27.105 18.765
14964 0 2 -2.000 54.210 27.105 16.680
14965 0 2 -2.000 52.125 29.190 16.680
14966 0 2 -2.000 50.040 25.020 18.765
14967 0 2 -2.000 52.125 27.105 22.935
14968 0 2 -2.000 54.210 27.105 20.850
14969 0 2 -2.000 52.125 29.190 20.850
14970 0 2 -2.000 50.040 25.020 22.935
14971 0 2 -2.000 52.125 27.105 27.105
14972 0 2 -2.000 54.210 27.105 25.020
14973 0 2 -2.000 52.125 29.190 25.020
14974 0 2 -2.000 50.040 25.020 27.105
14975 0 2 -2.000 52.125 27.105 31.275
14976 0 2 -2.000 54.210 27.105 29.190
14977 0 2 -2.000 52.125 29.190 29.190
14978 0 2 -2.000 52.125 29.190 33.360
14979 0 2 -2.000 52.125 31.275 2.085
14980 0 2 -2.000 54.210 31.275 0.000
14981 0 2 -2.000 52.125 33.360 0.000
14982 0 2 -2.000 50.040 29.190 2.085
14983 0 2 -2.000 52.125 31.275 6.255
14984 0 2 -2.000 54.210 31.275 4.170
14985 0 2 -2.000 52.125 33.360 4.170
14986 0 2 -2.000 50.040 29.190 6.255
14987 0 2 -2.000 52.125 31.275 10.425
14988 0 2 -2.000 54.210 31.275 8.340
14989 0 2 -2.000 52.125 33.360 8.340
14990 0 2 -2.000 50.040 29.190 10.425
14991 0 2 -2.000 52.125 31.275 14.595
14992 0 2 -2.000 54.210 31.275 12.510
14993 0 2 -2.000 52.125 33.360 12.510
14994 0 2 -2.000 50.040 29.190 14.595
14995 0 2 -2.000 52.125 31.275 18.765
14996 0 2 -2.000 54.210 31.275 16.680
14997 0 2 -2.000 52.125 33.360 16.680
14998 0 2 -2.000 50.040 29.190 18.765
14999 0 2 -2.000 52.125 31.275 22.935
15000 0 2 -2.000 54.210 31.275 20.850
15001 0 2 -2.000 52.125 33.360 20.850
15002 0 2 -2.000 50.040 29.190 22.935
15003 0 2 -2.000 52.125 31.275 27.105
15004 0 2 -2.000 54.210 31.275 25.020
15005 0 2 -2.000 52.125 33.360 25.020
15006 0 2 -2.000 50.040 29.190 27.105
15007 0 2 -2.000 52.125 31.275 31.275
15008 0 2 -2.000 54.210 31.275 29.190
15009 0 2 -2.000 52.125 33.360 29.190
15010 0 2 -2.000 50.040 29.190 31.275
15011 0 2 -2.000 52.125 31.275 35.445
15012 0 2 -2.000 54.210 31.275 33.360
15013 0 2 -2.000 52.125 33.360 33.360
15014 0 2 -2.000 52.125 33.360 37.530
15015 0 2 -2.000 52.125 35.445 2.085
15016 0 2 -2.000 54.210 35.445 0.000
15017 0 2 -2.000 52.125 37.530 0.000
15018 0 2 -2.000 50.040 33.360 2.085
15019 0 2 -2.000 52.125 35.445 6.255
15020 0 2 -2.000 54.210 35.445 4.170
15021 0 2 -2.000 52.125 37.530 4.170
15022 0 2 -2.000 50.040 33.360 6.255
15023 0 2 -2.000 52.125 35.445 10.425
15024 0 2 -2.000 54.210 35.445 8.340
15025 0 2 -2.000 52.125 37.530 8.340
15026 0 2 -2.000 50.040 33.360 10.425
15027 0 2 -2.000 52.125 35.445 14.595
15028 0 2 -2.000 54.210 35.445 12.510
15029 0 2 -2.000 52.125 37.530 12.510
15030 0 2 -2.000 50.040 33.360 14.595
15031 0 2 -2.000 52.125 35.445 18.765
15032 0 2 -2.000 54.210 35.445 16.680
15033 0 2 -2.000 52.125 37.530 16.680
15034 0 2 -2.000 50.040 33.360 18.765
15035 0 2 -2.000 52.125 35.445 22.935
15036 0 2 -2.000 54.210 35.445 20.850
15037 0 2 -2.000 52.125 37.530 20.850
15038 0 2 -2.000 50.040 33.360 22.935
15039 0 2 -2.000 52.125 35.445 27.105
15040 0 2 -2.000 54.210 35.445 25.020
15041 0 2 -2.000 52.125 37.530 25.020
15042 0 2 -2.000 50.040 33.360 27.105
15043 0 2 -2.000 52.125 35.445 31.275
15044 0 2 -2.000 54.210 35.445 29.190
15045 0 2 -2.000 52.125 37.530 29.190
15046 0 2 -2.000 50.040 33.360 31.275
15047 0 2 -2.000 52.125 35.445 35.445
15048 0 2 -2.000 54.210 35.445 33.360
15049 0 2 -2.000 52.125 37.530 33.360
15050 0 2 -2.000 50.040 33.360 35.445
15051 0 2 -2.000 52.125 35.445 39.615
15052 0 2 -2.000 54.210 35.445 37.530
15053 0 2 -2.000 52.125 37.530 37.530
15054 0 2 -2.000 52.125 39.615 2.085
15055 0 2 -2.000 54.210 39.615 0.000
15056 0 2 -2.000 52.125 0.000 0.000
15057 0 2 -2.000 50.040 37.530 2.085
15058 0 2 -2.000 52.125 39.615 6.255
15059 0 2 -2.000 54.210 39.615 4.170
15060 0 2 -2.000 52.125 0.000 4.170
15061 0 2 -2.000 50.040 37.530 6.255
15062 0 2 -2.000 52.125 39.615 10.425
15063 0 2 -2.000 54.210 39.615 8.340
15064 0 2 -2.000 52.125 0.000 8.340
15065 0 2 -2.000 50.040 37.530 10.425
15066 0 2 -2.000 52.125 39.615 14.595
15067 0 2 -2.000 54.210 39.615 12.510
15068 0 2 -2.000 52.125 0.000 12.510
15069 0 2 -2.000 50.040 37.530 14.595
15070 0 2 -2.000 52.125 39.615 18.765
15071 0 2 -2.000 54.210 39.615 16.680
15072 0 2 -2.000 52.125 0.000 16.680
15073 0 2 -2.000 50.040 37.530 18.765
15074 0 2 -2.000 52.125 39.615 22.935
15075 0 2 -2.000 54.210 39.615 20.850
15076 0 2 -2.000 52.125 0.000 20.850
15077 0 2 -2.000 50.040 37.530 22.935
15078 0 2 -2.000 52.125 39.615 27.105
15079 0 2 -2.000 54.210 39.615 25.020
15080 0 2 -2.000 52.125 0.000 25.020
15081 0 2 -2.000 50.040 37.530 27.105
15082 0 2 -2.000 52.125 39.615 31.275
15083 0 2 -2.000 54.210 39.615 29.190
15084 0 2 -2.000 52.125 0.000 29.190
15085 0 2 -2.000 50.040 37.530 31.275
15086 0 2 -2.000 52.125 39.615 35.445
15087 0 2 -2.000 54.210 39.615 33.360
15088 0 2 -2.000 52.125 0.000 33.360
15089 0 2 -2.000 50.040 37.530 35.445
15090 0 2 -2.000 52.125 39.615 39.615
15091 0 2 -2.000 54.210 39.615 37.530
15092 0 2 -2.000 52.125 0.000 37.530
15093 0 2 -2.000 50.040 37.530 39.615
15094 0 2 -2.000 56.295 2.085 2.085
15095 0 2 -2.000 58.380 2.085 0.000
15096 0 2 -2.000 56.295 4.170 0.000
15097 0 2 -2.000 54.210 0.000 2.085
15098 0 2 -2.000 56.295 2.085 6.255
15099 0 2 -2.000 58.380 2.085 4.170
15100 0 2 -2.000 56.295 4.170 4.170
15101 0 2 -2.000 54.210 0.000 6.255
15102 0 2 -2.000 56.295 2.085 10.425
15103 0 2 -2.000 58.380 2.085 8.340
15104 0 2 -2.000 56.295 4.170 8.340
15105 0 2 -2.000 54.210 0.000 10.425
15106 0 2 -2.000 56.295 2.085 14.595
15107 0 2 -2.000 58.380 2.085 12.510
15108 0 2 -2.000 56.295 4.170 12.510
15109 0 2 -2.000 54.210 0.000 14.595
15110 0 2 -2.000 56.295 2.085 18.765
15111 0 2 -2.000 58.380 2.085 16.680
15112 0 2 -2.000 56.295 4.170 16.680
15113 0 2 -2.000 54.210 0.000 18.765
15114 0 2 -2.000 56.295 2.085 22.935
15115 0 2 -2.000 58.380 2.085 20.850
15116 0 2 -2.000 56.295 4.170 20.850
15117 0 2 -2.000 54.210 0.000 22.935
15118 0 2 -2.000 56.295 2.085 27.105
15119 0 2 -2.000 58.380 2.085 25.020
15120 0 2 -2.000 56.295 4.170 25.020
15121 0 2 -2.000 54.210 0.000 27.105
15122 0 2 -2.000 56.295 2.085 31.275
15123 0 2 -2.000 58.380 2.085 29.190
15124 0 2 -2.000 56.295 4.170 29.190
15125 0 2 -2.000 54.210 0.000 31.275
15126 0 2 -2.000 56.295 2.085 35.445
15127 0 2 -2.000 58.380 2.085 33.360
15128 0 2 -2.000 56.295 4.170 33.360
15129 0 2 -2.000 54.210 0.000 35.445
15130 0 2 -2.000 56.295 2.085 39.615
15131 0 2 -2.000 58.380 2.085 37.530
15132 0 2 -2.000 56.295 4.170 37.530
15133 0 2 -2.000 54.210 0.000 39.615
15134 0 2 -2.000 56.295 6.255 2.085
15135 0 2 -2.000 58.380 6.255 0.000
15136 0 2 -2.000 56.295 8.340 0.000
15137 0 2 -2.000 54.210 4.170 2.085
15138 0 2 -2.000 56.295 6.255 6.255
15139 0 2 -2.000 58.380 6.255 4.170
15140 0 2 -2.000 56.295 8.340 4.170
15141 0 2 -2.000 54.210 4.170 6.255
15142 0 2 -2.000 56.295 6.255 10.425
15143 0 2 -2.000 58.380 6.255 8.340
15144 0 2 -2.000 56.295 8.340 8.340
15145 0 2 -2.000 54.210 4.170 10.425
15146 0 2 -2.000 56.295 6.255 14.595
15147 0 2 -2.000 58.380 6.255 12.510
15148 0 2 -2.000 56.295 8.340 12.510
15149 0 2 -2.000 54.210 4.170 14.595
15150 0 2 -2.000 56.295 6.255 18.765
15151 0 2 -2.000 58.380 6.255 16.680
15152 0 2 -2.000 56.295 8.340 16.680
15153 0 2 -2.000 54.210 4.170 18.765
15154 0 2 -2.000 56.295 6.255 22.935
15155 0 2 -2.000 58.380 6.255 20.850
15156 0 2 -2.000 56.295 8.340 20.850
15157 0 2 -2.000 54.210 4.170 22.935
15158 0 2 -2.000 56.295 6.255 27.105
15159 0 2 -2.000 58.380 6.255 25.020
15160 0 2 -2.000 56.295 8.340 25.020
15161 0 2 -2.000 54.210 4.170 27.105
15162 0 2 -2.000 56.295 6.255 31.275
15163 0 2 -2.000 58.380 6.255 29.190
15164 0 2 -2.000 56.295 8.340 29.190
15165 0 2 -2.000 54.210 4.170 31.275
15166 0 2 -2.000 56.295 6.255 35.445
15167 0 2 -2.000 58.380 6.255 33.360
15168 0 2 -2.000 56.295 8.340 33.360
15169 0 2 -2.000 54.210 4.170 35.445
15170 0 2 -2.000 56.295 6.255 39.615
15171 0 2 -2.000 58.380 6.255 37.530
15172 0 2 -2.000 56.295 8.340 37.530
15173 0 2 -2.000 54.210 4.170 39.615
15174 0 2 -2.000 56.295 10.425 2.085
15175 0 2 -2.000 58.380 10.425 0.000
15176 0 2 -2.000 56.295 12.510 0.000
15177 0 2 -2.000 54.210 8.340 2.085
15178 0 2 -2.000 56.295 10.425 6.255
15179 0 2 -2.000 58.380 10.425 4.170
15180 0 2 -2.000 56.295 12.510 4.170
15181 0 2 -2.000 54.210 8.340 6.255
15182 0 2 -2.000 56.295 10.425 10.425
15183 0 2 -2.000 58.380 10.425 8.340
15184 0 2 -2.000 56.295 12.510 8.340
15185 0 2 -2.000 54.210 8.340 10.425
15186 0 2 -2.000 56.295 10.425 14.595
15187 0 2 -2.000 58.380 10.425 12.510
15188 0 2 -2.000 56.295 12.510 12.510
15189 0 2 -2.000 54.210 8.340 14.595
15190 0 2 -2.000 56.295 10.425 18.765
15191 0 2 -2.000 58.380 10.425 16.680
15192 0 2 -2.000 56.295 12.510 16.680
15193 0 2 -2.000 54.210 8.340 18.765
15194 0 2 -2.000 56.295 10.425 22.935
15195 0 2 -2.000 58.380 10.425 20.850
15196 0 2 -2.000 56.295 12.510 20.850
15197 0 2 -2.000 54.210 8.340 22.935
15198 0 2 -2.000 56.295 10.425 27.105
15199 0 2 -2.000 58.380 10.425 25.020
15200 0 2 -2.000 56.295 12.510 25.020
15201 0 2 -2.000 54.210 8.340 27.105
15202 0 2 -2.000 56.295 10.425 31.275
15203 0 2 -2.000 58.380 10.425 29.190
15204 0 2 -2.000 56.295 12.510 29.190
15205 0 2 -2.000 54.210 8.340 31.275
15206 0 2 -2.000 56.295 10.425 35.445
15207 0 2 -2.000 58.380 10.425 33.360
15208 0 2 -2.000 56.295 12.510 33.360
15209 0 2 -2.000 54.210 8.340 35.445
15210 0 2 -2.000 56.295 14.595 2.085
15211 0 2 -2.000 58.380 14.595 0.000
15212 0 2 -2.000 56.295 16.680 0.000
15213 0 2 -2.000 54.210 12.510 2.085
15214 0 2 -2.000 56.295 14.595 6.255
15215 0 2 -2.000 58.380 14.595 4.170
15216 0 2 -2.000 56.295 16.680 4.170
15217 0 2 -2.000 54.210 12.510 6.255
15218 0 2 -2.000 56.295 14.595 10.425
15219 0 2 -2.000 58.380 14.595 8.340
15220 0 2 -2.000 56.295 16.680 8.340
15221 0 2 -2.000 54.210 12.510 10.425
15222 0 2 -2.000 56.295 14.595 14.595
15223 0 2 -2.000 58.380 14.595 12.510
15224 0 2 -2.000 56.295 16.680 12.510
15225 0 2 -2.000 54.210 12.510 14.595
15226 0 2 -2.000 56.295 14.595 18.765
15227 0 2 -2.000 58.380 14.595 16.680
15228 0 2 -2.000 56.295 16.680 16.680
15229 0 2 -2.000 54.210 12.510 18.765
15230 0 2 -2.000 56.295 14.595 22.935
15231 0 2 -2.000 58.380 14.595 20.850
15232 0 2 -2.000 56.295 16.680 20.850
15233 0 2 -2.000 54.210 12.510 22.935
15234 0 2 -2.000 56.295 14.595 27.105
15235 0 2 -2.000 58.380 14.595 25.020
15236 0 2 -2.000 56.295 16.680 25.020
15237 0 2 -2.000 54.210 12.510 27.105
15238 0 2 -2.000 56.295 14.595 31.275
15239 0 2 -2.000 58.380 14.595 29.190
15240 0 2 -2.000 56.295 16.680 29.190
15241 0 2 -2.000 54.210 12.510 31.275
15242 0 2 -2.000 56.295 18.765 2.085
15243 0 2 -2.000 58.380 18.765 0.000
15244 0 2 -2.000 56.295 20.850 0.000
15245 0 2 -2.000 54.210 16.680 2.085
15246 0 2 -2.000 56.295 18.765 6.255
15247 0 2 -2.000 58.380 18.765 4.170
15248 0 2 -2.000 56.295 20.850 4.170
15249 0 2 -2.000 54.210 16.680 6.255
15250 0 2 -2.000 56.295 18.765 10.425
15251 0 2 -2.000 58.380 18.765 8.340
15252 0 2 -2.000 56.295 20.850 8.340
15253 0 2 -2.000 54.210 16.680 10.425
15254 0 2 -2.000 56.295 18.765 14.595
15255 0 2 -2.000 58.380 18.765 12.510
15256 0 2 -2.000 56.295 20.850 12.510
15257 0 2 -2.000 54.210 16.680 14.595
15258 0 2 -2.000 56.295 18.765 18.765
15259 0 2 -2.000 58.380 18.765 16.680
15260 0 2 -2.000 56.295 20.850 16.680
15261 0 2 -2.000 54.210 16.680 18.765
15262 0 2 -2.000 56.295 18.765 22.935
15263 0 2 -2.000 58.380 18.765 20.850
15264 0 2 -2.000 56.295 20.850 20.850
15265 0 2 -2.000 54.210 16.680 22.935
15266 0 2 -2.000 56.295 18.765 27.105
15267 0 2 -2.000 58.380 18.765 25.020
15268 0 2 -2.000 56.295 20.850 25.020
15269 0 2 -2.000 54.210 16.680 27.105
15270 0 2 -2.000 56.295 22.935 2.085
15271 0 2 -2.000 58.380 22.935 0.000
15272 0 2 -2.000 56.295 25.020 0.000
15273 0 2 -2.000 54.210 20.850 2.085
15274 0 2 -2.000 56.295 22.935 6.255
15275 0 2 -2.000 58.380 22.935 4.170
15276 0 2 -2.000 56.295 25.020 4.170
15277 0 2 -2.000 54.210 20.850 6.255
15278 0 2 -2.000 56.295 22.935 10.425
15279 0 2 -2.000 58.380 22.935 8.340
15280 0 2 -2.000 56.295 25.020 8.340
15281 0 2 -2.000 54.210 20.850 10.425
15282 0 2 -2.000 56.295 22.935 14.595
15283 0 2 -2.000 58.380 22.935 12.510
15284 0 2 -2.000 56.295 25.020 12.510
15285 0 2 -2.000 54.210 20.850 14.595
15286 0 2 -2.000 56.295 22.935 18.765
15287 0 2 -2.000 58.380 22.935 16.680
15288 0 2 -2.000 56.295 25.020 16.680
15289 0 2 -2.000 54.210 20.850 18.765
15290 0 2 -2.000 56.295 22.935 22.935
15291 0 2 -2.000 58.380 22.935 20.850
15292 0 2 -2.000 56.295 25.020 20.850
15293 0 2 -2.000 54.210 20.850 22.935
15294 0 2 -2.000 56.295 22.935 27.105
15295 0 2 -2.000 58.380 22.935 25.020
15296 0 2 -2.000 56.295 25.020 25.020
15297 0 2 -2.000 56.295 25.020 29.190
15298 0 2 -2.000 56.295 27.105 2.085
15299 0 2 -2.000 58.380 27.105 0.000
15300 0 2 -2.000 56.295 29.190 0.000
15301 0 2 -2.000 54.210 25.020 2.085
15302 0 2 -2.000 56.295 27.105 6.255
15303 0 2 -2.000 58.380 27.105 4.170
15304 0 2 -2.000 56.295 29.190 4.170
15305 0 2 -2.000 54.210 25.020 6.255
15306 0 2 -2.000 56.295 27.105 10.425
15307 0 2 -2.000 58.380 27.105 8.340
15308 0 2 -2.000 56.295 29.190 8.340
15309 0 2 -2.000 54.210 25.020 10.425
15310 0 2 -2.000 56.295 27.105 14.595
15311 0 2 -2.000 58.380 27.105 12.510
15312 0 2 -2.000 56.295 29.190 12.510
15313 0 2 -2.000 54.210 25.020 14.595
15314 0 2 -2.000 56.295 27.105 18.765
15315 0 2 -2.000 58.380 27.105 16.680
15316 0 2 -2.000 56.295 29.190 16.680
15317 0 2 -2.000 54.210 25.020 18.765
15318 0 2 -2.000 56.295 27.105 22.935
15319 0 2 -2.000 58.380 27.105 20.850
15320 0 2 -2.000 56.295 29.190 20.850
15321 0 2 -2.000 54.210 25.020 22.935
15322 0 2 -2.000 56.295 27.105 27.105
15323 0 2 -2.000 58.380 27.105 25.020
15324 0 2 -2.000 56.295 29.190 25.020
15325 0 2 -2.000 54.210 25.020 27.105
15326 0 2 -2.000 56.295 27.105 31.275
15327 0 2 -2.000 58.380 27.105 29.190
15328 0 2 -2.000 56.295 29.190 29.190
15329 0 2 -2.000 56.295 29.190 33.360
15330 0 2 -2.000 56.295 31.275 2.085
15331 0 2 -2.000 58.380 31.275 0.000
15332 0 2 -2.000 56.295 33.360 0.000
15333 0 2 -2.000 54.210 29.190 2.085
15334 0 2 -2.000 56.295 31.275 6.255
15335 0 2 -2.000 58.380 31.275 4.170
15336 0 2 -2.000 56.295 33.360 4.170
15337 0 2 -2.000 54.210 29.190 6.255
15338 0 2 -2.000 56.295 31.275 10.425
15339 0 2 -2.000 58.380 31.275 8.340
15340 0 2 -2.000 56.295 33.360 8.340
15341 0 2 -2.000 54.210 29.190 10.425
15342 0 2 -2.000 56.295 31.275 14.595
15343 0 2 -2.000 58.380 31.275 12.510
15344 0 2 -2.000 56.295 33.360 12.510
15345 0 2 -2.000 54.210 29.190 14.595
15346 0 2 -2.000 56.295 31.275 18.765
15347 0 2 -2.000 58.380 31.275 16.680
15348 0 2 -2.000 56.295 33.360 16.680
15349 0 2 -2.000 54.210 29.190 18.765
15350 0 2 -2.000 56.295 31.275 22.935
15351 0 2 -2.000 58.380 31.275 20.850
15352 0 2 -2.000 56.295 33.360 20.850
15353 0 2 -2.000 54.210 29.190 22.935
15354 0 2 -2.000 56.295 31.275 27.105
15355 0 2 -2.000 58.380 31.275 25.020
15356 0 2 -2.000 56.295 33.360 25.020
15357 0 2 -2.000 54.210 29.190 27.105
15358 0 2 -2.000 56.295 31.275 31.275
15359 0 2 -2.000 58.380 31.275 29.190
15360 0 2 -2.000 56.295 33.360 29.190
15361 0 2 -2.000 54.210 29.190 31.275
15362 0 2 -2.000 56.295 31.275 35.445
15363 0 2 -2.000 58.380 31.275 33.360
15364 0 2 -2.000 56.295 33.360 33.360
15365 0 2 -2.000 56.295 33.360 37.530
15366 0 2 -2.000 56.295 35.445 2.085
15367 0 2 -2.000 58.380 35.445 0.000
15368 0 2 -2.000 56.295 37.530 0.000
15369 0 2 -2.000 54.210 33.360 2.085
15370 0 2 -2.000 56.295 35.445 6.255
15371 0 2 -2.000 58.380 35.445 4.170
15372 0 2 -2.000 56.295 37.530 4.170
15373 0 2 -2.000 54.210 33.360 6.255
15374 0 2 -2.000 56.295 35.445 10.425
15375 0 2 -2.000 58.380 35.445 8.340
15376 0 2 -2.000 56.295 37.530 8.340
15377 0 2 -2.000 54.210 33.360 10.425
15378 0 2 -2.000 56.295 35.445 14.595
15379 0 2 -2.000 58.380 35.445 12.510
15380 0 2 -2.000 56.295 37.530 12.510
15381 0 2 -2.000 54.210 33.360 14.595
15382 0 2 -2.000 56.295 35.445 18.765
15383 0 2 -2.000 58.380 35.445 16.680
15384 0 2 -2.000 56.295 37.530 16.680
15385 0 2 -2.000 54.210 33.360 18.765
15386 0 2 -2.000 56.295 35.445 22.935
15387 0 2 -2.000 58.380 35.445 20.850
15388 0 2 -2.000 56.295 37.530 20.850
15389 0 2 -2.000 54.210 33.360 22.935
15390 0 2 -2.000 56.295 35.445 27.105
15391 0 2 -2.000 58.380 35.445 25.020
15392 0 2 -2.000 56.295 37.530 25.020
15393 0 2 -2.000 54.210 33.360 27.105
15394 0 2 -2.000 56.295 35.445 31.275
15395 0 2 -2.000 58.380 35.445 29.190
15396 0 2 -2.000 56.295 37.530 29.190
15397 0 2 -2.000 54.210 33.360 31.275
15398 0 2 -2.000 56.295 35.445 35.445
15399 0 2 -2.000 58.380 35.445 33.360
15400 0 2 -2.000 56.295 37.530 33.360
15401 0 2 -2.000 54.210 33.360 35.445
15402 0 2 -2.000 56.295 35.445 39.615
15403 0 2 -2.000 58.380 35.445 37.530
15404 0 2 -2.000 56.295 37.530 37.530
15405 0 2 -2.000 56.295 39.615 2.085
15406 0 2 -2.000 58.380 39.615 0.000
15407 0 2 -2.000 56.295 0.000 0.000
15408 0 2 -2.000 54.210 37.530 2.085
15409 0 2 -2.000 56.295 39.615 6.255
15410 0 2 -2.000 58.380 39.615 4.170
15411 0 2 -2.000 56.295 0.000 4.170
15412 0 2 -2.000 54.210 37.530 6.255
15413 0 2 -2.000 56.295 39.615 10.425
15414 0 2 -2.000 58.380 39.615 8.340
15415 0 2 -2.000 56.295 0.000 8.340
15416 0 2 -2.000 54.210 37.530 10.425
15417 0 2 -2.000 56.295 39.615 14.595
15418 0 2 -2.000 58.380 39.615 12.510
15419 0 2 -2.000 56.295 0.000 12.510
15420 0 2 -2.000 54.210 37.530 14.595
15421 0 2 -2.000 56.295 39.615 18.765
15422 0 2 -2.000 58.380 39.615 16.680
15423 0 2 -2.000 56.295 0.000 16.680
15424 0 2 -2.000 54.210 37.530 18.765
15425 0 2 -2.000 56.295 39.615 22.935
15426 0 2 -2.000 58.380 39.615 20.850
15427 0 2 -2.000 56.295 0.000 20.850
15428 0 2 -2.000 54.210 37.530 22.935
15429 0 2 -2.000 56.295 39.615 27.105
15430 0 2 -2.000 58.380 39.615 25.020
15431 0 2 -2.000 56.295 0.000 25.020
15432 0 2 -2.000 54.210 37.530 27.105
15433 0 2 -2.000 56.295 39.615 31.275
15434 0 2 -2.000 58.380 39.615 29.190
15435 0 2 -2.000 56.295 0.000 29.190
15436 0 2 -2.000 54.210 37.530 31.275
15437 0 2 -2.000 56.295 39.615 35.445
15438 0 2 -2.000 58.380 39.615 33.360
15439 0 2 -2.000 56.295 0.000 33.360
15440 0 2 -2.000 54.210 37.530 35.445
15441 0 2 -2.000 56.295 39.615 39.615
15442 0 2 -2.000 58.380 39.615 37.530
15443 0 2 -2.000 56.295 0.000 37.530
15444 0 2 -2.000 54.210 37.530 39.615
15445 0 2 -2.000 60.465 2.085 2.085
15446 0 2 -2.000 62.550 2.085 0.000
15447 0 2 -2.000 60.465 4.170 0.000
15448 0 2 -2.000 58.380 0.000 2.085
15449 0 2 -2.000 60.465 2.085 6.255
15450 0 2 -2.000 62.550 2.085 4.170
15451 0 2 -2.000 60.465 4.170 4.170
15452 0 2 -2.000 58.380 0.000 6.255
15453 0 2 -2.000 60.465 2.085 10.425
15454 0 2 -2.000 62.550 2.085 8.340
15455 0 2 -2.000 60.465 4.170 8.340
15456 0 2 -2.000 58.380 0.000 10.425
15457 0 2 -2.000 60.465 2.085 14.595
15458 0 2 -2.000 62.550 2.085 12.510
15459 0 2 -2.000 60.465 4.170 12.510
15460 0 2 -2.000 58.380 0.000 14.595
15461 0 2 -2.000 60.465 2.085 18.765
15462 0 2 -2.000 62.550 2.085 16.680
15463 0 2 -2.000 60.465 4.170 16.680
15464 0 2 -2.000 58.380 0.000 18.765
15465 0 2 -2.000 60.465 2.085 22.935
15466 0 2 -2.000 62.550 2.085 20.850
15467 0 2 -2.000 60.465 4.170 20.850
15468 0 2 -2.000 58.380 0.000 22.935
15469 0 2 -2.000 60.465 2.085 27.105
15470 0 2 -2.000 62.550 2.085 25.020
15471 0 2 -2.000 60.465 4.170 25.020
15472 0 2 -2.000 58.380 0.000 27.105
15473 0 2 -2.000 60.465 2.085 31.275
15474 0 2 -2.000 62.550 2.085 29.190
15475 0 2 -2.000 60.465 4.170 29.190
15476 0 2 -2.000 58.380 0.000 31.275
15477 0 2 -2.000 60.465 2.085 35.445
15478 0 2 -2.000 62.550 2.085 33.360
15479 0 2 -2.000 60.465 4.170 33.360
15480 0 2 -2.000 58.380 0.000 35.445
15481 0 2 -2.000 60.465 2.085 39.615
15482 0 2 -2.000 62.550 2.085 37.530
15483 0 2 -2.000 60.465 4.170 37.530
15484 0 2 -2.000 58.380 0.000 39.615
15485 0 2 -2.000 60.465 6.255 2.085
15486 0 2 -2.000 62.550 6.255 0.000
15487 0 2 -2.000 60.465 8.340 0.000
15488 0 2 -2.000 58.380 4.170 2.085
15489 0 2 -2.000 60.465 6.255 6.255
15490 0 2 -2.000 62.550 6.255 4.170
15491 0 2 -2.000 60.465 8.340 4.170
15492 0 2 -2.000 58.380 4.170 6.255
15493 0 2 -2.000 60.465 6.255 10.425
15494 0 2 -2.000 62.550 6.255 8.340
15495 0 2 -2.000 60.465 8.340 8.340
15496 0 2 -2.000 58.380 4.170 10.425
15497 0 2 -2.000 60.465 6.255 14.595
15498 0 2 -2.000 62.550 6.255 12.510
15499 0 2 -2.000 60.465 8.340 12.510
15500 0 2 -2.000 58.380 4.170 14.595
15501 0 2 -2.000 60.465 6.255 18.765
15502 0 2 -2.000 62.550 6.255 16.680
15503 0 2 -2.000 60.465 8.340 16.680
15504 0 2 -2.000 58.380 4.170 18.765
15505 0 2 -2.000 60.465 6.255 22.935
15506 0 2 -2.000 62.550 6.255 20.850
15507 0 2 -2.000 60.465 8.340 20.850
15508 0 2 -2.000 58.380 4.170 22.935
15509 0 2 -2.000 60.465 6.255 27.105
15510 0 2 -2.000 62.550 6.255 25.020
15511 0 2 -2.000 60.465 8.340 25.020
15512 0 2 -2.000 58.380 4.170 27.105
15513 0 2 -2.000 60.465 6.255 31.275
15514 0 2 -2.000 62.550 6.255 29.190
15515 0 2 -2.000 60.465 8.340 29.190
15516 0 2 -2.000 58.380 4.170 31.275
15517 0 2 -2.000 60.465 6.255 35.445
15518 0 2 -2.000 62.550 6.255 33.360
15519 0 2 -2.000 60.465 8.340 33.360
15520 0 2 -2.000 58.380 4.170 35.445
15521 0 2 -2.000 60.465 6.255 39.615
15522 0 2 -2.000 62.550 6.255 37.530
15523 0 2 -2.000 60.465 8.340 37.530
15524 0 2 -2.000 58.380 4.170 39.615
15525 0 2 -2.000 60.465 10.425 2.085
15526 0 2 -2.000 62.550 10.425 0.000
15527 0 2 -2.000 60.465 12.510 0.000
15528 0 2 -2.000 58.380 8.340 2.085
15529 0 2 -2.000 60.465 10.425 6.255
15530 0 2 -2.000 62.550 10.425 4.170
15531 0 2 -2.000 60.465 12.510 4.170
15532 0 2 -2.000 58.380 8.340 6.255
15533 0 2 -2.000 60.465 10.425 10.425
15534 0 2 -2.000 62.550 10.425 8.340
15535 0 2 -2.000 60.465 12.510 8.340
15536 0 2 -2.000 58.380 8.340 10.425
15537 0 2 -2.000 60.465 10.425 14.595
15538 0 2 -2.000 62.550 10.425 12.510
15539 0 2 -2.000 60.465 12.510 12.510
15540 0 2 -2.000 58.380 8.340 14.595
15541 0 2 -2.000 60.465 10.425 18.765
15542 0 2 -2.000 62.550 10.425 16.680
15543 0 2 -2.000 60.465 12.510 16.680
15544 0 2 -2.000 58.380 8.340 18.765
15545 0 2 -2.000 60.465 10.425 22.935
15546 0 2 -2.000 62.550 10.425 20.850
15547 0 2 -2.000 60.465 12.510 20.850
15548 0 2 -2.000 58.380 8.340 22.935
15549 0 2 -2.000 60.465 10.425 27.105
15550 0 2 -2.000 62.550 10.425 25.020
15551 0 2 -2.000 60.465 12.510 25.020
15552 0 2 -2.000 58.380 8.340 27.105
15553 0 2 -2.000 60.465 10.425 31.275
15554 0 2 -2.000 62.550 10.425 29.190
15555 0 2 -2.000 60.465 12.510 29.190
15556 0 2 -2.000 58.380 8.340 31.275
15557 0 2 -2.000 60.465 10.425 35.445
15558 0 2 -2.000 62.550 10.425 33.360
15559 0 2 -2.000 60.465 12.510 33.360
15560 0 2 -2.000 58.380 8.340 35.445
15561 0 2 -2.000 60.465 14.595 2.085
15562 0 2 -2.000 62.550 14.595 0.000
15563 0 2 -2.000 60.465 16.680 0.000
15564 0 2 -2.000 58.380 12.510 2.085
15565 0 2 -2.000 60.465 14.595 6.255
15566 0 2 -2.000 62.550 14.595 4.170
15567 0 2 -2.000 60.465 16.680 4.170
15568 0 2 -2.000 58.380 12.510 6.255
15569 0 2 -2.000 60.465 14.595 10.425
15570 0 2 -2.000 62.550 14.595 8.340
15571 0 2 -2.000 60.465 16.680 8.340
15572 0 2 -2.000 58.380 12.510 10.425
15573 0 2 -2.000 60.465 14.595 14.595
15574 0 2 -2.000 62.550 14.595 12.510
15575 0 2 -2.000 60.465 16.680 12.510
15576 0 2 -2.000 58.380 12.510 14.595
15577 0 2 -2.000 60.465 14.595 18.765
15578 0 2 -2.000 62.550 14.595 16.680
15579 0 2 -2.000 60.465 16.680 16.680
15580 0 2 -2.000 58.380 12.510 18.765
15581 0 2 -2.000 60.465 14.595 22.935
15582 0 2 -2.000 62.550 14.595 20.850
15583 0 2 -2.000 60.465 16.680 20.850
15584 0 2 -2.000 58.380 12.510 22.935
15585 0 2 -2.000 60.465 14.595 27.105
15586 0 2 -2.000 62.550 14.595 25.020
15587 0 2 -2.000 60.465 16.680 25.020
15588 0 2 -2.000 58.380 12.510 27.105
15589 0 2 -2.000 60.465 14.595 31.275
15590 0 2 -2.000 62.550 14.595 29.190
15591 0 2 -2.000 60.465 16.680 29.190
15592 0 2 -2.000 58.380 12.510 31.275
15593 0 2 -2.000 60.465 18.765 2.085
15594 0 2 -2.000 62.550 18.765 0.000
15595 0 2 -2.000 60.465 20.850 0.000
15596 0 2 -2.000 58.380 16.680 2.085
15597 0 2 -2.000 60.465 18.765 6.255
15598 0 2 -2.000 62.550 18.765 4.170
15599 0 2 -2.000 60.465 20.850 4.170
15600 0 2 -2.000 58.380 16.680 6.255
15601 0 2 -2.000 60.465 18.765 10.425
15602 0 2 -2.000 62.550 18.765 8.340
15603 0 2 -2.000 60.465 20.850 8.340
15604 0 2 -2.000 58.380 16.680 10.425
15605 0 2 -2.000 60.465 18.765 14.595
15606 0 2 -2.000 62.550 18.765 12.510
15607 0 2 -2.000 60.465 20.850 12.510
15608 0 2 -2.000 58.380 16.680 14.595
15609 0 2 -2.000 60.465 18.765 18.765
15610 0 2 -2.000 62.550 18.765 16.680
15611 0 2 -2.000 60.465 20.850 16.680
15612 0 2 -2.000 58.380 16.680 18.765
15613 0 2 -2.000 60.465 18.765 22.935
15614 0 2 -2.000 62.550 18.765 20.850
15615 0 2 -2.000 60.465 20.850 20.850
15616 0 2 -2.000 58.380 16.680 22.935
15617 0 2 -2.000 60.465 18.765 27.105
15618 0 2 -2.000 62.550 18.765 25.020
15619 0 2 -2.000 60.465 20.850 25.020
15620 0 2 -2.000 58.380 16.680 27.105
15621 0 2 -2.000 60.465 22.935 2.085
15622 0 2 -2.000 62.550 22.935 0.000
15623 0 2 -2.000 60.465 25.020 0.000
15624 0 2 -2.000 58.380 20.850 2.085
15625 0 2 -2.000 60.465 22.935 6.255
15626 0 2 -2.000 62.550 22.935 4.170
15627 0 2 -2.000 60.465 25.020 4.170
15628 0 2 -2.000 58.380 20.850 6.255
15629 0 2 -2.000 60.465 22.935 10.425
15630 0 2 -2.000 62.550 22.935 8.340
15631 0 2 -2.000 60.465 25.020 8.340
15632 0 2 -2.000 58.380 20.850 10.425
15633 0 2 -2.000 60.465 22.935 14.595
15634 0 2 -2.000 62.550 22.935 12.510
15635 0 2 -2.000 60.465 25.020 12.510
15636 0 2 -2.000 58.380 20.850 14.595
15637 0 2 -2.000 60.465 22.935 18.765
15638 0 2 -2.000 62.550 22.935 16.680
15639 0 2 -2.000 60.465 25.020 16.680
15640 0 2 -2.000 58.380 20.850 18.765
15641 0 2 -2.000 60.465 22.935 22.935
15642 0 2 -2.000 62.550 22.935 20.850
15643 0 2 -2.000 60.465 25.020 20.850
15644 0 2 -2.000 58.380 20.850 22.935
15645 0 2 -2.000 60.465 22.935 27.105
15646 0 2 -2.000 62.550 22.935 25.020
15647 0 2 -2.000 60.465 25.020 25.020
15648 0 2 -2.000 60.465 25.020 29.190
15649 0 2 -2.000 60.465 27.105 2.085
15650 0 2 -2.000 62.550 27.105 0.000
15651 0 2 -2.000 60.465 29.190 0.000
15652 0 2 -2.000 58.380 25.020 2.085
15653 0 2 -2.000 60.465 27.105 6.255
15654 0 2 -2.000 62.550 27.105 4.170
15655 0 2 -2.000 60.465 29.190 4.170
15656 0 2 -2.000 58.380 25.020 6.255
15657 0 2 -2.000 60.465 27.105 10.425
15658 0 2 -2.000 62.550 27.105 8.340
15659 0 2 -2.000 60.465 29.190 8.340
15660 0 2 -2.000 58.380 25.020 10.425
15661 0 2 -2.000 60.465 27.105 14.595
15662 0 2 -2.000 62.550 27.105 12.510
15663 0 2 -2.000 60.465 29.190 12.510
15664 0 2 -2.000 58.380 25.020 14.595
15665 0 2 -2.000 60.465 27.105 18.765
15666 0 2 -2.000 62.550 27.105 16.680
15667 0 2 -2.000 60.465 29.190 16.680
15668 0 2 -2.000 58.380 25.020 18.765
15669 0 2 -2.000 60.465 27.105 22.935
15670 0 2 -2.000 62.550 27.105 20.850
15671 0 2 -2.000 60.465 29.190 20.850
15672 0 2 -2.000 58.380 25.020 22.935
15673 0 2 -2.000 60.465 27.105 27.105
15674 0 2 -2.000 62.550 27.105 25.020
15675 0 2 -2.000 60.465 29.190 25.020
15676 0 2 -2.000 58.380 25.020 27.105
15677 0 2 -2.000 60.465 27.105 31.275
15678 0 2 -2.000 62.550 27.105 29.190
15679 0 2 -2.000 60.465 29.190 29.190
15680 0 2 -2.000 60.465 29.190 33.360
15681 0 2 -2.000 60.465 31.275 2.085
15682 0 2 -2.000 62.550 31.275 0.000
15683 0 2 -2.000 60.465 33.360 0.000
15684 0 2 -2.000 58.380 29.190 2.085
15685 0 2 -2.000 60.465 31.275 6.255
15686 0 2 -2.000 62.550 31.275 4.170
15687 0 2 -2.000 60.465 33.360 4.170
15688 0 2 -2.000 58.380 29.190 6.255
15689 0 2 -2.000 60.465 31.275 10.425
15690 0 2 -2.000 62.550 31.275 8.340
15691 0 2 -2.000 60.465 33.360 8.340
15692 0 2 -2.000 58.380 29.190 10.425
15693 0 2 -2.000 60.465 31.275 14.595
15694 0 2 -2.000 62.550 31.275 12.510
15695 0 2 -2.000 60.465 33.360 12.510
15696 0 2 -2.000 58.380 29.190 14.595
15697 0 2 -2.000 60.465 31.275 18.765
15698 0 2 -2.000 62.550 31.275 16.680
15699 0 2 -2.000 60.465 33.360 16.680
15700 0 2 -2.000 58.380 29.190 18.765
15701 0 2 -2.000 60.465 31.275 22.935
15702 0 2 -2.000 62.550 31.275 20.850
15703 0 2 -2.000 60.465 33.360 20.850
15704 0 2 -2.000 58.380 29.190 22.935
15705 0 2 -2.000 60.465 31.275 27.105
15706 0 2 -2.000 62.550 31.275 25.020
15707 0 2 -2.000 60.465 33.360 25.020
15708 0 2 -2.000 58.380 29.190 27.105
15709 0 2 -2.000 60.465 31.275 31.275
15710 0 2 -2.000 62.550 31.275 29.190
15711 0 2 -2.000 60.465 33.360 29.190
15712 0 2 -2.000 58.380 29.190 31.275
15713 0 2 -2.000 60.465 31.275 35.445
15714 0 2 -2.000 62.550 31.275 33.360
15715 0 2 -2.000 60.465 33.360 33.360
15716 0 2 -2.000 60.465 33.360 37.530
15717 0 2 -2.000 60.465 35.445 2.085
15718 0 2 -2.000 62.550 35.445 0.000
15719 0 2 -2.000 60.465 37.530 0.000
15720 0 2 -2.000 58.380 33.360 2.085
15721 0 2 -2.000 60.465 35.445 6.255
15722 0 2 -2.000 62.550 35.445 4.170
15723 0 2 -2.000 60.465 37.530 4.170
15724 0 2 -2.000 58.380 33.360 6.255
15725 0 2 -2.000 60.465 35.445 10.425
15726 0 2 -2.000 62.550 35.445 8.340
15727 0 2 -2.000 60.465 37.530 8.340
15728 0 2 -2.000 58.380 33.360 10.425
15729 0 2 -2.000 60.465 35.445 14.595
15730 0 2 -2.000 62.550 35.445 12.510
15731 0 2 -2.000 60.465 37.530 12.510
15732 0 2 -2.000 58.380 33.360 14.595
15733 0 2 -2.000 60.465 35.445 18.765
15734 0 2 -2.000 62.550 35.445 16.680
15735 0 2 -2.000 60.465 37.530 16.680
15736 0 2 -2.000 58.380 33.360 18.765
15737 0 2 -2.000 60.465 35.445 22.935
15738 0 2 -2.000 62.550 35.445 20.850
15739 0 2 -2.000 60.465 37.530 20.850
15740 0 2 -2.000 58.380 33.360 22.935
15741 0 2 -2.000 60.465 35.445 27.105
15742 0 2 -2.000 62.550 35.445 25.020
15743 0 2 -2.000 60.465 37.530 25.020
15744 0 2 -2.000 58.380 33.360 27.105
15745 0 2 -2.000 60.465 35.445 31.275
15746 0 2 -2.000 62.550 35.445 29.190
15747 0 2 -2.000 60.465 37.530 29.190
15748 0 2 -2.000 58.380 33.360 31.275
15749 0 2 -2.000 60.465 35.445 35.445
15750 0 2 -2.000 62.550 35.445 33.360
15751 0 2 -2.000 60.465 37.530 33.360
15752 0 2 -2.000 58.380 33.360 35.445
15753 0 2 -2.000 60.465 35.445 39.615
15754 0 2 -2.000 62.550 35.445 37.530
15755 0 2 -2.000 60.465 37.530 37.530
15756 0 2 -2.000 60.465 39.615 2.085
15757 0 2 -2.000 62.550 39.615 0.000
15758 0 2 -2.000 60.465 0.000 0.000
15759 0 2 -2.000 58.380 37.530 2.085
15760 0 2 -2.000 60.465 39.615 6.255
15761 0 2 -2.000 62.550 39.615 4.170
15762 0 2 -2.000 60.465 0.000 4.170
15763 0 2 -2.000 58.380 37.530 6.255
15764 0 2 -2.000 60.465 39.615 10.425
15765 0 2 -2.000 62.550 39.615 8.340
15766 0 2 -2.000 60.465 0.000 8.340
15767 0 2 -2.000 58.380 37.530 10.425
15768 0 2 -2.000 60.465 39.615 14.595
15769 0 2 -2.000 62.550 39.615 12.510
15770 0 2 -2.000 60.465 0.000 12.510
15771 0 2 -2.000 58.380 37.530 14.595
15772 0 2 -2.000 60.465 39.615 18.765
15773 0 2 -2.000 62.550 39.615 16.680
15774 0 2 -2.000 60.465 0.000 16.680
15775 0 2 -2.000 58.380 37.530 18.765
15776 0 2 -2.000 60.465 39.615 22.935
15777 0 2 -2.000 62.550 39.615 20.850
15778 0 2 -2.000 60.465 0.000 20.850
15779 0 2 -2.000 58.380 37.530 22.935
15780 0 2 -2.000 60.465 39.615 27.105
15781 0 2 -2.000 62.550 39.615 25.020
15782 0 2 -2.000 60.465 0.000 25.020
15783 0 2 -2.000 58.380 37.530 27.105
15784 0 2 -2.000 60.465 39.615 31.275
15785 0 2 -2.000 62.550 39.615 29.190
15786 0 2 -2.000 60.465 0.000 29.190
15787 0 2 -2.000 58.380 37.530 31.275
15788 0 2 -2.000 60.465 39.615 35.445
15789 0 2 -2.000 62.550 39.615 33.360
15790 0 2 -2.000 60.465 0.000 33.360
15791 0 2 -2.000 58.380 37.530 35.445
15792 0 2 -2.000 60.465 39.615 39.615
15793 0 2 -2.000 62.550 39.615 37.530
15794 0 2 -2.000 60.465 0.000 37.530
15795 0 2 -2.000 58.380 37.530 39.615
15796 0 2 -2.000 64.635 2.085 2.085
15797 0 2 -2.000 66.720 2.085 0.000
15798 0 2 -2.000 64.635 4.170 0.000
15799 0 2 -2.000 62.550 0.000 2.085
15800 0 2 -2.000 64.635 2.085 6.255
15801 0 2 -2.000 66.720 2.085 4.170
15802 0 2 -2.000 64.635 4.170 4.170
15803 0 2 -2.000 62.550 0.000 6.255
15804 0 2 -2.000 64.635 2.085 10.425
15805 0 2 -2.000 66.720 2.085 8.340
15806 0 2 -2.000 64.635 4.170 8.340
15807 0 2 -2.000 62.550 0.000 10.425
15808 0 2 -2.000 64.635 2.085 14.595
15809 0 2 -2.000 66.720 2.085 12.510
15810 0 2 -2.000 64.635 4.170 12.510
15811 0 2 -2.000 62.550 0.000 14.595
15812 0 2 -2.000 64.635 2.085 18.765
15813 0 2 -2.000 66.720 2.085 16.680
15814 0 2 -2.000 64.635 4.170 16.680
15815 0 2 -2.000 62.550 0.000 18.765
15816 0 2 -2.000 64.635 2.085 22.935
15817 0 2 -2.000 66.720 2.085 20.850
15818 0 2 -2.000 64.635 4.170 20.850
15819 0 2 -2.000 62.550 0.000 22.935
15820 0 2 -2.000 64.635 2.085 27.105
15821 0 2 -2.000 66.720 2.085 25.020
15822 0 2 -2.000 64.635 4.170 25.020
15823 0 2 -2.000 62.550 0.000 27.105
15824 0 2 -2.000 64.635 2.085 31.275
15825 0 2 -2.000 66.720 2.085 29.190
15826 0 2 -2.000 64.635 4.170 29.190
15827 0 2 -2.000 62.550 0.000 31.275
15828 0 2 -2.000 64.635 2.085 35.445
15829 0 2 -2.000 66.720 2.085 33.360
15830 0 2 -2.000 64.635 4.170 33.360
15831 0 2 -2.000 62.550 0.000 35.445
15832 0 2 -2.000 64.635 2.085 39.615
15833 0 2 -2.000 66.720 2.085 37.530
15834 0 2 -2.000 64.635 4.170 37.530
15835 0 2 -2.000 62.550 0.000 39.615
15836 0 2 -2.000 64.635 6.255 2.085
15837 0 2 -2.000 66.720 6.255 0.000
15838 0 2 -2.000 64.635 8.340 0.000
15839 0 2 -2.000 62.550 4.170 2.085
15840 0 2 -2.000 64.635 6.255 6.255
15841 0 2 -2.000 66.720 6.255 4.170
15842 0 2 -2.000 64.635 8.340 4.170
15843 0 2 -2.000 62.550 4.170 6.255
15844 0 2 -2.000 64.635 6.255 10.425
15845 0 2 -2.000 66.720 6.255 8.340
15846 0 2 -2.000 64.635 8.340 8.340
15847 0 2 -2.000 62.550 4.170 10.425
15848 0 2 -2.000 64.635 6.255 14.595
15849 0 2 -2.000 66.720 6.255 12.510
15850 0 2 -2.000 64.635 8.340 12.510
15851 0 2 -2.000 62.550 4.170 14.595
15852 0 2 -2.000 64.635 6.255 18.765
15853 0 2 -2.000 66.720 6.255 16.680
15854 0 2 -2.000 64.635 8.340 16.680
15855 0 2 -2.000 62.550 4.170 18.765
15856 0 2 -2.000 64.635 6.255 22.935
15857 0 2 -2.000 66.720 6.255 20.850
15858 0 2 -2.000 64.635 8.340 20.850
15859 0 2 -2.000 62.550 4.170 22.935
15860 0 2 -2.000 64.635 6.255 27.105
15861 0 2 -2.000 66.720 6.255 25.020
15862 0 2 -2.000 64.635 8.340 25.020
15863 0 2 -2.000 62.550 4.170 27.105
15864 0 2 -2.000 64.635 6.255 31.275
15865 0 2 -2.000 66.720 6.255 29.190
15866 0 2 -2.000 64.635 8.340 29.190
15867 0 2 -2.000 62.550 4.170 31.275
15868 0 2 -2.000 64.635 6.255 35.445
15869 0 2 -2.000 66.720 6.255 33.360
15870 0 2 -2.000 64.635 8.340 33.360
15871 0 2 -2.000 62.550 4.170 35.445
15872 0 2 -2.000 64.635 6.255 39.615
15873 0 2 -2.000 66.720 6.255 37.530
15874 0 2 -2.000 64.635 8.340 37.530
15875 0 2 -2.000 62.550 4.170 39.615
15876 0 2 -2.000 64.635 10.425 2.085
15877 0 2 -2.000 66.720 10.425 0.000
15878 0 2 -2.000 64.635 12.510 0.000
15879 0 2 -2.000 62.550 8.340 2.085
15880 0 2 -2.000 64.635 10.425 6.255
15881 0 2 -2.000 66.720 10.425 4.170
15882 0 2 -2.000 64.635 12.510 4.170
15883 0 2 -2.000 62.550 8.340 6.255
15884 0 2 -2.000 64.635 10.425 10.425
15885 0 2 -2.000 66.720 10.425 8.340
15886 0 2 -2.000 64.635 12.510 8.340
15887 0 2 -2.000 62.550 8.340 10.425
15888 0 2 -2.000 64.635 10.425 14.595
15889 0 2 -2.000 66.720 10.425 12.510
15890 0 2 -2.000 64.635 12.510 12.510
15891 0 2 -2.000 62.550 8.340 14.595
15892 0 2 -2.000 64.635 10.425 18.765
15893 0 2 -2.000 66.720 10.425 16.680
15894 0 2 -2.000 64.635 12.510 16.680
15895 0 2 -2.000 62.550 8.340 18.765
15896 0 2 -2.000 64.635 10.425 22.935
15897 0 2 -2.000 66.720 10.425 20.850
15898 0 2 -2.000 64.635 12.510 20.850
15899 0 2 -2.000 62.550 8.340 22.935
15900 0 2 -2.000 64.635 10.425 27.105
15901 0 2 -2.000 66.720 10.425 25.020
15902 0 2 -2.000 64.635 12.510 25.020
15903 0 2 -2.000 62.550 8.340 27.105
15904 0 2 -2.000 64.635 10.425 31.275
15905 0 2 -2.000 66.720 10.425 29.190
15906 0 2 -2.000 64.635 12.510 29.190
15907 0 2 -2.000 62.550 8.340 31.275
15908 0 2 -2.000 64.635 10.425 35.445
15909 0 2 -2.000 66.720 10.425 33.360
15910 0 2 -2.000 64.635 12.510 33.360
15911 0 2 -2.000 62.550 8.340 35.445
15912 0 2 -2.000 64.635 14.595 2.085
15913 0 2 -2.000 66.720 14.595 0.000
15914 0 2 -2.000 64.635 16.680 0.000
15915 0 2 -2.000 62.550 12.510 2.085
15916 0 2 -2.000 64.635 14.595 6.255
15917 0 2 -2.000 66.720 14.595 4.170
15918 0 2 -2.000 64.635 16.680 4.170
15919 0 2 -2.000 62.550 12.510 6.255
15920 0 2 -2.000 64.635 14.595 10.425
15921 0 2 -2.000 66.720 14.595 8.340
15922 0 2 -2.000 64.635 16.680 8.340
15923 0 2 -2.000 62.550 12.510 10.425
15924 0 2 -2.000 64.635 14.595 14.595
15925 0 2 -2.000 66.720 14.595 12.510
15926 0 2 -2.000 64.635 16.680 12.510
15927 0 2 -2.000 62.550 12.510 14.595
15928 0 2 -2.000 64.635 14.595 18.765
15929 0 2 -2.000 66.720 14.595 16.680
15930 0 2 -2.000 64.635 16.680 16.680
15931 0 2 -2.000 62.550 12.510 18.765
15932 0 2 -2.000 64.635 14.595 22.935
15933 0 2 -2.000 66.720 14.595 20.850
15934 0 2 -2.000 64.635 16.680 20.850
15935 0 2 -2.000 62.550 12.510 22.935
15936 0 2 -2.000 64.635 14.595 27.105
15937 0 2 -2.000 66.720 14.595 25.020
15938 0 2 -2.000 64.635 16.680 25.020
15939 0 2 -2.000 62.550 12.510 27.105
15940 0 2 -2.000 64.635 14.595 31.275
15941 0 2 -2.000 66.720 14.595 29.190
15942 0 2 -2.000 64.635 16.680 29.190
15943 0 2 -2.000 62.550 12.510 31.275
15944 0 2 -2.000 64.635 18.765 2.085
15945 0 2 -2.000 66.720 18.765 0.000
15946 0 2 -2.000 64.635 20.850 0.000
15947 0 2 -2.000 62.550 16.680 2.085
15948 0 2 -2.000 64.635 18.765 6.255
15949 0 2 -2.000 66.720 18.765 4.170
15950 0 2 -2.000 64.635 20.850 4.170
15951 0 2 -2.000 62.550 16.680 6.255
15952 0 2 -2.000 64.635 18.765 10.425
15953 0 2 -2.000 66.720 18.765 8.340
15954 0 2 -2.000 64.635 20.850 8.340
15955 0 2 -2.000 62.550 16.680 10.425
15956 0 2 -2.000 64.635 18.765 14.595
15957 0 2 -2.000 66.720 18.765 12.510
15958 0 2 -2.000 64.635 20.850 12.510
15959 0 2 -2.000 62.550 16.680 14.595
15960 0 2 -2.000 64.635 18.765 18.765
15961 0 2 -2.000 66.720 18.765 16.680
15962 0 2 -2.000 64.635 20.850 16.680
15963 0 2 -2.000 62.550 16.680 18.765
15964 0 2 -2.000 64.635 18.765 22.935
15965 0 2 -2.000 66.720 18.765 20.850
15966 0 2 -2.000 64.635 20.850 20.850
15967 0 2 -2.000 62.550 16.680 22.935
15968 0 2 -2.000 64.635 18.765 27.105
15969 0 2 -2.000 66.720 18.765 25.020
15970 0 2 -2.000 64.635 20.850 25.020
15971 0 2 -2.000 62.550 16.680 27.105
15972 0 2 -2.000 64.635 22.935 2.085
15973 0 2 -2.000 66.720 22.935 0.000
15974 0 2 -2.000 64.635 25.020 0.000
15975 0 2 -2.000 62.550 20.850 2.085
15976 0 2 -2.000 64.635 22.935 6.255
15977 0 2 -2.000 66.720 22.935 4.170
15978 0 2 -2.000 64.635 25.020 4.170
15979 0 2 -2.000 62.550 20.850 6.255
15980 0 2 -2.000 64.635 22.935 10.425
15981 0 2 -2.000 66.720 22.935 8.340
15982 0 2 -2.000 64.635 25.020 8.340
15983 0 2 -2.000 62.550 20.850 10.425
15984 0 2 -2.000 64.635 22.935 14.595
15985 0 2 -2.000 66.720 22.935 12.510
15986 0 2 -2.000 64.635 25.020 12.510
15987 0 2 -2.000 62.550 20.850 14.595
15988 0 2 -2.000 64.635 22.935 18.765
15989 0 2 -2.000 66.720 22.935 16.680
15990 0 2 -2.000 64.635 25.020 16.680
15991 0 2 -2.000 62.550 20.850 18.765
15992 0 2 -2.000 64.635 22.935 22.935
15993 0 2 -2.000 66.720 22.935 20.850
15994 0 2 -2.000 64.635 25.020 20.850
15995 0 2 -2.000 62.550 20.850 22.935
15996 0 2 -2.000 64.635 22.935 27.105
15997 0 2 -2.000 66.720 22.935 25.020
15998 0 2 -2.000 64.635 25.020 25.020
15999 0 2 -2.000 64.635 25.020 29.190
16000 0 2 -2.000 64.635 27.105 2.085
16001 0 2 -2.000 66.720 27.105 0.000
16002 0 2 -2.000 64.635 29.190 0.000
16003 0 2 -2.000 62.550 25.020 2.085
16004 0 2 -2.000 64.635 27.105 6.255
16005 0 2 -2.000 66.720 27.105 4.170
16006 0 2 -2.000 64.635 29.190 4.170
16007 0 2 -2.000 62.550 25.020 6.255
16008 0 2 -2.000 64.635 27.105 10.425
16009 0 2 -2.000 66.720 27.105 8.340
16010 0 2 -2.000 64.635 29.190 8.340
16011 0 2 -2.000 62.550 25.020 10.425
16012 0 2 -2.000 64.635 27.105 14.595
16013 0 2 -2.000 66.720 27.105 12.510
16014 0 2 -2.000 64.635 29.190 12.510
16015 0 2 -2.000 62.550 25.020 14.595
16016 0 2 -2.000 64.635 27.105 18.765
16017 0 2 -2.000 66.720 27.105 16.680
16018 0 2 -2.000 64.635 29.190 16.680
16019 0 2 -2.000 62.550 25.020 18.765
16020 0 2 -2.000 64.635 27.105 22.935
16021 0 2 -2.000 66.720 27.105 20.850
16022 0 2 -2.000 64.635 29.190 20.850
16023 0 2 -2.000 62.550 25.020 22.935
16024 0 2 -2.000 64.635 27.105 27.105
16025 0 2 -2.000 66.720 27.105 25.020
16026 0 2 -2.000 64.635 29.190 25.020
16027 0 2 -2.000 62.550 25.020 27.105
16028 0 2 -2.000 64.635 27.105 31.275
16029 0 2 -2.000 66.720 27.105 29.190
16030 0 2 -2.000 64.635 29.190 29.190
16031 0 2 -2.000 64.635 29.190 33.360
16032 0 2 -2.000 64.635 31.275 2.085
16033 0 2 -2.000 66.720 31.275 0.000
16034 0 2 -2.000 64.635 33.360 0.000
16035 0 2 -2.000 62.550 29.190 2.085
16036 0 2 -2.000 64.635 31.275 6.255
16037 0 2 -2.000 66.720 31.275 4.170
16038 0 2 -2.000 64.635 33.360 4.170
16039 0 2 -2.000 62.550 29.190 6.255
16040 0 2 -2.000 64.635 31.275 10.425
16041 0 2 -2.000 66.720 31.275 8.340
16042 0 2 -2.000 64.635 33.360 8.340
16043 0 2 -2.000 62.550 29.190 10.425
16044 0 2 -2.000 64.635 31.275 14.595
16045 0 2 -2.000 66.720 31.275 12.510
16046 0 2 -2.000 64.635 33.360 12.510
16047 0 2 -2.000 62.550 29.190 14.595
16048 0 2 -2.000 64.635 31.275 18.765
16049 0 2 -2.000 66.720 31.275 16.680
16050 0 2 -2.000 64.635 33.360 16.680
16051 0 2 -2.000 62.550 29.190 18.765
16052 0 2 -2.000 64.635 31.275 22.935
16053 0 2 -2.000 66.720 31.275 20.850
16054 0 2 -2.000 64.635 33.360 20.850
16055 0 2 -2.000 62.550 29.190 22.935
16056 0 2 -2.000 64.635 31.275 27.105
16057 0 2 -2.000 66.720 31.275 25.020
16058 0 2 -2.000 64.635 33.360 25.020
16059 0 2 -2.000 62.550 29.190 27.105
16060 0 2 -2.000 64.635 31.275 31.275
16061 0 2 -2.000 66.720 31.275 29.190
16062 0 2 -2.000 64.635 33.360 29.190
16063 0 2 -2.000 62.550 29.190 31.275
16064 0 2 -2.000 64.635 31.275 35.445
16065 0 2 -2.000 66.720 31.275 33.360
16066 0 2 -2.000 64.635 33.360 33.360
16067 0 2 -2.000 64.635 33.360 37.530
16068 0 2 -2.000 64.635 35.445 2.085
16069 0 2 -2.000 66.720 35.445 0.000
16070 0 2 -2.000 64.635 37.530 0.000
16071 0 2 -2.000 62.550 33.360 2.085
16072 0 2 -2.000 64.635 35.445 6.255
16073 0 2 -2.000 66.720 35.445 4.170
16074 0 2 -2.000 64.635 37.530 4.170
16075 0 2 -2.000 62.550 33.360 6.255
16076 0 2 -2.000 64.635 35.445 10.425
16077 0 2 -2.000 66.720 35.445 8.340
16078 0 2 -2.000 64.635 37.530 8.340
16079 0 2 -2.000 62.550 33.360 10.425
16080 0 2 -2.000 64.635 35.445 14.595
16081 0 2 -2.000 66.720 35.445 12.510
16082 0 2 -2.000 64.635 37.530 12.510
16083 0 2 -2.000 62.550 33.360 14.595
16084 0 2 -2.000 64.635 35.445 18.765
16085 0 2 -2.000 66.720 35.445 16.680
16086 0 2 -2.000 64.635 37.530 16.680
16087 0 2 -2.000 62.550 33.360 18.765
16088 0 2 -2.000 64.635 35.445 22.935
16089 0 2 -2.000 66.720 35.445 20.850
16090 0 2 -2.000 64.635 37.530 20.850
16091 0 2 -2.000 62.550 33.360 22.935
16092 0 2 -2.000 64.635 35.445 27.105
16093 0 2 -2.000 66.720 35.445 25.020
16094 0 2 -2.000 64.635 37.530 25.020
16095 0 2 -2.000 62.550 33.360 27.105
16096 0 2 -2.000 64.635 35.445 31.275
16097 0 2 -2.000 66.720 35.445 29.190
16098 0 2 -2.000 64.635 37.530 29.190
16099 0 2 -2.000 62.550 33.360 31.275
16100 0 2 -2.000 64.635 35.445 35.445
16101 0 2 -2.000 66.720 35.445 33.360
16102 0 2 -2.000 64.635 37.530 33.360
16103 0 2 -2.000 62.550 33.360 35.445
16104 0 2 -2.000 64.635 35.445 39.615
16105 0 2 -2.000 66.720 35.445 37.530
16106 0 2 -2.000 64.635 37.530 37.530
16107 0 2 -2.000 64.635 39.615 2.085
16108 0 2 -2.000 66.720 39.615 0.000
16109 0 2 -2.000 64.635 0.000 0.000
16110 0 2 -2.000 62.550 37.530 2.085
16111 0 2 -2.000 64.635 39.615 6.255
16112 0 2 -2.000 66.720 39.615 4.170
16113 0 2 -2.000 64.635 0.000 4.170
16114 0 2 -2.000 62.550 37.530 6.255
16115 0 2 -2.000 64.635 39.615 10.425
16116 0 2 -2.000 66.720 39.615 8.340
16117 0 2 -2.000 64.635 0.000 8.340
16118 0 2 -2.000 62.550 37.530 10.425
16119 0 2 -2.000 64.635 39.615 14.595
16120 0 2 -2.000 66.720 39.615 12.510
16121 0 2 -2.000 64.635 0.000 12.510
16122 0 2 -2.000 62.550 37.530 14.595
16123 0 2 -2.000 64.635 39.615 18.765
16124 0 2 -2.000 66.720 39.615 16.680
16125 0 2 -2.000 64.635 0.000 16.680
16126 0 2 -2.000 62.550 37.530 18.765
16127 0 2 -2.000 64.635 39.615 22.935
16128 0 2 -2.000 66.720 39.615 20.850
16129 0 2 -2.000 64.635 0.000 20.850
16130 0 2 -2.000 62.550 37.530 22.935
16131 0 2 -2.000 64.635 39.615 27.105
16132 0 2 -2.000 66.720 39.615 25.020
16133 0 2 -2.000 64.635 0.000 25.020
16134 0 2 -2.000 62.550 37.530 27.105
16135 0 2 -2.000 64.635 39.615 31.275
16136 0 2 -2.000 66.720 39.615 29.190
16137 0 2 -2.000 64.635 0.000 29.190
16138 0 2 -2.000 62.550 37.530 31.275
16139 0 2 -2.000 64.635 39.615 35.445
16140 0 2 -2.000 66.720 39.615 33.360
16141 0 2 -2.000 64.635 0.000 33.360
16142 0 2 -2.000 62.550 37.530 35.445
16143 0 2 -2.000 64.635 39.615 39.615
16144 0 2 -2.000 66.720 39.615 37.530
16145 0 2 -2.000 64.635 0.000 37.530
16146 0 2 -2.000 62.550 37.530 39.615
16147 0 2 -2.000 68.805 2.085 2.085
16148 0 2 -2.000 70.890 2.085 0.000
16149 0 2 -2.000 68.805 4.170 0.000
16150 0 2 -2.000 66.720 0.000 2.085
16151 0 2 -2.000 68.805 2.085 6.255
16152 0 2 -2.000 70.890 2.085 4.170
16153 0 2 -2.000 68.805 4.170 4.170
16154 0 2 -2.000 66.720 0.000 6.255
16155 0 2 -2.000 68.805 2.085 10.425
16156 0 2 -2.000 70.890 2.085 8.340
16157 0 2 -2.000 68.805 4.170 8.340
16158 0 2 -2.000 66.720 0.000 10.425
16159 0 2 -2.000 68.805 2.085 14.595
16160 0 2 -2.000 70.890 2.085 12.510
16161 0 2 -2.000 68.805 4.170 12.510
16162 0 2 -2.000 66.720 0.000 14.595
16163 0 2 -2.000 68.805 2.085 18.765
16164 0 2 -2.000 70.890 2.085 16.680
16165 0 2 -2.000 68.805 4.170 16.680
16166 0 2 -2.000 66.720 0.000 18.765
16167 0 2 -2.000 68.805 2.085 22.935
16168 0 2 -2.000 70.890 2.085 20.850
16169 0 2 -2.000 68.805 4.170 20.850
16170 0 2 -2.000 66.720 0.000 22.935
16171 0 2 -2.000 68.805 2.085 27.105
16172 0 2 -2.000 70.890 2.085 25.020
16173 0 2 -2.000 68.805 4.170 25.020
16174 0 2 -2.000 66.720 0.000 27.105
16175 0 2 -2.000 68.805 2.085 31.275
16176 0 2 -2.000 70.890 2.085 29.190
16177 0 2 -2.000 68.805 4.170 29.190
16178 0 2 -2.000 66.720 0.000 31.275
16179 0 2 -2.000 68.805 2.085 35.445
16180 0 2 -2.000 70.890 2.085 33.360
16181 0 2 -2.000 68.805 4.170 33.360
16182 0 2 -2.000 66.720 0.000 35.445
16183 0 2 -2.000 68.805 2.085 39.615
16184 0 2 -2.000 70.890 2.085 37.530
16185 0 2 -2.000 68.805 4.170 37.530
16186 0 2 -2.000 66.720 0.000 39.615
16187 0 2 -2.000 68.805 6.255 2.085
16188 0 2 -2.000 70.890 6.255 0.000
16189 0 2 -2.000 68.805 8.340 0.000
16190 0 2 -2.000 66.720 4.170 2.085
16191 0 2 -2.000 68.805 6.255 6.255
16192 0 2 -2.000 70.890 6.255 4.170
16193 0 2 -2.000 68.805 8.340 4.170
16194 0 2 -2.000 66.720 4.170 6.255
16195 0 2 -2.000 68.805 6.255 10.425
16196 0 2 -2.000 70.890 6.255 8.340
16197 0 2 -2.000 68.805 8.340 8.340
16198 0 2 -2.000 66.720 4.170 10.425
16199 0 2 -2.000 68.805 6.255 14.595
16200 0 2 -2.000 70.890 6.255 12.510
16201 0 2 -2.000 68.805 8.340 12.510
16202 0 2 -2.000 66.720 4.170 14.595
16203 0 2 -2.000 68.805 6.255 18.765
16204 0 2 -2.000 70.890 6.255 16.680
16205 0 2 -2.000 68.805 8.340 16.680
16206 0 2 -2.000 66.720 4.170 18.765
16207 0 2 -2.000 68.805 6.255 22.935
16208 0 2 -2.000 70.890 6.255 20.850
16209 0 2 -2.000 68.805 8.340 20.850
16210 0 2 -2.000 66.720 4.170 22.935
16211 0 2 -2.000 68.805 6.255 27.105
16212 0 2 -2.000 70.890 6.255 25.020
16213 0 2 -2.000 68.805 8.340 25.020
16214 0 2 -2.000 66.720 4.170 27.105
16215 0 2 -2.000 68.805 6.255 31.275
16216 0 2 -2.000 70.890 6.255 29.190
16217 0 2 -2.000 68.805 8.340 29.190
16218 0 2 -2.000 66.720 4.170 31.275
16219 0 2 -2.000 68.805 6.255 35.445
16220 0 2 -2.000 70.890 6.255 33.360
16221 0 2 -2.000 68.805 8.340 33.360
16222 0 2 -2.000 66.720 4.170 35.445
16223 0 2 -2.000 68.805 6.255 39.615
16224 0 2 -2.000 70.890 6.255 37.530
16225 0 2 -2.000 68.805 8.340 37.530
16226 0 2 -2.000 66.720 4.170 39.615
16227 0 2 -2.000 68.805 10.425 2.085
16228 0 2 -2.000 70.890 10.425 0.000
16229 0 2 -2.000 68.805 12.510 0.000
16230 0 2 -2.000 66.720 8.340 2.085
16231 0 2 -2.000 68.805 10.425 6.255
16232 0 2 -2.000 70.890 10.425 4.170
16233 0 2 -2.000 68.805 12.510 4.170
16234 0 2 -2.000 66.720 8.340 6.255
16235 0 2 -2.000 68.805 10.425 10.425
16236 0 2 -2.000 70.890 10.425 8.340
16237 0 2 -2.000 68.805 12.510 8.340
16238 0 2 -2.000 66.720 8.340 10.425
16239 0 2 -2.000 68.805 10.425 14.595
16240 0 2 -2.000 70.890 10.425 12.510
16241 0 2 -2.000 68.805 12.510 12.510
16242 0 2 -2.000 66.720 8.340 14.595
16243 0 2 -2.000 68.805 10.425 18.765
16244 0 2 -2.000 70.890 10.425 16.680
16245 0 2 -2.000 68.805 12.510 16.680
16246 0 2 -2.000 66.720 8.340 18.765
16247 0 2 -2.000 68.805 10.425 22.935
16248 0 2 -2.000 70.890 10.425 20.850
16249 0 2 -2.000 68.805 12.510 20.850
16250 0 2 -2.000 66.720 8.340 22.935
16251 0 2 -2.000 68.805 10.425 27.105
16252 0 2 -2.000 70.890 10.425 25.020
16253 0 2 -2.000 68.805 12.510 25.020
16254 0 2 -2.000 66.720 8.340 27.105
16255 0 2 -2.000 68.805 10.425 31.275
16256 0 2 -2.000 70.890 10.425 29.190
16257 0 2 -2.000 68.805 12.510 29.190
16258 0 2 -2.000 66.720 8.340 31.275
16259 0 2 -2.000 68.805 10.425 35.445
16260 0 2 -2.000 70.890 10.425 33.360
16261 0 2 -2.000 68.805 12.510 33.360
16262 0 2 -2.000 66.720 8.340 35.445
16263 0 2 -2.000 68.805 14.595 2.085
16264 0 2 -2.000 70.890 14.595 0.000
16265 0 2 -2.000 68.805 16.680 0.000
16266 0 2 -2.000 66.720 12.510 2.085
16267 0 2 -2.000 68.805 14.595 6.255
16268 0 2 -2.000 70.890 14.595 4.170
16269 0 2 -2.000 68.805 16.680 4.170
16270 0 2 -2.000 66.720 12.510 6.255
16271 0 2 -2.000 68.805 14.595 10.425
16272 0 2 -2.000 70.890 14.595 8.340
16273 0 2 -2.000 68.805 16.680 8.340
16274 0 2 -2.000 66.720 12.510 10.425
16275 0 2 -2.000 68.805 14.595 14.595
16276 0 2 -2.000 70.890 14.595 12.510
16277 0 2 -2.000 68.805 16.680 12.510
16278 0 2 -2.000 66.720 12.510 14.595
16279 0 2 -2.000 68.805 14.595 18.765
16280 0 2 -2.000 70.890 14.595 16.680
16281 0 2 -2.000 68.805 16.680 16.680
16282 0 2 -2.000 66.720 12.510 18.765
16283 0 2 -2.000 68.805 14.595 22.935
16284 0 2 -2.000 70.890 14.595 20.850
16285 0 2 -2.000 68.805 16.680 20.850
16286 0 2 -2.000 66.720 12.510 22.935
16287 0 2 -2.000 68.805 14.595 27.105
16288 0 2 -2.000 70.890 14.595 25.020
16289 0 2 -2.000 68.805 16.680 25.020
16290 0 2 -2.000 66.720 12.510 27.105
16291 0 2 -2.000 68.805 14.595 31.275
16292 0 2 -2.000 70.890 14.595 29.190
16293 0 2 -2.000 68.805 16.680 29.190
16294 0 2 -2.000 66.720 12.510 31.275
16295 0 2 -2.000 68.805 18.765 2.085
16296 0 2 -2.000 70.890 18.765 0.000
16297 0 2 -2.000 68.805 20.850 0.000
16298 0 2 -2.000 66.720 16.680 2.085
16299 0 2 -2.000 68.805 18.765 6.255
16300 0 2 -2.000 70.890 18.765 4.170
16301 0 2 -2.000 68.805 20.850 4.170
16302 0 2 -2.000 66.720 16.680 6.255
16303 0 2 -2.000 68.805 18.765 10.425
16304 0 2 -2.000 70.890 18.765 8.340
16305 0 2 -2.000 68.805 20.850 8.340
16306 0 2 -2.000 66.720 16.680 10.425
16307 0 2 -2.000 68.805 18.765 14.595
16308 0 2 -2.000 70.890 18.765 12.510
16309 0 2 -2.000 68.805 20.850 12.510
16310 0 2 -2.000 66.720 16.680 14.595
16311 0 2 -2.000 68.805 18.765 18.765
16312 0 2 -2.000 70.890 18.765 16.680
16313 0 2 -2.000 68.805 20.850 16.680
16314 0 2 -2.000 66.720 16.680 18.765
16315 0 2 -2.000 68.805 18.765 22.935
16316 0 2 -2.000 70.890 18.765 20.850
16317 0 2 -2.000 68.805 20.850 20.850
16318 0 2 -2.000 66.720 16.680 22.935
16319 0 2 -2.000 68.805 18.765 27.105
16320 0 2 -2.000 70.890 18.765 25.020
16321 0 2 -2.000 68.805 20.850 25.020
16322 0 2 -2.000 66.720 16.680 27.105
16323 0 2 -2.000 68.805 22.935 2.085
16324 0 2 -2.000 70.890 22.935 0.000
16325 0 2 -2.000 68.805 25.020 0.000
16326 0 2 -2.000 66.720 20.850 2.085
16327 0 2 -2.000 68.805 22.935 6.255
16328 0 2 -2.000 70.890 22.935 4.170
16329 0 2 -2.000 68.805 25.020 4.170
16330 0 2 -2.000 66.720 20.850 6.255
16331 0 2 -2.000 68.805 22.935 10.425
16332 0 2 -2.000 70.890 22.935 8.340
16333 0 2 -2.000 68.805 25.020 8.340
16334 0 2 -2.000 66.720 20.850 10.425
16335 0 2 -2.000 68.805 22.935 14.595
16336 0 2 -2.000 70.890 22.935 12.510
16337 0 2 -2.000 68.805 25.020 12.510
16338 0 2 -2.000 66.720 20.850 14.595
16339 0 2 -2.000 68.805 22.935 18.765
16340 0 2 -2.000 70.890 22.935 16.680
16341 0 2 -2.000 68.805 25.020 16.680
16342 0 2 -2.000 66.720 20.850 18.765
16343 0 2 -2.000 68.805 22.935 22.935
16344 0 2 -2.000 70.890 22.935 20.850
16345 0 2 -2.000 68.805 25.020 20.850
16346 0 2 -2.000 66.720 20.850 22.935
16347 0 2 -2.000 68.805 22.935 27.105
16348 0 2 -2.000 70.890 22.935 25.020
16349 0 2 -2.000 68.805 25.020 25.020
16350 0 2 -2.000 68.805 25.020 29.190
16351 0 2 -2.000 68.805 27.105 2.085
16352 0 2 -2.000 70.890 27.105 0.000
16353 0 2 -2.000 68.805 29.190 0.000
16354 0 2 -2.000 66.720 25.020 2.085
16355 0 2 -2.000 68.805 27.105 6.255
16356 0 2 -2.000 70.890 27.105 4.170
16357 0 2 -2.000 68.805 29.190 4.170
16358 0 2 -2.000 66.720 25.020 6.255
16359 0 2 -2.000 68.805 27.105 10.425
16360 0 2 -2.000 70.890 27.105 8.340
16361 0 2 -2.000 68.805 29.190 8.340
16362 0 2 -2.000 66.720 25.020 10.425
16363 0 2 -2.000 68.805 27.105 14.595
16364 0 2 -2.000 70.890 27.105 12.510
16365 0 2 -2.000 68.805 29.190 12.510
16366 0 2 -2.000 66.720 25.020 14.595
16367 0 2 -2.000 68.805 27.105 18.765
16368 0 2 -2.000 70.890 27.105 16.680
16369 0 2 -2.000 68.805 29.190 16.680
16370 0 2 -2.000 66.720 25.020 18.765
16371 0 2 -2.000 68.805 27.105 22.935
16372 0 2 -2.000 70.890 27.105 20.850
16373 0 2 -2.000 68.805 29.190 20.850
16374 0 2 -2.000 66.720 25.020 22.935
16375 0 2 -2.000 68.805 27.105 27.105
16376 0 2 -2.000 70.890 27.105 25.020
16377 0 2 -2.000 68.805 29.190 25.020
16378 0 2 -2.000 66.720 25.020 27.105
16379 0 2 -2.000 68.805 27.105 31.275
16380 0 2 -2.000 70.890 27.105 29.190
16381 0 2 -2.000 68.805 29.190 29.190
16382 0 2 -2.000 68.805 29.190 33.360
16383 0 2 -2.000 68.805 31.275 2.085
16384 0 2 -2.000 70.890 31.275 0.000
16385 0 2 -2.000 68.805 33.360 0.000
16386 0 2 -2.000 66.720 29.190 2.085
16387 0 2 -2.000 68.805 31.275 6.255
16388 0 2 -2.000 70.890 31.275 4.170
16389 0 2 -2.000 68.805 33.360 4.170
16390 0 2 -2.000 66.720 29.190 6.255
16391 0 2 -2.000 68.805 31.275 10.425
16392 0 2 -2.000 70.890 31.275 8.340
16393 0 2 -2.000 68.805 33.360 8.340
16394 0 2 -2.000 66.720 29.190 10.425
16395 0 2 -2.000 68.805 31.275 14.595
16396 0 2 -2.000 70.890 31.275 12.510
16397 0 2 -2.000 68.805 33.360 12.510
16398 0 2 -2.000 66.720 29.190 14.595
16399 0 2 -2.000 68.805 31.275 18.765
16400 0 2 -2.000 70.890 31.275 16.680
16401 0 2 -2.000 68.805 33.360 16.680
16402 0 2 -2.000 66.720 29.190 18.765
16403 0 2 -2.000 68.805 31.275 22.935
16404 0 2 -2.000 70.890 31.275 20.850
16405 0 2 -2.000 68.805 33.360 20.850
16406 0 2 -2.000 66.720 29.190 22.935
16407 0 2 -2.000 68.805 31.275 27.105
16408 0 2 -2.000 70.890 31.275 25.020
16409 0 2 -2.000 68.805 33.360 25.020
16410 0 2 -2.000 66.720 29.190 27.105
16411 0 2 -2.000 68.805 31.275 31.275
16412 0 2 -2.000 70.890 31.275 29.190
16413 0 2 -2.000 68.805 33.360 29.190
16414 0 2 -2.000 66.720 29.190 31.275
16415 0 2 -2.000 68.805 31.275 35.445
16416 0 2 -2.000 70.890 31.275 33.360
16417 0 2 -2.000 68.805 33.360 33.360
16418 0 2 -2.000 68.805 33.360 37.530
16419 0 2 -2.000 68.805 35.445 2.085
16420 0 2 -2.000 70.890 35.445 0.000
16421 0 2 -2.000 68.805 37.530 0.000
16422 0 2 -2.000 66.720 33.360 2.085
16423 0 2 -2.000 68.805 35.445 6.255
16424 0 2 -2.000 70.890 35.445 4.170
16425 0 2 -2.000 68.805 37.530 4.170
16426 0 2 -2.000 66.720 33.360 6.255
16427 0 2 -2.000 68.805 35.445 10.425
16428 0 2 -2.000 70.890 35.445 8.340
16429 0 2 -2.000 68.805 37.530 8.340
16430 0 2 -2.000 66.720 33.360 10.425
16431 0 2 -2.000 68.805 35.445 14.595
16432 0 2 -2.000 70.890 35.445 12.510
16433 0 2 -2.000 68.805 37.530 12.510
16434 0 2 -2.000 66.720 33.360 14.595
16435 0 2 -2.000 68.805 35.445 18.765
16436 0 2 -2.000 70.890 35.445 16.680
16437 0 2 -2.000 68.805 37.530 16.680
16438 0 2 -2.000 66.720 33.360 18.765
16439 0 2 -2.000 68.805 35.445 22.935
16440 0 2 -2.000 70.890 35.445 20.850
16441 0 2 -2.000 68.805 37.530 20.850
16442 0 2 -2.000 66.720 33.360 22.935
16443 0 2 -2.000 68.805 35.445 27.105
16444 0 2 -2.000 70.890 35.445 25.020
16445 0 2 -2.000 68.805 37.530 25.020
16446 0 2 -2.000 66.720 33.360 27.105
16447 0 2 -2.000 68.805 35.445 31.275
16448 0 2 -2.000 70.890 35.445 29.190
16449 0 2 -2.000 68.805 37.530 29.190
16450 0 2 -2.000 66.720 33.360 31.275
16451 0 2 -2.000 68.805 35.445 35.445
16452 0 2 -2.000 70.890 35.445 33.360
16453 0 2 -2.000 68.805 37.530 33.360
16454 0 2 -2.000 66.720 33.360 35.445
16455 0 2 -2.000 68.805 35.445 39.615
16456 0 2 -2.000 70.890 35.445 37.530
16457 0 2 -2.000 68.805 37.530 37.530
16458 0 2 -2.000 68.805 39.615 2.085
16459 0 2 -2.000 70.890 39.615 0.000
16460 0 2 -2.000 68.805 0.000 0.000
16461 0 2 -2.000 66.720 37.530 2.085
16462 0 2 -2.000 68.805 39.615 6.255
16463 0 2 -2.000 70.890 39.615 4.170
16464 0 2 -2.000 68.805 0.000 4.170
16465 0 2 -2.000 66.720 37.530 6.255
16466 0 2 -2.000 68.805 39.615 10.425
16467 0 2 -2.000 70.890 39.615 8.340
16468 0 2 -2.000 68.805 0.000 8.340
16469 0 2 -2.000 66.720 37.530 10.425
16470 0 2 -2.000 68.805 39.615 14.595
16471 0 2 -2.000 70.890 39.615 12.510
16472 0 2 -2.000 68.805 0.000 12.510
16473 0 2 -2.000 66.720 37.530 14.595
16474 0 2 -2.000 68.805 39.615 18.765
16475 0 2 -2.000 70.890 39.615 16.680
16476 0 2 -2.000 68.805 0.000 16.680
16477 0 2 -2.000 66.720 37.530 18.765
16478 0 2 -2.000 68.805 39.615 22.935
16479 0 2 -2.000 70.890 39.615 20.850
16480 0 2 -2.000 68.805 0.000 20.850
16481 0 2 -2.000 66.720 37.530 22.935
16482 0 2 -2.000 68.805 39.615 27.105
16483 0 2 -2.000 70.890 39.615 25.020
16484 0 2 -2.000 68.805 0.000 25.020
16485 0 2 -2.000 66.720 37.530 27.105
16486 0 2 -2.000 68.805 39.615 31.275
16487 0 2 -2.000 70.890 39.615 29.190
16488 0 2 -2.000 68.805 0.000 29.190
16489 0 2 -2.000 66.720 37.530 31.275
16490 0 2 -2.000 68.805 39.615 35.445
16491 0 2 -2.000 70.890 39.615 33.360
16492 0 2 -2.000 68.805 0.000 33.360
16493 0 2 -2.000 66.720 37.530 35.445
16494 0 2 -2.000 68.805 39.615 39.615
16495 0 2 -2.000 70.890 39.615 37.530
16496 0 2 -2.000 68.805 0.000 37.530
16497 0 2 -2.000 66.720 37.530 39.615
16498 0 2 -2.000 72.975 2.085 2.085
16499 0 2 -2.000 75.060 2.085 0.000
16500 0 2 -2.000 72.975 4.170 0.000
16501 0 2 -2.000 70.890 0.000 2.085
16502 0 2 -2.000 72.975 2.085 6.255
16503 0 2 -2.000 75.060 2.085 4.170
16504 0 2 -2.000 72.975 4.170 4.170
16505 0 2 -2.000 70.890 0.000 6.255
16506 0 2 -2.000 72.975 2.085 10.425
16507 0 2 -2.000 75.060 2.085 8.340
16508 0 2 -2.000 72.975 4.170 8.340
16509 0 2 -2.000 70.890 0.000 10.425
16510 0 2 -2.000 72.975 2.085 14.595
16511 0 2 -2.000 75.060 2.085 12.510
16512 0 2 -2.000 72.975 4.170 12.510
16513 0 2 -2.000 70.890 0.000 14.595
16514 0 2 -2.000 72.975 2.085 18.765
16515 0 2 -2.000 75.060 2.085 16.680
16516 0 2 -2.000 72.975 4.170 16.680
16517 0 2 -2.000 70.890 0.000 18.765
16518 0 2 -2.000 72.975 2.085 22.935
16519 0 2 -2.000 75.060 2.085 20.850
16520 0 2 -2.000 72.975 4.170 20.850
16521 0 2 -2.000 70.890 0.000 22.935
16522 0 2 -2.000 72.975 2.085 27.105
16523 0 2 -2.000 75.060 2.085 25.020
16524 0 2 -2.000 72.975 4.170 25.020
16525 0 2 -2.000 70.890 0.000 27.105
16526 0 2 -2.000 72.975 2.085 31.275
16527 0 2 -2.000 75.060 2.085 29.190
16528 0 2 -2.000 72.975 4.170 29.190
16529 0 2 -2.000 70.890 0.000 31.275
16530 0 2 -2.000 72.975 2.085 35.445
16531 0 2 -2.000 75.060 2.085 33.360
16532 0 2 -2.000 72.975 4.170 33.360
16533 0 2 -2.000 70.890 0.000 35.445
16534 0 2 -2.000 72.975 2.085 39.615
16535 0 2 -2.000 75.060 2.085 37.530
16536 0 2 -2.000 72.975 4.170 37.530
16537 0 2 -2.000 70.890 0.000 39.615
16538 0 2 -2.000 72.975 6.255 2.085
16539 0 2 -2.000 75.060 6.255 0.000
16540 0 2 -2.000 72.975 8.340 0.000
16541 0 2 -2.000 70.890 4.170 2.085
16542 0 2 -2.000 72.975 6.255 6.255
16543 0 2 -2.000 75.060 6.255 4.170
16544 0 2 -2.000 72.975 8.340 4.170
16545 0 2 -2.000 70.890 4.170 6.255
16546 0 2 -2.000 72.975 6.255 10.425
16547 0 2 -2.000 75.060 6.255 8.340
16548 0 2 -2.000 72.975 8.340 8.340
16549 0 2 -2.000 70.890 4.170 10.425
16550 0 2 -2.000 72.975 6.255 14.595
16551 0 2 -2.000 75.060 6.255 12.510
16552 0 2 -2.000 72.975 8.340 12.510
16553 0 2 -2.000 70.890 4.170 14.595
16554 0 2 -2.000 72.975 6.255 18.765
16555 0 2 -2.000 75.060 6.255 16.680
16556 0 2 -2.000 72.975 8.340 16.680
16557 0 2 -2.000 70.890 4.170 18.765
16558 0 2 -2.000 72.975 6.255 22.935
16559 0 2 -2.000 75.060 6.255 20.850
16560 0 2 -2.000 72.975 8.340 20.850
16561 0 2 -2.000 70.890 4.170 22.935
16562 0 2 -2.000 72.975 6.255 27.105
16563 0 2 -2.000 75.060 6.255 25.020
16564 0 2 -2.000 72.975 8.340 25.020
16565 0 2 -2.000 70.890 4.170 27.105
16566 0 2 -2.000 72.975 6.255 31.275
16567 0 2 -2.000 75.060 6.255 29.190
16568 0 2 -2.000 72.975 8.340 29.190
16569 0 2 -2.000 70.890 4.170 31.275
16570 0 2 -2.000 72.975 6.255 35.445
16571 0 2 -2.000 75.060 6.255 33.360
16572 0 2 -2.000 72.975 8.340 33.360
16573 0 2 -2.000 70.890 4.170 35.445
16574 0 2 -2.000 72.975 6.255 39.615
16575 0 2 -2.000 75.060 6.255 37.530
16576 0 2 -2.000 72.975 8.340 37.530
16577 0 2 -2.000 70.890 4.170 39.615
16578 0 2 -2.000 72.975 10.425 2.085
16579 0 2 -2.000 75.060 10.425 0.000
16580 0 2 -2.000 72.975 12.510 0.000
16581 0 2 -2.000 70.890 8.340 2.085
16582 0 2 -2.000 72.975 10.425 6.255
16583 0 2 -2.000 75.060 10.425 4.170
16584 0 2 -2.000 72.975 12.510 4.170
16585 0 2 -2.000 70.890 8.340 6.255
16586 0 2 -2.000 72.975 10.425 10.425
16587 0 2 -2.000 75.060 10.425 8.340
16588 0 2 -2.000 72.975 12.510 8.340
16589 0 2 -2.000 70.890 8.340 10.425
16590 0 2 -2.000 72.975 10.425 14.595
16591 0 2 -2.000 75.060 10.425 12.510
16592 0 2 -2.000 72.975 12.510 12.510
16593 0 2 -2.000 70.890 8.340 14.595
16594 0 2 -2.000 72.975 10.425 18.765
16595 0 2 -2.000 75.060 10.425 16.680
16596 0 2 -2.000 72.975 12.510 16.680
16597 0 2 -2.000 70.890 8.340 18.765
16598 0 2 -2.000 72.975 10.425 22.935
16599 0 2 -2.000 75.060 10.425 20.850
16600 0 2 -2.000 72.975 12.510 20.850
16601 0 2 -2.000 70.890 8.340 22.935
16602 0 2 -2.000 72.975 10.425 27.105
16603 0 2 -2.000 75.060 10.425 25.020
16604 0 2 -2.000 72.975 12.510 25.020
16605 0 2 -2.000 70.890 8.340 27.105
16606 0 2 -2.000 72.975 10.425 31.275
16607 0 2 -2.000 75.060 10.425 29.190
16608 0 2 -2.000 72.975 12.510 29.190
16609 0 2 -2.000 70.890 8.340 31.275
16610 0 2 -2.000 72.975 10.425 35.445
16611 0 2 -2.000 75.060 10.425 33.360
16612 0 2 -2.000 72.975 12.510 33.360
16613 0 2 -2.000 70.890 8.340 35.445
16614 0 2 -2.000 72.975 14.595 2.085
16615 0 2 -2.000 75.060 14.595 0.000
16616 0 2 -2.000 72.975 16.680 0.000
16617 0 2 -2.000 70.890 12.510 2.085
16618 0 2 -2.000 72.975 14.595 6.255
16619 0 2 -2.000 75.060 14.595 4.170
16620 0 2 -2.000 72.975 16.680 4.170
16621 0 2 -2.000 70.890 12.510 6.255
16622 0 2 -2.000 72.975 14.595 10.425
16623 0 2 -2.000 75.060 14.595 8.340
16624 0 2 -2.000 72.975 16.680 8.340
16625 0 2 -2.000 70.890 12.510 10.425
16626 0 2 -2.000 72.975 14.595 14.595
16627 0 2 -2.000 75.060 14.595 12.510
16628 0 2 -2.000 72.975 16.680 12.510
16629 0 2 -2.000 70.890 12.510 14.595
16630 0 2 -2.000 72.975 14.595 18.765
16631 0 2 -2.000 75.060 14.595 16.680
16632 0 2 -2.000 72.975 16.680 16.680
16633 0 2 -2.000 70.890 12.510 18.765
16634 0 2 -2.000 72.975 14.595 22.935
16635 0 2 -2.000 75.060 14.595 20.850
16636 0 2 -2.000 72.975 16.680 20.850
16637 0 2 -2.000 70.890 12.510 22.935
16638 0 2 -2.000 72.975 14.595 27.105
16639 0 2 -2.000 75.060 14.595 25.020
16640 0 2 -2.000 72.975 16.680 25.020
16641 0 2 -2.000 70.890 12.510 27.105
16642 0 2 -2.000 72.975 14.595 31.275
16643 0 2 -2.000 75.060 14.595 29.190
16644 0 2 -2.000 72.975 16.680 29.190
16645 0 2 -2.000 70.890 12.510 31.275
16646 0 2 -2.000 72.975 18.765 2.085
16647 0 2 -2.000 75.060 18.765 0.000
16648 0 2 -2.000 72.975 20.850 0.000
16649 0 2 -2.000 70.890 16.680 2.085
16650 0 2 -2.000 72.975 18.765 6.255
16651 0 2 -2.000 75.060 18.765 4.170
16652 0 2 -2.000 72.975 20.850 4.170
16653 0 2 -2.000 70.890 16.680 6.255
16654 0 2 -2.000 72.975 18.765 10.425
16655 0 2 -2.000 75.060 18.765 8.340
16656 0 2 -2.000 72.975 20.850 8.340
16657 0 2 -2.000 70.890 16.680 10.425
16658 0 2 -2.000 72.975 18.765 14.595
16659 0 2 -2.000 75.060 18.765 12.510
16660 0 2 -2.000 72.975 20.850 12.510
16661 0 2 -2.000 70.890 16.680 14.595
16662 0 2 -2.000 72.975 18.765 18.765
16663 0 2 -2.000 75.060 18.765 16.680
16664 0 2 -2.000 72.975 20.850 16.680
16665 0 2 -2.000 70.890 16.680 18.765
16666 0 2 -2.000 72.975 18.765 22.935
16667 0 2 -2.000 75.060 18.765 20.850
16668 0 2 -2.000 72.975 20.850 20.850
16669 0 2 -2.000 70.890 16.680 22.935
16670 0 2 -2.000 72.975 18.765 27.105
16671 0 2 -2.000 75.060 18.765 25.020
16672 0 2 -2.000 72.975 20.850 25.020
16673 0 2 -2.000 70.890 16.680 27.105
16674 0 2 -2.000 72.975 22.935 2.085
16675 0 2 -2.000 75.060 22.935 0.000
16676 0 2 -2.000 72.975 25.020 0.000
16677 0 2 -2.000 70.890 20.850 2.085
16678 0 2 -2.000 72.975 22.935 6.255
16679 0 2 -2.000 75.060 22.935 4.170
16680 0 2 -2.000 72.975 25.020 4.170
16681 0 2 -2.000 70.890 20.850 6.255
16682 0 2 -2.000 72.975 22.935 10.425
16683 0 2 -2.000 75.060 22.935 8.340
16684 0 2 -2.000 72.975 25.020 8.340
16685 0 2 -2.000 70.890 20.850 10.425
16686 0 2 -2.000 72.975 22.935 14.595
16687 0 2 -2.000 75.060 22.935 12.510
16688 0 2 -2.000 72.975 25.020 12.510
16689 0 2 -2.000 70.890 20.850 14.595
16690 0 2 -2.000 72.975 22.935 18.765
16691 0 2 -2.000 75.060 22.935 16.680
16692 0 2 -2.000 72.975 25.020 16.680
16693 0 2 -2.000 70.890 20.850 18.765
16694 0 2 -2.000 72.975 22.935 22.935
16695 0 2 -2.000 75.060 22.935 20.850
16696 0 2 -2.000 72.975 25.020 20.850
16697 0 2 -2.000 70.890 20.850 22.935
16698 0 2 -2.000 72.975 22.935 27.105
16699 0 2 -2.000 75.060 22.935 25.020
16700 0 2 -2.000 72.975 25.020 25.020
16701 0 2 -2.000 72.975 25.020 29.190
16702 0 2 -2.000 72.975 27.105 2.085
16703 0 2 -2.000 75.060 27.105 0.000
16704 0 2 -2.000 72.975 29.190 0.000
16705 0 2 -2.000 70.890 25.020 2.085
16706 0 2 -2.000 72.975 27.105 6.255
16707 0 2 -2.000 75.060 27.105 4.170
16708 0 2 -2.000 72.975 29.190 4.170
16709 0 2 -2.000 70.890 25.020 6.255
16710 0 2 -2.000 72.975 27.105 10.425
16711 0 2 -2.000 75.060 27.105 8.340
16712 0 2 -2.000 72.975 29.190 8.340
16713 0 2 -2.000 70.890 25.020 10.425
16714 0 2 -2.000 72.975 27.105 14.595
16715 0 2 -2.000 75.060 27.105 12.510
16716 0 2 -2.000 72.975 29.190 12.510
16717 0 2 -2.000 70.890 25.020 14.595
16718 0 2 -2.000 72.975 27.105 18.765
16719 0 2 -2.000 75.060 27.105 16.680
16720 0 2 -2.000 72.975 29.190 16.680
16721 0 2 -2.000 70.890 25.020 18.765
16722 0 2 -2.000 72.975 27.105 22.935
16723 0 2 -2.000 75.060 27.105 20.850
16724 0 2 -2.000 72.975 29.190 20.850
16725 0 2 -2.000 70.890 25.020 22.935
16726 0 2 -2.000 72.975 27.105 27.105
16727 0 2 -2.000 75.060 27.105 25.020
16728 0 2 -2.000 72.975 29.190 25.020
16729 0 2 -2.000 70.890 25.020 27.105
16730 0 2 -2.000 72.975 27.105 31.275
16731 0 2 -2.000 75.060 27.105 29.190
16732 0 2 -2.000 72.975 29.190 29.190
16733 0 2 -2.000 72.975 29.190 33.360
16734 0 2 -2.000 72.975 31.275 2.085
16735 0 2 -2.000 75.060 31.275 0.000
16736 0 2 -2.000 72.975 33.360 0.000
16737 0 2 -2.000 70.890 29.190 2.085
16738 0 2 -2.000 72.975 31.275 6.255
16739 0 2 -2.000 75.060 31.275 4.170
16740 0 2 -2.000 72.975 33.360 4.170
16741 0 2 -2.000 70.890 29.190 6.255
16742 0 2 -2.000 72.975 31.275 10.425
16743 0 2 -2.000 75.060 31.275 8.340
16744 0 2 -2.000 72.975 33.360 8.340
16745 0 2 -2.000 70.890 29.190 10.425
16746 0 2 -2.000 72.975 31.275 14.595
16747 0 2 -2.000 75.060 31.275 12.510
16748 0 2 -2.000 72.975 33.360 12.510
16749 0 2 -2.000 70.890 29.190 14.595
16750 0 2 -2.000 72.975 31.275 18.765
16751 0 2 -2.000 75.060 31.275 16.680
16752 0 2 -2.000 72.975 33.360 16.680
16753 0 2 -2.000 70.890 29.190 18.765
16754 0 2 -2.000 72.975 31.275 22.935
16755 0 2 -2.000 75.060 31.275 20.850
16756 0 2 -2.000 72.975 33.360 20.850
16757 0 2 -2.000 70.890 29.190 22.935
16758 0 2 -2.000 72.975 31.275 27.105
16759 0 2 -2.000 75.060 31.275 25.020
16760 0 2 -2.000 72.975 33.360 25.020
16761 0 2 -2.000 70.890 29.190 27.105
16762 0 2 -2.000 72.975 31.275 31.275
16763 0 2 -2.000 75.060 31.275 29.190
16764 0 2 -2.000 72.975 33.360 29.190
16765 0 2 -2.000 70.890 29.190 31.275
16766 0 2 -2.000 72.975 31.275 35.445
16767 0 2 -2.000 75.060 31.275 33.360
16768 0 2 -2.000 72.975 33.360 33.360
16769 0 2 -2.000 72.975 33.360 37.530
16770 0 2 -2.000 72.975 35.445 2.085
16771 0 2 -2.000 75.060 35.445 0.000
16772 0 2 -2.000 72.975 37.530 0.000
16773 0 2 -2.000 70.890 33.360 2.085
16774 0 2 -2.000 72.975 35.445 6.255
16775 0 2 -2.000 75.060 35.445 4.170
16776 0 2 -2.000 72.975 37.530 4.170
16777 0 2 -2.000 70.890 33.360 6.255
16778 0 2 -2.000 72.975 35.445 10.425
16779 0 2 -2.000 75.060 35.445 8.340
16780 0 2 -2.000 72.975 37.530 8.340
16781 0 2 -2.000 70.890 33.360 10.425
16782 0 2 -2.000 72.975 35.445 14.595
16783 0 2 -2.000 75.060 35.445 12.510
16784 0 2 -2.000 72.975 37.530 12.510
16785 0 2 -2.000 70.890 33.360 14.595
16786 0 2 -2.000 72.975 35.445 18.765
16787 0 2 -2.000 75.060 35.445 16.680
16788 0 2 -2.000 72.975 37.530 16.680
16789 0 2 -2.000 70.890 33.360 18.765
16790 0 2 -2.000 72.975 35.445 22.935
16791 0 2 -2.000 75.060 35.445 20.850
16792 0 2 -2.000 72.975 37.530 20.850
16793 0 2 -2.000 70.890 33.360 22.935
16794 0 2 -2.000 72.975 35.445 27.105
16795 0 2 -2.000 75.060 35.445 25.020
16796 0 2 -2.000 72.975 37.530 25.020
16797 0 2 -2.000 70.890 33.360 27.105
16798 0 2 -2.000 72.975 35.445 31.275
16799 0 2 -2.000 75.060 35.445 29.190
16800 0 2 -2.000 72.975 37.530 29.190
16801 0 2 -2.000 70.890 33.360 31.275
16802 0 2 -2.000 72.975 35.445 35.445
16803 0 2 -2.000 75.060 35.445 33.360
16804 0 2 -2.000 72.975 37.530 33.360
16805 0 2 -2.000 70.890 33.360 35.445
16806 0 2 -2.000 72.975 35.445 39.615
16807 0 2 -2.000 75.060 35.445 37.530
16808 0 2 -2.000 72.975 37.530 37.530
16809 0 2 -2.000 72.975 39.615 2.085
16810 0 2 -2.000 75.060 39.615 0.000
16811 0 2 -2.000 72.975 0.000 0.000
16812 0 2 -2.000 70.890 37.530 2.085
16813 0 2 -2.000 72.975 39.615 6.255
16814 0 2 -2.000 75.060 39.615 4.170
16815 0 2 -2.000 72.975 0.000 4.170
16816 0 2 -2.000 70.890 37.530 6.255
16817 0 2 -2.000 72.975 39.615 10.425
16818 0 2 -2.000 75.060 39.615 8.340
16819 0 2 -2.000 72.975 0.000 8.340
16820 0 2 -2.000 70.890 37.530 10.425
16821 0 2 -2.000 72.975 39.615 14.595
16822 0 2 -2.000 75.060 39.615 12.510
16823 0 2 -2.000 72.975 0.000 12.510
16824 0 2 -2.000 70.890 37.530 14.595
16825 0 2 -2.000 72.975 39.615 18.765
16826 0 2 -2.000 75.060 39.615 16.680
16827 0 2 -2.000 72.975 0.000 16.680
16828 0 2 -2.000 70.890 37.530 18.765
16829 0 2 -2.000 72.975 39.615 22.935
16830 0 2 -2.000 75.060 39.615 20.850
16831 0 2 -2.000 72.975 0.000 20.850
16832 0 2 -2.000 70.890 37.530 22.935
16833 0 2 -2.000 72.975 39.615 27.105
16834 0 2 -2.000 75.060 39.615 25.020
16835 0 2 -2.000 72.975 0.000 25.020
16836 0 2 -2.000 70.890 37.530 27.105
16837 0 2 -2.000 72.975 39.615 31.275
16838 0 2 -2.000 75.060 39.615 29.190
16839 0 2 -2.000 72.975 0.000 29.190
16840 0 2 -2.000 70.890 37.530 31.275
16841 0 2 -2.000 72.975 39.615 35.445
16842 0 2 -2.000 75.060 39.615 33.360
16843 0 2 -2.000 72.975 0.000 33.360
16844 0 2 -2.000 70.890 37.530 35.445
16845 0 2 -2.000 72.975 39.615 39.615
16846 0 2 -2.000 75.060 39.615 37.530
16847 0 2 -2.000 72.975 0.000 37.530
16848 0 2 -2.000 70.890 37.530 39.615
16849 0 2 -2.000 77.145 2.085 2.085
16850 0 2 -2.000 79.230 2.085 0.000
16851 0 2 -2.000 77.145 4.170 0.000
16852 0 2 -2.000 75.060 0.000 2.085
16853 0 2 -2.000 77.145 2.085 6.255
16854 0 2 -2.000 79.230 2.085 4.170
16855 0 2 -2.000 77.145 4.170 4.170
16856 0 2 -2.000 75.060 0.000 6.255
16857 0 2 -2.000 77.145 2.085 10.425
16858 0 2 -2.000 79.230 2.085 8.340
16859 0 2 -2.000 77.145 4.170 8.340
16860 0 2 -2.000 75.060 0.000 10.425
16861 0 2 -2.000 77.145 2.085 14.595
16862 0 2 -2.000 79.230 2.085 12.510
16863 0 2 -2.000 77.145 4.170 12.510
16864 0 2 -2.000 75.060 0.000 14.595
16865 0 2 -2.000 77.145 2.085 18.765
16866 0 2 -2.000 79.230 2.085 16.680
16867 0 2 -2.000 77.145 4.170 16.680
16868 0 2 -2.000 75.060 0.000 18.765
16869 0 2 -2.000 77.145 2.085 22.935
16870 0 2 -2.000 79.230 2.085 20.850
16871 0 2 -2.000 77.145 4.170 20.850
16872 0 2 -2.000 75.060 0.000 22.935
16873 0 2 -2.000 77.145 2.085 27.105
16874 0 2 -2.000 79.230 2.085 25.020
16875 0 2 -2.000 77.145 4.170 25.020
16876 0 2 -2.000 75.060 0.000 27.105
16877 0 2 -2.000 77.145 2.085 31.275
16878 0 2 -2.000 79.230 2.085 29.190
16879 0 2 -2.000 77.145 4.170 29.190
16880 0 2 -2.000 75.060 0.000 31.275
16881 0 2 -2.000 77.145 2.085 35.445
16882 0 2 -2.000 79.230 2.085 33.360
16883 0 2 -2.000 77.145 4.170 33.360
16884 0 2 -2.000 75.060 0.000 35.445
16885 0 2 -2.000 77.145 2.085 39.615
16886 0 2 -2.000 79.230 2.085 37.530
16887 0 2 -2.000 77.145 4.170 37.530
16888 0 2 -2.000 75.060 0.000 39.615
16889 0 2 -2.000 77.145 6.255 2.085
16890 0 2 -2.000 79.230 6.255 0.000
16891 0 2 -2.000 77.145 8.340 0.000
16892 0 2 -2.000 75.060 4.170 2.085
16893 0 2 -2.000 77.145 6.255 6.255
16894 0 2 -2.000 79.230 6.255 4.170
16895 0 2 -2.000 77.145 8.340 4.170
16896 0 2 -2.000 75.060 4.170 6.255
16897 0 2 -2.000 77.145 6.255 10.425
16898 0 2 -2.000 79.230 6.255 8.340
16899 0 2 -2.000 77.145 8.340 8.340
16900 0 2 -2.000 75.060 4.170 10.425
16901 0 2 -2.000 77.145 6.255 14.595
16902 0 2 -2.000 79.230 6.255 12.510
16903 0 2 -2.000 77.145 8.340 12.510
16904 0 2 -2.000 75.060 4.170 14.595
16905 0 2 -2.000 77.145 6.255 18.765
16906 0 2 -2.000 79.230 6.255 16.680
16907 0 2 -2.000 77.145 8.340 16.680
16908 0 2 -2.000 75.060 4.170 18.765
16909 0 2 -2.000 77.145 6.255 22.935
16910 0 2 -2.000 79.230 6.255 20.850
16911 0 2 -2.000 77.145 8.340 20.850
16912 0 2 -2.000 75.060 4.170 22.935
16913 0 2 -2.000 77.145 6.255 27.105
16914 0 2 -2.000 79.230 6.255 25.020
16915 0 2 -2.000 77.145 8.340 25.020
16916 0 2 -2.000 75.060 4.170 27.105
16917 0 2 -2.000 77.145 6.255 31.275
16918 0 2 -2.000 79.230 6.255 29.190
16919 0 2 -2.000 77.145 8.340 29.190
16920 0 2 -2.000 75.060 4.170 31.275
16921 0 2 -2.000 77.145 6.255 35.445
16922 0 2 -2.000 79.230 6.255 33.360
16923 0 2 -2.000 77.145 8.340 33.360
16924 0 2 -2.000 75.060 4.170 35.445
16925 0 2 -2.000 77.145 6.255 39.615
16926 0 2 -2.000 79.230 6.255 37.530
16927 0 2 -2.000 77.145 8.340 37.530
16928 0 2 -2.000 75.060 4.170 39.615
16929 0 2 -2.000 77.145 10.425 2.085
16930 0 2 -2.000 79.230 10.425 0.000
16931 0 2 -2.000 77.145 12.510 0.000
16932 0 2 -2.000 75.060 8.340 2.085
16933 0 2 -2.000 77.145 10.425 6.255
16934 0 2 -2.000 79.230 10.425 4.170
16935 0 2 -2.000 77.145 12.510 4.170
16936 0 2 -2.000 75.060 8.340 6.255
16937 0 2 -2.000 77.145 10.425 10.425
16938 0 2 -2.000 79.230 10.425 8.340
16939 0 2 -2.000 77.145 12.510 8.340
16940 0 2 -2.000 75.060 8.340 10.425
16941 0 2 -2.000 77.145 10.425 14.595
16942 0 2 -2.000 79.230 10.425 12.510
16943 0 2 -2.000 77.145 12.510 12.510
16944 0 2 -2.000 75.060 8.340 14.595
16945 0 2 -2.000 77.145 10.425 18.765
16946 0 2 -2.000 79.230 10.425 16.680
16947 0 2 -2.000 77.145 12.510 16.680
16948 0 2 -2.000 75.060 8.340 18.765
16949 0 2 -2.000 77.145 10.425 22.935
16950 0 2 -2.000 79.230 10.425 20.850
16951 0 2 -2.000 77.145 12.510 20.850
16952 0 2 -2.000 75.060 8.340 22.935
16953 0 2 -2.000 77.145 10.425 27.105
16954 0 2 -2.000 79.230 10.425 25.020
16955 0 2 -2.000 77.145 12.510 25.020
16956 0 2 -2.000 75.060 8.340 27.105
16957 0 2 -2.000 77.145 10.425 31.275
16958 0 2 -2.000 79.230 10.425 29.190
16959 0 2 -2.000 77.145 12.510 29.190
16960 0 2 -2.000 75.060 8.340 31.275
16961 0 2 -2.000 77.145 10.425 35.445
16962 0 2 -2.000 79.230 10.425 33.360
16963 0 2 -2.000 77.145 12.510 33.360
16964 0 2 -2.000 75.060 8.340 35.445
16965 0 2 -2.000 77.145 14.595 2.085
16966 0 2 -2.000 79.230 14.595 0.000
16967 0 2 -2.000 77.145 16.680 0.000
16968 0 2 -2.000 75.060 12.510 2.085
16969 0 2 -2.000 77.145 14.595 6.255
16970 0 2 -2.000 79.230 14.595 4.170
16971 0 2 -2.000 77.145 16.680 4.170
16972 0 2 -2.000 75.060 12.510 6.255
16973 0 2 -2.000 77.145 14.595 10.425
16974 0 2 -2.000 79.230 14.595 8.340
16975 0 2 -2.000 77.145 16.680 8.340
16976 0 2 -2.000 75.060 12.510 10.425
16977 0 2 -2.000 77.145 14.595 14.595
16978 0 2 -2.000 79.230 14.595 12.510
16979 0 2 -2.000 77.145 16.680 12.510
16980 0 2 -2.000 75.060 12.510 14.595
16981 0 2 -2.000 77.145 14.595 18.765
16982 0 2 -2.000 79.230 14.595 16.680
16983 0 2 -2.000 77.145 16.680 16.680
16984 0 2 -2.000 75.060 12.510 18.765
16985 0 2 -2.000 77.145 14.595 22.935
16986 0 2 -2.000 79.230 14.595 20.850
16987 0 2 -2.000 77.145 16.680 20.850
16988 0 2 -2.000 75.060 12.510 22.935
16989 0 2 -2.000 77.145 14.595 27.105
16990 0 2 -2.000 79.230 14.595 25.020
16991 0 2 -2.000 77.145 16.680 25.020
16992 0 2 -2.000 75.060 12.510 27.105
16993 0 2 -2.000 77.145 14.595 31.275
16994 0 2 -2.000 79.230 14.595 29.190
16995 0 2 -2.000 77.145 16.680 29.190
16996 0 2 -2.000 75.060 12.510 31.275
16997 0 2 -2.000 77.145 18.765 2.085
16998 0 2 -2.000 79.230 18.765 0.000
16999 0 2 -2.000 77.145 20.850 0.000
17000 0 2 -2.000 75.060 16.680 2.085
17001 0 2 -2.000 77.145 18.765 6.255
17002 0 2 -2.000 79.230 18.765 4.170
17003 0 2 -2.000 77.145 20.850 4.170
17004 0 2 -2.000 75.060 16.680 6.255
17005 0 2 -2.000 77.145 18.765 10.425
17006 0 2 -2.000 79.230 18.765 8.340
17007 0 2 -2.000 77.145 20.850 8.340
17008 0 2 -2.000 75.060 16.680 10.425
17009 0 2 -2.000 77.145 18.765 14.595
17010 0 2 -2.000 79.230 18.765 12.510
17011 0 2 -2.000 77.145 20.850 12.510
17012 0 2 -2.000 75.060 16.680 14.595
17013 0 2 -2.000 77.145 18.765 18.765
17014 0 2 -2.000 79.230 18.765 16.680
17015 0 2 -2.000 77.145 20.850 16.680
17016 0 2 -2.000 75.060 16.680 18.765
17017 0 2 -2.000 77.145 18.765 22.935
17018 0 2 -2.000 79.230 18.765 20.850
17019 0 2 -2.000 77.145 20.850 20.850
17020 0 2 -2.000 75.060 16.680 22.935
17021 0 2 -2.000 77.145 18.765 27.105
17022 0 2 -2.000 79.230 18.765 25.020
17023 0 2 -2.000 77.145 20.850 25.020
17024 0 2 -2.000 75.060 16.680 27.105
17025 0 2 -2.000 77.145 22.935 2.085
17026 0 2 -2.000 79.230 22.935 0.000
17027 0 2 -2.000 77.145 25.020 0.000
17028 0 2 -2.000 75.060 20.850 2.085
17029 0 2 -2.000 77.145 22.935 6.255
17030 0 2 -2.000 79.230 22.935 4.170
17031 0 2 -2.000 77.145 25.020 4.170
17032 0 2 -2.000 75.060 20.850 6.255
17033 0 2 -2.000 77.145 22.935 10.425
17034 0 2 -2.000 79.230 22.935 8.340
17035 0 2 -2.000 77.145 25.020 8.340
17036 0 2 -2.000 75.060 20.850 10.425
17037 0 2 -2.000 77.145 22.935 14.595
17038 0 2 -2.000 79.230 22.935 12.510
17039 0 2 -2.000 77.145 25.020 12.510
17040 0 2 -2.000 75.060 20.850 14.595
17041 0 2 -2.000 77.145 22.935 18.765
17042 0 2 -2.000 79.230 22.935 16.680
17043 0 2 -2.000 77.145 25.020 16.680
17044 0 2 -2.000 75.060 20.850 18.765
17045 0 2 -2.000 77.145 22.935 22.935
17046 0 2 -2.000 79.230 22.935 20.850
17047 0 2 -2.000 77.145 25.020 20.850
17048 0 2 -2.000 75.060 20.850 22.935
17049 0 2 -2.000 77.145 22.935 27.105
17050 0 2 -2.000 79.230 22.935 25.020
17051 0 2 -2.000 77.145 25.020 25.020
17052 0 2 -2.000 77.145 25.020 29.190
17053 0 2 -2.000 77.145 27.105 2.085
17054 0 2 -2.000 79.230 27.105 0.000
17055 0 2 -2.000 77.145 29.190 0.000
17056 0 2 -2.000 75.060 25.020 2.085
17057 0 2 -2.000 77.145 27.105 6.255
17058 0 2 -2.000 79.230 27.105 4.170
17059 0 2 -2.000 77.145 29.190 4.170
17060 0 2 -2.000 75.060 25.020 6.255
17061 0 2 -2.000 77.145 27.105 10.425
17062 0 2 -2.000 79.230 27.105 8.340
17063 0 2 -2.000 77.145 29.190 8.340
17064 0 2 -2.000 75.060 25.020 10.425
17065 0 2 -2.000 77.145 27.105 14.595
17066 0 2 -2.000 79.230 27.105 12.510
17067 0 2 -2.000 77.145 29.190 12.510
17068 0 2 -2.000 75.060 25.020 14.595
17069 0 2 -2.000 77.145 27.105 18.765
17070 0 2 -2.000 79.230 27.105 16.680
17071 0 2 -2.000 77.145 29.190 16.680
17072 0 2 -2.000 75.060 25.020 18.765
17073 0 2 -2.000 77.145 27.105 22.935
17074 0 2 -2.000 79.230 27.105 20.850
17075 0 2 -2.000 77.145 29.190 20.850
17076 0 2 -2.000 75.060 25.020 22.935
17077 0 2 -2.000 77.145 27.105 27.105
17078 0 2 -2.000 79.230 27.105 25.020
17079 0 2 -2.000 77.145 29.190 25.020
17080 0 2 -2.000 75.060 25.020 27.105
17081 0 2 -2.000 77.145 27.105 31.275
17082 0 2 -2.000 79.230 27.105 29.190
17083 0 2 -2.000 77.145 29.190 29.190
17084 0 2 -2.000 77.145 29.190 33.360
17085 0 2 -2.000 77.145 31.275 2.085
17086 0 2 -2.000 79.230 31.275 0.000
17087 0 2 -2.000 77.145 33.360 0.000
17088 0 2 -2.000 75.060 29.190 2.085
17089 0 2 -2.000 77.145 31.275 6.255
17090 0 2 -2.000 79.230 31.275 4.170
17091 0 2 -2.000 77.145 33.360 4.170
17092 0 2 -2.000 75.060 29.190 6.255
17093 0 2 -2.000 77.145 31.275 10.425
17094 0 2 -2.000 79.230 31.275 8.340
17095 0 2 -2.000 77.145 33.360 8.340
17096 0 2 -2.000 75.060 29.190 10.425
17097 0 2 -2.000 77.145 31.275 14.595
17098 0 2 -2.000 79.230 31.275 12.510
17099 0 2 -2.000 77.145 33.360 12.510
17100 0 2 -2.000 75.060 29.190 14.595
17101 0 2 -2.000 77.145 31.275 18.765
17102 0 2 -2.000 79.230 31.275 16.680
17103 0 2 -2.000 77.145 33.360 16.680
17104 0 2 -2.000 75.060 29.190 18.765
17105 0 2 -2.000 77.145 31.275 22.935
17106 0 2 -2.000 79.230 31.275 20.850
17107 0 2 -2.000 77.145 33.360 20.850
17108 0 2 -2.000 75.060 29.190 22.935
17109 0 2 -2.000 77.145 31.275 27.105
17110 0 2 -2.000 79.230 31.275 25.020
17111 0 2 -2.000 77.145 33.360 25.020
17112 0 2 -2.000 75.060 29.190 27.105
17113 0 2 -2.000 77.145 31.275 31.275
17114 0 2 -2.000 79.230 31.275 29.190
17115 0 2 -2.000 77.145 33.360 29.190
17116 0 2 -2.000 75.060 29.190 31.275
17117 0 2 -2.000 77.145 31.275 35.445
17118 0 2 -2.000 79.230 31.275 33.360
17119 0 2 -2.000 77.145 33.360 33.360
17120 0 2 -2.000 77.145 33.360 37.530
17121 0 2 -2.000 77.145 35.445 2.085
17122 0 2 -2.000 79.230 35.445 0.000
17123 0 2 -2.000 77.145 37.530 0.000
17124 0 2 -2.000 75.060 33.360 2.085
17125 0 2 -2.000 77.145 35.445 6.255
17126 0 2 -2.000 79.230 35.445 4.170
17127 0 2 -2.000 77.145 37.530 4.170
17128 0 2 -2.000 75.060 33.360 6.255
17129 0 2 -2.000 77.145 35.445 10.425
17130 0 2 -2.000 79.230 35.445 8.340
17131 0 2 -2.000 77.145 37.530 8.340
17132 0 2 -2.000 75.060 33.360 10.425
17133 0 2 -2.000 77.145 35.445 14.595
17134 0 2 -2.000 79.230 35.445 12.510
17135 0 2 -2.000 77.145 37.530 12.510
17136 0 2 -2.000 75.060 33.360 14.595
17137 0 2 -2.000 77.145 35.445 18.765
17138 0 2 -2.000 79.230 35.445 16.680
17139 0 2 -2.000 77.145 37.530 16.680
17140 0 2 -2.000 75.060 33.360 18.765
17141 0 2 -2.000 77.145 35.445 22.935
17142 0 2 -2.000 79.230 35.445 20.850
17143 0 2 -2.000 77.145 37.530 20.850
17144 0 2 -2.000 75.060 33.360 22.935
17145 0 2 -2.000 77.145 35.445 27.105
17146 0 2 -2.000 79.230 35.445 25.020
17147 0 2 -2.000 77.145 37.530 25.020
17148 0 2 -2.000 75.060 33.360 27.105
17149 0 2 -2.000 77.145 35.445 31.275
17150 0 2 -2.000 79.230 35.445 29.190
17151 0 2 -2.000 77.145 37.530 29.190
17152 0 2 -2.000 75.060 33.360 31.275
17153 0 2 -2.000 77.145 35.445 35.445
17154 0 2 -2.000 79.230 35.445 33.360
17155 0 2 -2.000 77.145 37.530 33.360
17156 0 2 -2.000 75.060 33.360 35.445
17157 0 2 -2.000 77.145 35.445 39.615
17158 0 2 -2.000 79.230 35.445 37.530
17159 0 2 -2.000 77.145 37.530 37.530
17160 0 2 -2.000 77.145 39.615 2.085
17161 0 2 -2.000 79.230 39.615 0.000
17162 0 2 -2.000 77.145 0.000 0.000
17163 0 2 -2.000 75.060 37.530 2.085
17164 0 2 -2.000 77.145 39.615 6.255
17165 0 2 -2.000 79.230 39.615 4.170
17166 0 2 -2.000 77.145 0.000 4.170
17167 0 2 -2.000 75.060 37.530 6.255
17168 0 2 -2.000 77.145 39.615 10.425
17169 0 2 -2.000 79.230 39.615 8.340
17170 0 2 -2.000 77.145 0.000 8.340
17171 0 2 -2.000 75.060 37.530 10.425
17172 0 2 -2.000 77.145 39.615 14.595
17173 0 2 -2.000 79.230 39.615 12.510
17174 0 2 -2.000 77.145 0.000 12.510
17175 0 2 -2.000 75.060 37.530 14.595
17176 0 2 -2.000 77.145 39.615 18.765
17177 0 2 -2.000 79.230 39.615 16.680
17178 0 2 -2.000 77.145 0.000 16.680
17179 0 2 -2.000 75.060 37.530 18.765
17180 0 2 -2.000 77.145 39.615 22.935
17181 0 2 -2.000 79.230 39.615 20.850
17182 0 2 -2.000 77.145 0.000 20.850
17183 0 2 -2.000 75.060 37.530 22.935
17184 0 2 -2.000 77.145 39.615 27.105
17185 0 2 -2.000 79.230 39.615 25.020
17186 0 2 -2.000 77.145 0.000 25.020
17187 0 2 -2.000 75.060 37.530 27.105
17188 0 2 -2.000 77.145 39.615 31.275
17189 0 2 -2.000 79.230 39.615 29.190
17190 0 2 -2.000 77.145 0.000 29.190
17191 0 2 -2.000 75.060 37.530 31.275
17192 0 2 -2.000 77.145 39.615 35.445
17193 0 2 -2.000 79.230 39.615 33.360
17194 0 2 -2.000 77.145 0.000 33.360
17195 0 2 -2.000 75.060 37.530 35.445
17196 0 2 -2.000 77.145 39.615 39.615
17197 0 2 -2.000 79.230 39.615 37.530
17198 0 2 -2.000 77.145 0.000 37.530
17199 0 2 -2.000 75.060 37.530 39.615
17200 0 2 -2.000 81.315 2.085 2.085
17201 0 2 -2.000 83.400 2.085 0.000
17202 0 2 -2.000 81.315 4.170 0.000
17203 0 2 -2.000 79.230 0.000 2.085
17204 0 2 -2.000 81.315 2.085 6.255
17205 0 2 -2.000 83.400 2.085 4.170
17206 0 2 -2.000 81.315 4.170 4.170
17207 0 2 -2.000 79.230 0.000 6.255
17208 0 2 -2.000 81.315 2.085 10.425
17209 0 2 -2.000 83.400 2.085 8.340
17210 0 2 -2.000 81.315 4.170 8.340
17211 0 2 -2.000 79.230 0.000 10.425
17212 0 2 -2.000 81.315 2.085 14.595
17213 0 2 -2.000 83.400 2.085 12.510
17214 0 2 -2.000 81.315 4.170 12.510
17215 0 2 -2.000 79.230 0.000 14.595
17216 0 2 -2.000 81.315 2.085 18.765
17217 0 2 -2.000 83.400 2.085 16.680
17218 0 2 -2.000 81.315 4.170 16.680
17219 0 2 -2.000 79.230 0.000 18.765
17220 0 2 -2.000 81.315 2.085 22.935
17221 0 2 -2.000 83.400 2.085 20.850
17222 0 2 -2.000 81.315 4.170 20.850
17223 0 2 -2.000 79.230 0.000 22.935
17224 0 2 -2.000 81.315 2.085 27.105
17225 0 2 -2.000 83.400 2.085 25.020
17226 0 2 -2.000 81.315 4.170 25.020
17227 0 2 -2.000 79.230 0.000 27.105
17228 0 2 -2.000 81.315 2.085 31.275
17229 0 2 -2.000 83.400 2.085 29.190
17230 0 2 -2.000 81.315 4.170 29.190
17231 0 2 -2.000 79.230 0.000 31.275
17232 0 2 -2.000 81.315 2.085 35.445
17233 0 2 -2.000 83.400 2.085 33.360
17234 0 2 -2.000 81.315 4.170 33.360
17235 0 2 -2.000 79.230 0.000 35.445
17236 0 2 -2.000 81.315 2.085 39.615
17237 0 2 -2.000 83.400 2.085 37.530
17238 0 2 -2.000 81.315 4.170 37.530
17239 0 2 -2.000 79.230 0.000 39.615
17240 0 2 -2.000 81.315 6.255 2.085
17241 0 2 -2.000 83.400 6.255 0.000
17242 0 2 -2.000 81.315 8.340 0.000
17243 0 2 -2.000 79.230 4.170 2.085
17244 0 2 -2.000 81.315 6.255 6.255
17245 0 2 -2.000 83.400 6.255 4.170
17246 0 2 -2.000 81.315 8.340 4.170
17247 0 2 -2.000 79.230 4.170 6.255
17248 0 2 -2.000 81.315 6.255 10.425
17249 0 2 -2.000 83.400 6.255 8.340
17250 0 2 -2.000 81.315 8.340 8.340
17251 0 2 -2.000 79.230 4.170 10.425
17252 0 2 -2.000 81.315 6.255 14.595
17253 0 2 -2.000 83.400 6.255 12.510
17254 0 2 -2.000 81.315 8.340 12.510
17255 0 2 -2.000 79.230 4.170 14.595
17256 0 2 -2.000 81.315 6.255 18.765
17257 0 2 -2.000 83.400 6.255 16.680
17258 0 2 -2.000 81.315 8.340 16.680
17259 0 2 -2.000 79.230 4.170 18.765
17260 0 2 -2.000 81.315 6.255 22.935
17261 0 2 -2.000 83.400 6.255 20.850
17262 0 2 -2.000 81.315 8.340 20.850
17263 0 2 -2.000 79.230 4.170 22.935
17264 0 2 -2.000 81.315 6.255 27.105
17265 0 2 -2.000 83.400 6.255 25.020
17266 0 2 -2.000 81.315 8.340 25.020
17267 0 2 -2.000 79.230 4.170 27.105
17268 0 2 -2.000 81.315 6.255 31.275
17269 0 2 -2.000 83.400 6.255 29.190
17270 0 2 -2.000 81.315 8.340 29.190
17271 0 2 -2.000 79.230 4.170 31.275
17272 0 2 -2.000 81.315 6.255 35.445
17273 0 2 -2.000 83.400 6.255 33.360
17274 0 2 -2.000 81.315 8.340 33.360
17275 0 2 -2.000 79.230 4.170 35.445
17276 0 2 -2.000 81.315 6.255 39.615
17277 0 2 -2.000 83.400 6.255 37.530
17278 0 2 -2.000 81.315 8.340 37.530
17279 0 2 -2.000 79.230 4.170 39.615
17280 0 2 -2.000 81.315 10.425 2.085
17281 0 2 -2.000 83.400 10.425 0.000
17282 0 2 -2.000 81.315 12.510 0.000
17283 0 2 -2.000 79.230 8.340 2.085
17284 0 2 -2.000 81.315 10.425 6.255
17285 0 2 -2.000 83.400 10.425 4.170
17286 0 2 -2.000 81.315 12.510 4.170
17287 0 2 -2.000 79.230 8.340 6.255
17288 0 2 -2.000 81.315 10.425 10.425
17289 0 2 -2.000 83.400 10.425 8.340
17290 0 2 -2.000 81.315 12.510 8.340
17291 0 2 -2.000 79.230 8.340 10.425
17292 0 2 -2.000 81.315 10.425 14.595
17293 0 2 -2.000 83.400 10.425 12.510
17294 0 2 -2.000 81.315 12.510 12.510
17295 0 2 -2.000 79.230 8.340 14.595
17296 0 2 -2.000 81.315 10.425 18.765
17297 0 2 -2.000 83.400 10.425 16.680
17298 0 2 -2.000 81.315 12.510 16.680
17299 0 2 -2.000 79.230 8.340 18.765
17300 0 2 -2.000 81.315 10.425 22.935
17301 0 2 -2.000 83.400 10.425 20.850
17302 0 2 -2.000 81.315 12.510 20.850
17303 0 2 -2.000 79.230 8.340 22.935
17304 0 2 -2.000 81.315 10.425 27.105
17305 0 2 -2.000 83.400 10.425 25.020
17306 0 2 -2.000 81.315 12.510 25.020
17307 0 2 -2.000 79.230 8.340 27.105
17308 0 2 -2.000 81.315 10.425 31.275
17309 0 2 -2.000 83.400 10.425 29.190
17310 0 2 -2.000 81.315 12.510 29.190
17311 0 2 -2.000 79.230 8.340 31.275
17312 0 2 -2.000 81.315 10.425 35.445
17313 0 2 -2.000 83.400 10.425 33.360
17314 0 2 -2.000 81.315 12.510 33.360
17315 0 2 -2.000 79.230 8.340 35.445
17316 0 2 -2.000 81.315 14.595 2.085
17317 0 2 -2.000 83.400 14.595 0.000
17318 0 2 -2.000 81.315 16.680 0.000
17319 0 2 -2.000 79.230 12.510 2.085
17320 0 2 -2.000 81.315 14.595 6.255
17321 0 2 -2.000 83.400 14.595 4.170
17322 0 2 -2.000 81.315 16.680 4.170
17323 0 2 -2.000 79.230 12.510 6.255
17324 0 2 -2.000 81.315 14.595 10.425
17325 0 2 -2.000 83.400 14.595 8.340
17326 0 2 -2.000 81.315 16.680 8.340
17327 0 2 -2.000 79.230 12.510 10.425
17328 0 2 -2.000 81.315 14.595 14.595
17329 0 2 -2.000 83.400 14.595 12.510
17330 0 2 -2.000 81.315 16.680 12.510
17331 0 2 -2.000 79.230 12.510 14.595
17332 0 2 -2.000 81.315 14.595 18.765
17333 0 2 -2.000 83.400 14.595 16.680
17334 0 2 -2.000 81.315 16.680 16.680
17335 0 2 -2.000 79.230 12.510 18.765
17336 0 2 -2.000 81.315 14.595 22.935
17337 0 2 -2.000 83.400 14.595 20.850
17338 0 2 -2.000 81.315 16.680 20.850
17339 0 2 -2.000 79.230 12.510 22.935
17340 0 2 -2.000 81.315 14.595 27.105
17341 0 2 -2.000 83.400 14.595 25.020
17342 0 2 -2.000 81.315 16.680 25.020
17343 0 2 -2.000 79.230 12.510 27.105
17344 0 2 -2.000 81.315 14.595 31.275
17345 0 2 -2.000 83.400 14.595 29.190
17346 0 2 -2.000 81.315 16.680 29.190
17347 0 2 -2.000 79.230 12.510 31.275
17348 0 2 -2.000 81.315 18.765 2.085
17349 0 2 -2.000 83.400 18.765 0.000
17350 0 2 -2.000 81.315 20.850 0.000
17351 0 2 -2.000 79.230 16.680 2.085
17352 0 2 -2.000 81.315 18.765 6.255
17353 0 2 -2.000 83.400 18.765 4.170
17354 0 2 -2.000 81.315 20.850 4.170
17355 0 2 -2.000 79.230 16.680 6.255
17356 0 2 -2.000 81.315 18.765 10.425
17357 0 2 -2.000 83.400 18.765 8.340
17358 0 2 -2.000 81.315 20.850 8.340
17359 0 2 -2.000 79.230 16.680 10.425
17360 0 2 -2.000 81.315 18.765 14.595
17361 0 2 -2.000 83.400 18.765 12.510
17362 0 2 -2.000 81.315 20.850 12.510
17363 0 2 -2.000 79.230 16.680 14.595
17364 0 2 -2.000 81.315 18.765 18.765
17365 0 2 -2.000 83.400 18.765 16.680
17366 0 2 -2.000 81.315 20.850 16.680
17367 0 2 -2.000 79.230 16.680 18.765
17368 0 2 -2.000 81.315 18.765 22.935
17369 0 2 -2.000 83.400 18.765 20.850
17370 0 2 -2.000 81.315 20.850 20.850
17371 0 2 -2.000 79.230 16.680 22.935
17372 0 2 -2.000 81.315 18.765 27.105
17373 0 2 -2.000 83.400 18.765 25.020
17374 0 2 -2.000 81.315 20.850 25.020
17375 0 2 -2.000 79.230 16.680 27.105
17376 0 2 -2.000 81.315 22.935 2.085
17377 0 2 -2.000 83.400 22.935 0.000
17378 0 2 -2.000 81.315 25.020 0.000
17379 0 2 -2.000 79.230 20.850 2.085
17380 0 2 -2.000 81.315 22.935 6.255
17381 0 2 -2.000 83.400 22.935 4.170
17382 0 2 -2.000 81.315 25.020 4.170
17383 0 2 -2.000 79.230 20.850 6.255
17384 0 2 -2.000 81.315 22.935 10.425
17385 0 2 -2.000 83.400 22.935 8.340
17386 0 2 -2.000 81.315 25.020 8.340
17387 0 2 -2.000 79.230 20.850 10.425
17388 0 2 -2.000 81.315 22.935 14.595
17389 0 2 -2.000 83.400 22.935 12.510
17390 0 2 -2.000 81.315 25.020 12.510
17391 0 2 -2.000 79.230 20.850 14.595
17392 0 2 -2.000 81.315 22.935 18.765
17393 0 2 -2.000 83.400 22.935 16.680
17394 0 2 -2.000 81.315 25.020 16.680
17395 0 2 -2.000 79.230 20.850 18.765
17396 0 2 -2.000 81.315 22.935 22.935
17397 0 2 -2.000 83.400 22.935 20.850
17398 0 2 -2.000 81.315 25.020 20.850
17399 0 2 -2.000 79.230 20.850 22.935
17400 0 2 -2.000 81.315 22.935 27.105
17401 0 2 -2.000 83.400 22.935 25.020
17402 0 2 -2.000 81.315 25.020 25.020
17403 0 2 -2.000 81.315 25.020 29.190
17404 0 2 -2.000 81.315 27.105 2.085
17405 0 2 -2.000 83.400 27.105 0.000
17406 0 2 -2.000 81.315 29.190 0.000
17407 0 2 -2.000 79.230 25.020 2.085
17408 0 2 -2.000 81.315 27.105 6.255
17409 0 2 -2.000 83.400 27.105 4.170
17410 0 2 -2.000 81.315 29.190 4.170
17411 0 2 -2.000 79.230 25.020 6.255
17412 0 2 -2.000 81.315 27.105 10.425
17413 0 2 -2.000 83.400 27.105 8.340
17414 0 2 -2.000 81.315 29.190 8.340
17415 0 2 -2.000 79.230 25.020 10.425
17416 0 2 -2.000 81.315 27.105 14.595
17417 0 2 -2.000 83.400 27.105 12.510
17418 0 2 -2.000 81.315 29.190 12.510
17419 0 2 -2.000 79.230 25.020 14.595
17420 0 2 -2.000 81.315 27.105 18.765
17421 0 2 -2.000 83.400 27.105 16.680
17422 0 2 -2.000 81.315 29.190 16.680
17423 0 2 -2.000 79.230 25.020 18.765
17424 0 2 -2.000 81.315 27.105 22.935
17425 0 2 -2.000 83.400 27.105 20.850
17426 0 2 -2.000 81.315 29.190 20.850
17427 0 2 -2.000 79.230 25.020 22.935
17428 0 2 -2.000 81.315 27.105 27.105
17429 0 2 -2.000 83.400 27.105 25.020
17430 0 2 -2.000 81.315 29.190 25.020
17431 0 2 -2.000 79.230 25.020 27.105
17432 0 2 -2.000 81.315 27.105 31.275
17433 0 2 -2.000 83.400 27.105 29.190
17434 0 2 -2.000 81.315 29.190 29.190
17435 0 2 -2.000 81.315 29.190 33.360
17436 0 2 -2.000 81.315 31.275 2.085
17437 0 2 -2.000 83.400 31.275 0.000
17438 0 2 -2.000 81.315 33.360 0.000
17439 0 2 -2.000 79.230 29.190 2.085
17440 0 2 -2.000 81.315 31.275 6.255
17441 0 2 -2.000 83.400 31.275 4.170
17442 0 2 -2.000 81.315 33.360 4.170
17443 0 2 -2.000 79.230 29.190 6.255
17444 0 2 -2.000 81.315 31.275 10.425
17445 0 2 -2.000 83.400 31.275 8.340
17446 0 2 -2.000 81.315 33.360 8.340
17447 0 2 -2.000 79.230 29.190 10.425
17448 0 2 -2.000 81.315 31.275 14.595
17449 0 2 -2.000 83.400 31.275 12.510
17450 0 2 -2.000 81.315 33.360 12.510
17451 0 2 -2.000 79.230 29.190 14.595
17452 0 2 -2.000 81.315 31.275 18.765
17453 0 2 -2.000 83.400 31.275 16.680
17454 0 2 -2.000 81.315 33.360 16.680
17455 0 2 -2.000 79.230 29.190 18.765
17456 0 2 -2.000 81.315 31.275 22.935
17457 0 2 -2.000 83.400 31.275 20.850
17458 0 2 -2.000 81.315 33.360 20.850
17459 0 2 -2.000 79.230 29.190 22.935
17460 0 2 -2.000 81.315 31.275 27.105
17461 0 2 -2.000 83.400 31.275 25.020
17462 0 2 -2.000 81.315 33.360 25.020
17463 0 2 -2.000 79.230 29.190 27.105
17464 0 2 -2.000 81.315 31.275 31.275
17465 0 2 -2.000 83.400 31.275 29.190
17466 0 2 -2.000 81.315 33.360 29.190
17467 0 2 -2.000 79.230 29.190 31.275
17468 0 2 -2.000 81.315 31.275 35.445
17469 0 2 -2.000 83.400 31.275 33.360
17470 0 2 -2.000 81.315 33.360 33.360
17471 0 2 -2.000 81.315 33.360 37.530
17472 0 2 -2.000 81.315 35.445 2.085
17473 0 2 -2.000 83.400 35.445 0.000
17474 0 2 -2.000 81.315 37.530 0.000
17475 0 2 -2.000 79.230 33.360 2.085
17476 0 2 -2.000 81.315 35.445 6.255
17477 0 2 -2.000 83.400 35.445 4.170
17478 0 2 -2.000 81.315 37.530 4.170
17479 0 2 -2.000 79.230 33.360 6.255
17480 0 2 -2.000 81.315 35.445 10.425
17481 0 2 -2.000 83.400 35.445 8.340
17482 0 2 -2.000 81.315 37.530 8.340
17483 0 2 -2.000 79.230 33.360 10.425
17484 0 2 -2.000 81.315 35.445 14.595
17485 0 2 -2.000 83.400 35.445 12.510
17486 0 2 -2.000 81.315 37.530 12.510
17487 0 2 -2.000 79.230 33.360 14.595
17488 0 2 -2.000 81.315 35.445 18.765
17489 0 2 -2.000 83.400 35.445 16.680
17490 0 2 -2.000 81.315 37.530 16.680
17491 0 2 -2.000 79.230 33.360 18.765
17492 0 2 -2.000 81.315 35.445 22.935
17493 0 2 -2.000 83.400 35.445 20.850
17494 0 2 -2.000 81.315 37.530 20.850
17495 0 2 -2.000 79.230 33.360 22.935
17496 0 2 -2.000 81.315 35.445 27.105
17497 0 2 -2.000 83.400 35.445 25.020
17498 0 2 -2.000 81.315 37.530 25.020
17499 0 2 -2.000 79.230 33.360 27.105
17500 0 2 -2.000 81.315 35.445 31.275
17501 0 2 -2.000 83.400 35.445 29.190
17502 0 2 -2.000 81.315 37.530 29.190
17503 0 2 -2.000 79.230 33.360 31.275
17504 0 2 -2.000 81.315 35.445 35.445
17505 0 2 -2.000 83.400 35.445 33.360
17506 0 2 -2.000 81.315 37.530 33.360
17507 0 2 -2.000 79.230 33.360 35.445
17508 0 2 -2.000 81.315 35.445 39.615
17509 0 2 -2.000 83.400 35.445 37.530
17510 0 2 -2.000 81.315 37.530 37.530
17511 0 2 -2.000 81.315 39.615 2.085
17512 0 2 -2.000 83.400 39.615 0.000
17513 0 2 -2.000 81.315 0.000 0.000
17514 0 2 -2.000 79.230 37.530 2.085
17515 0 2 -2.000 81.315 39.615 6.255
17516 0 2 -2.000 83.400 39.615 4.170
17517 0 2 -2.000 81.315 0.000 4.170
17518 0 2 -2.000 79.230 37.530 6.255
17519 0 2 -2.000 81.315 39.615 10.425
17520 0 2 -2.000 83.400 39.615 8.340
17521 0 2 -2.000 81.315 0.000 8.340
17522 0 2 -2.000 79.230 37.530 10.425
17523 0 2 -2.000 81.315 39.615 14.595
17524 0 2 -2.000 83.400 39.615 12.510
17525 0 2 -2.000 81.315 0.000 12.510
17526 0 2 -2.000 79.230 37.530 14.595
17527 0 2 -2.000 81.315 39.615 18.765
17528 0 2 -2.000 83.400 39.615 16.680
17529 0 2 -2.000 81.315 0.000 16.680
17530 0 2 -2.000 79.230 37.530 18.765
17531 0 2 -2.000 81.315 39.615 22.935
17532 0 2 -2.000 83.400 39.615 20.850
17533 0 2 -2.000 81.315 0.000 20.850
17534 0 2 -2.000 79.230 37.530 22.935
17535 0 2 -2.000 81.315 39.615 27.105
17536 0 2 -2.000 83.400 39.615 25.020
17537 0 2 -2.000 81.315 0.000 25.020
17538 0 2 -2.000 79.230 37.530 27.105
17539 0 2 -2.000 81.315 39.615 31.275
17540 0 2 -2.000 83.400 39.615 29.190
17541 0 2 -2.000 81.315 0.000 29.190
17542 0 2 -2.000 79.230 37.530 31.275
17543 0 2 -2.000 81.315 39.615 35.445
17544 0 2 -2.000 83.400 39.615 33.360
17545 0 2 -2.000 81.315 0.000 33.360
17546 0 2 -2.000 79.230 37.530 35.445
17547 0 2 -2.000 81.315 39.615 39.615
17548 0 2 -2.000 83.400 39.615 37.530
17549 0 2 -2.000 81.315 0.000 37.530
17550 0 2 -2.000 79.230 37.530 39.615
17551 0 2 -2.000 85.485 2.085 2.085
17552 0 2 -2.000 87.570 2.085 0.000
17553 0 2 -2.000 85.485 4.170 0.000
17554 0 2 -2.000 83.400 0.000 2.085
17555 0 2 -2.000 85.485 2.085 6.255
17556 0 2 -2.000 87.570 2.085 4.170
17557 0 2 -2.000 85.485 4.170 4.170
17558 0 2 -2.000 83.400 0.000 6.255
17559 0 2 -2.000 85.485 2.085 10.425
17560 0 2 -2.000 87.570 2.085 8.340
17561 0 2 -2.000 85.485 4.170 8.340
17562 0 2 -2.000 83.400 0.000 10.425
17563 0 2 -2.000 85.485 2.085 14.595
17564 0 2 -2.000 87.570 2.085 12.510
17565 0 2 -2.000 85.485 4.170 12.510
17566 0 2 -2.000 83.400 0.000 14.595
17567 0 2 -2.000 85.485 2.085 18.765
17568 0 2 -2.000 87.570 2.085 16.680
17569 0 2 -2.000 85.485 4.170 16.680
17570 0 2 -2.000 83.400 0.000 18.765
17571 0 2 -2.000 85.485 2.085 22.935
17572 0 2 -2.000 87.570 2.085 20.850
17573 0 2 -2.000 85.485 4.170 20.850
17574 0 2 -2.000 83.400 0.000 22.935
17575 0 2 -2.000 85.485 2.085 27.105
17576 0 2 -2.000 87.570 2.085 25.020
17577 0 2 -2.000 85.485 4.170 25.020
17578 0 2 -2.000 83.400 0.000 27.105
17579 0 2 -2.000 85.485 2.085 31.275
17580 0 2 -2.000 87.570 2.085 29.190
17581 0 2 -2.000 85.485 4.170 29.190
17582 0 2 -2.000 83.400 0.000 31.275
17583 0 2 -2.000 85.485 2.085 35.445
17584 0 2 -2.000 87.570 2.085 33.360
17585 0 2 -2.000 85.485 4.170 33.360
17586 0 2 -2.000 83.400 0.000 35.445
17587 0 2 -2.000 85.485 2.085 39.615
17588 0 2 -2.000 87.570 2.085 37.530
17589 0 2 -2.000 85.485 4.170 37.530
17590 0 2 -2.000 83.400 0.000 39.615
17591 0 2 -2.000 85.485 6.255 2.085
17592 0 2 -2.000 87.570 6.255 0.000
17593 0 2 -2.000 85.485 8.340 0.000
17594 0 2 -2.000 83.400 4.170 2.085
17595 0 2 -2.000 85.485 6.255 6.255
17596 0 2 -2.000 87.570 6.255 4.170
17597 0 2 -2.000 85.485 8.340 4.170
17598 0 2 -2.000 83.400 4.170 6.255
17599 0 2 -2.000 85.485 6.255 10.425
17600 0 2 -2.000 87.570 6.255 8.340
17601 0 2 -2.000 85.485 8.340 8.340
17602 0 2 -2.000 83.400 4.170 10.425
17603 0 2 -2.000 85.485 6.255 14.595
17604 0 2 -2.000 87.570 6.255 12.510
17605 0 2 -2.000 85.485 8.340 12.510
17606 0 2 -2.000 83.400 4.170 14.595
17607 0 2 -2.000 85.485 6.255 18.765
17608 0 2 -2.000 87.570 6.255 16.680
17609 0 2 -2.000 85.485 8.340 16.680
17610 0 2 -2.000 83.400 4.170 18.765
17611 0 2 -2.000 85.485 6.255 22.935
17612 0 2 -2.000 87.570 6.255 20.850
17613 0 2 -2.000 85.485 8.340 20.850
17614 0 2 -2.000 83.400 4.170 22.935
17615 0 2 -2.000 85.485 6.255 27.105
17616 0 2 -2.000 87.570 6.255 25.020
17617 0 2 -2.000 85.485 8.340 25.020
17618 0 2 -2.000 83.400 4.170 27.105
17619 0 2 -2.000 85.485 6.255 31.275
17620 0 2 -2.000 87.570 6.255 29.190
17621 0 2 -2.000 85.485 8.340 29.190
17622 0 2 -2.000 83.400 4.170 31.275
17623 0 2 -2.000 85.485 6.255 35.445
17624 0 2 -2.000 87.570 6.255 33.360
17625 0 2 -2.000 85.485 8.340 33.360
17626 0 2 -2.000 83.400 4.170 35.445
17627 0 2 -2.000 85.485 6.255 39.615
17628 0 2 -2.000 87.570 6.255 37.530
17629 0 2 -2.000 85.485 8.340 37.530
17630 0 2 -2.000 83.400 4.170 39.615
17631 0 2 -2.000 85.485 10.425 2.085
17632 0 2 -2.000 87.570 10.425 0.000
17633 0 2 -2.000 85.485 12.510 0.000
17634 0 2 -2.000 83.400 8.340 2.085
17635 0 2 -2.000 85.485 10.425 6.255
17636 0 2 -2.000 87.570 10.425 4.170
17637 0 2 -2.000 85.485 12.510 4.170
17638 0 2 -2.000 83.400 8.340 6.255
17639 0 2 -2.000 85.485 10.425 10.425
17640 0 2 -2.000 87.570 10.425 8.340
17641 0 2 -2.000 85.485 12.510 8.340
17642 0 2 -2.000 83.400 8.340 10.425
17643 0 2 -2.000 85.485 10.425 14.595
17644 0 2 -2.000 87.570 10.425 12.510
17645 0 2 -2.000 85.485 12.510 12.510
17646 0 2 -2.000 83.400 8.340 14.595
17647 0 2 -2.000 85.485 10.425 18.765
17648 0 2 -2.000 87.570 10.425 16.680
17649 0 2 -2.000 85.485 12.510 16.680
17650 0 2 -2.000 83.400 8.340 18.765
17651 0 2 -2.000 85.485 10.425 22.935
17652 0 2 -2.000 87.570 10.425 20.850
17653 0 2 -2.000 85.485 12.510 20.850
17654 0 2 -2.000 83.400 8.340 22.935
17655 0 2 -2.000 85.485 10.425 27.105
17656 0 2 -2.000 87.570 10.425 25.020
17657 0 2 -2.000 85.485 12.510 25.020
17658 0 2 -2.000 83.400 8.340 27.105
17659 0 2 -2.000 85.485 10.425 31.275
17660 0 2 -2.000 87.570 10.425 29.190
17661 0 2 -2.000 85.485 12.510 29.190
17662 0 2 -2.000 83.400 8.340 31.275
17663 0 2 -2.000 85.485 10.425 35.445
17664 0 2 -2.000 87.570 10.425 33.360
17665 0 2 -2.000 85.485 12.510 33.360
17666 0 2 -2.000 83.400 8.340 35.445
17667 0 2 -2.000 85.485 14.595 2.085
17668 0 2 -2.000 87.570 14.595 0.000
17669 0 2 -2.000 85.485 16.680 0.000
17670 0 2 -2.000 83.400 12.510 2.085
17671 0 2 -2.000 85.485 14.595 6.255
17672 0 2 -2.000 87.570 14.595 4.170
17673 0 2 -2.000 85.485 16.680 4.170
17674 0 2 -2.000 83.400 12.510 6.255
17675 0 2 -2.000 85.485 14.595 10.425
17676 0 2 -2.000 87.570 14.595 8.340
17677 0 2 -2.000 85.485 16.680 8.340
17678 0 2 -2.000 83.400 12.510 10.425
17679 0 2 -2.000 85.485 14.595 14.595
17680 0 2 -2.000 87.570 14.595 12.510
17681 0 2 -2.000 85.485 16.680 12.510
17682 0 2 -2.000 83.400 12.510 14.595
17683 0 2 -2.000 85.485 14.595 18.765
17684 0 2 -2.000 87.570 14.595 16.680
17685 0 2 -2.000 85.485 16.680 16.680
17686 0 2 -2.000 83.400 12.510 18.765
17687 0 2 -2.000 85.485 14.595 22.935
17688 0 2 -2.000 87.570 14.595 20.850
17689 0 2 -2.000 85.485 16.680 20.850
17690 0 2 -2.000 83.400 12.510 22.935
17691 0 2 -2.000 85.485 14.595 27.105
17692 0 2 -2.000 87.570 14.595 25.020
17693 0 2 -2.000 85.485 16.680 25.020
17694 0 2 -2.000 83.400 12.510 27.105
17695 0 2 -2.000 85.485 14.595 31.275
17696 0 2 -2.000 87.570 14.595 29.190
17697 0 2 -2.000 85.485 16.680 29.190
17698 0 2 -2.000 83.400 12.510 31.275
17699 0 2 -2.000 85.485 18.765 2.085
17700 0 2 -2.000 87.570 18.765 0.000
17701 0 2 -2.000 85.485 20.850 0.000
17702 0 2 -2.000 83.400 16.680 2.085
17703 0 2 -2.000 85.485 18.765 6.255
17704 0 2 -2.000 87.570 18.765 4.170
17705 0 2 -2.000 85.485 20.850 4.170
17706 0 2 -2.000 83.400 16.680 6.255
17707 0 2 -2.000 85.485 18.765 10.425
17708 0 2 -2.000 87.570 18.765 8.340
17709 0 2 -2.000 85.485 20.850 8.340
17710 0 2 -2.000 83.400 16.680 10.425
17711 0 2 -2.000 85.485 18.765 14.595
17712 0 2 -2.000 87.570 18.765 12.510
17713 0 2 -2.000 85.485 20.850 12.510
17714 0 2 -2.000 83.400 16.680 14.595
17715 0 2 -2.000 85.485 18.765 18.765
17716 0 2 -2.000 87.570 18.765 16.680
17717 0 2 -2.000 85.485 20.850 16.680
17718 0 2 -2.000 83.400 16.680 18.765
17719 0 2 -2.000 85.485 18.765 22.935
17720 0 2 -2.000 87.570 18.765 20.850
17721 0 2 -2.000 85.485 20.850 20.850
17722 0 2 -2.000 83.400 16.680 22.935
17723 0 2 -2.000 85.485 18.765 27.105
17724 0 2 -2.000 87.570 18.765 25.020
17725 0 2 -2.000 85.485 20.850 25.020
17726 0 2 -2.000 83.400 16.680 27.105
17727 0 2 -2.000 85.485 22.935 2.085
17728 0 2 -2.000 87.570 22.935 0.000
17729 0 2 -2.000 85.485 25.020 0.000
17730 0 2 -2.000 83.400 20.850 2.085
17731 0 2 -2.000 85.485 22.935 6.255
17732 0 2 -2.000 87.570 22.935 4.170
17733 0 2 -2.000 85.485 25.020 4.170
17734 0 2 -2.000 83.400 20.850 6.255
17735 0 2 -2.000 85.485 22.935 10.425
17736 0 2 -2.000 87.570 22.935 8.340
17737 0 2 -2.000 85.485 25.020 8.340
17738 0 2 -2.000 83.400 20.850 10.425
17739 0 2 -2.000 85.485 22.935 14.595
17740 0 2 -2.000 87.570 22.935 12.510
17741 0 2 -2.000 85.485 25.020 12.510
17742 0 2 -2.000 83.400 20.850 14.595
17743 0 2 -2.000 85.485 22.935 18.765
17744 0 2 -2.000 87.570 22.935 16.680
17745 0 2 -2.000 85.485 25.020 16.680
17746 0 2 -2.000 83.400 20.850 18.765
17747 0 2 -2.000 85.485 22.935 22.935
17748 0 2 -2.000 87.570 22.935 20.850
17749 0 2 -2.000 85.485 25.020 20.850
17750 0 2 -2.000 83.400 20.850 22.935
17751 0 2 -2.000 85.485 22.935 27.105
17752 0 2 -2.000 87.570 22.935 25.020
17753 0 2 -2.000 85.485 25.020 25.020
17754 0 2 -2.000 85.485 25.020 29.190
17755 0 2 -2.000 85.485 27.105 2.085
17756 0 2 -2.000 87.570 27.105 0.000
17757 0 2 -2.000 85.485 29.190 0.000
17758 0 2 -2.000 83.400 25.020 2.085
17759 0 2 -2.000 85.485 27.105 6.255
17760 0 2 -2.000 87.570 27.105 4.170
17761 0 2 -2.000 85.485 29.190 4.170
17762 0 2 -2.000 83.400 25.020 6.255
17763 0 2 -2.000 85.485 27.105 10.425
17764 0 2 -2.000 87.570 27.105 8.340
17765 0 2 -2.000 85.485 29.190 8.340
17766 0 2 -2.000 83.400 25.020 10.425
17767 0 2 -2.000 85.485 27.105 14.595
17768 0 2 -2.000 87.570 27.105 12.510
17769 0 2 -2.000 85.485 29.190 12.510
17770 0 2 -2.000 83.400 25.020 14.595
17771 0 2 -2.000 85.485 27.105 18.765
17772 0 2 -2.000 87.570 27.105 16.680
17773 0 2 -2.000 85.485 29.190 16.680
17774 0 2 -2.000 83.400 25.020 18.765
17775 0 2 -2.000 85.485 27.105 22.935
17776 0 2 -2.000 87.570 27.105 20.850
17777 0 2 -2.000 85.485 29.190 20.850
17778 0 2 -2.000 83.400 25.020 22.935
17779 0 2 -2.000 85.485 27.105 27.105
17780 0 2 -2.000 87.570 27.105 25.020
17781 0 2 -2.000 85.485 29.190 25.020
17782 0 2 -2.000 83.400 25.020 27.105
17783 0 2 -2.000 85.485 27.105 31.275
17784 0 2 -2.000 87.570 27.105 29.190
17785 0 2 -2.000 85.485 29.190 29.190
17786 0 2 -2.000 85.485 29.190 33.360
17787 0 2 -2.000 85.485 31.275 2.085
17788 0 2 -2.000 87.570 31.275 0.000
17789 0 2 -2.000 85.485 33.360 0.000
17790 0 2 -2.000 83.400 29.190 2.085
17791 0 2 -2.000 85.485 31.275 6.255
17792 0 2 -2.000 87.570 31.275 4.170
17793 0 2 -2.000 85.485 33.360 4.170
17794 0 2 -2.000 83.400 29.190 6.255
17795 0 2 -2.000 85.485 31.275 10.425
17796 0 2 -2.000 87.570 31.275 8.340
17797 0 2 -2.000 85.485 33.360 8.340
17798 0 2 -2.000 83.400 29.190 10.425
17799 0 2 -2.000 85.485 31.275 14.595
17800 0 2 -2.000 87.570 31.275 12.510
17801 0 2 -2.000 85.485 33.360 12.510
17802 0 2 -2.000 83.400 29.190 14.595
17803 0 2 -2.000 85.485 31.275 18.765
17804 0 2 -2.000 87.570 31.275 16.680
17805 0 2 -2.000 85.485 33.360 16.680
17806 0 2 -2.000 83.400 29.190 18.765
17807 0 2 -2.000 85.485 31.275 22.935
17808 0 2 -2.000 87.570 31.275 20.850
17809 0 2 -2.000 85.485 33.360 20.850
17810 0 2 -2.000 83.400 29.190 22.935
17811 0 2 -2.000 85.485 31.275 27.105
17812 0 2 -2.000 87.570 31.275 25.020
17813 0 2 -2.000 85.485 33.360 25.020
17814 0 2 -2.000 83.400 29.190 27.105
17815 0 2 -2.000 85.485 31.275 31.275
17816 0 2 -2.000 87.570 31.275 29.190
17817 0 2 -2.000 85.485 33.360 29.190
17818 0 2 -2.000 83.400 29.190 31.275
17819 0 2 -2.000 85.485 31.275 35.445
17820 0 2 -2.000 87.570 31.275 33.360
17821 0 2 -2.000 85.485 33.360 33.360
17822 0 2 -2.000 85.485 33.360 37.530
17823 0 2 -2.000 85.485 35.445 2.085
17824 0 2 -2.000 87.570 35.445 0.000
17825 0 2 -2.000 85.485 37.530 0.000
17826 0 2 -2.000 83.400 33.360 2.085
17827 0 2 -2.000 85.485 35.445 6.255
17828 0 2 -2.000 87.570 35.445 4.170
17829 0 2 -2.000 85.485 37.530 4.170
17830 0 2 -2.000 83.400 33.360 6.255
17831 0 2 -2.000 85.485 35.445 10.425
17832 0 2 -2.000 87.570 35.445 8.340
17833 0 2 -2.000 85.485 37.530 8.340
17834 0 2 -2.000 83.400 33.360 10.425
17835 0 2 -2.000 85.485 35.445 14.595
17836 0 2 -2.000 87.570 35.445 12.510
17837 0 2 -2.000 85.485 37.530 12.510
17838 0 2 -2.000 83.400 33.360 14.595
17839 0 2 -2.000 85.485 35.445 18.765
17840 0 2 -2.000 87.570 35.445 16.680
17841 0 2 -2.000 85.485 37.530 16.680
17842 0 2 -2.000 83.400 33.360 18.765
17843 0 2 -2.000 85.485 35.445 22.935
17844 0 2 -2.000 87.570 35.445 20.850
17845 0 2 -2.000 85.485 37.530 20.850
17846 0 2 -2.000 83.400 33.360 22.935
17847 0 2 -2.000 85.485 35.445 27.105
17848 0 2 -2.000 87.570 35.445 25.020
17849 0 2 -2.000 85.485 37.530 25.020
17850 0 2 -2.000 83.400 33.360 27.105
17851 0 2 -2.000 85.485 35.445 31.275
17852 0 2 -2.000 87.570 35.445 29.190
17853 0 2 -2.000 85.485 37.530 29.190
17854 0 2 -2.000 83.400 33.360 31.275
17855 0 2 -2.000 85.485 35.445 35.445
17856 0 2 -2.000 87.570 35.445 33.360
17857 0 2 -2.000 85.485 37.530 33.360
17858 0 2 -2.000 83.400 33.360 35.445
17859 0 2 -2.000 85.485 35.445 39.615
17860 0 2 -2.000 87.570 35.445 37.530
17861 0 2 -2.000 85.485 37.530 37.530
17862 0 2 -2.000 85.485 39.615 2.085
17863 0 2 -2.000 87.570 39.615 0.000
17864 0 2 -2.000 85.485 0.000 0.000
17865 0 2 -2.000 83.400 37.530 2.085
17866 0 2 -2.000 85.485 39.615 6.255
17867 0 2 -2.000 87.570 39.615 4.170
17868 0 2 -2.000 85.485 0.000 4.170
17869 0 2 -2.000 83.400 37.530 6.255
17870 0 2 -2.000 85.485 39.615 10.425
17871 0 2 -2.000 87.570 39.615 8.340
17872 0 2 -2.000 85.485 0.000 8.340
17873 0 2 -2.000 83.400 37.530 10.425
17874 0 2 -2.000 85.485 39.615 14.595
17875 0 2 -2.000 87.570 39.615 12.510
17876 0 2 -2.000 85.485 0.000 12.510
17877 0 2 -2.000 83.400 37.530 14.595
17878 0 2 -2.000 85.485 39.615 18.765
17879 0 2 -2.000 87.570 39.615 16.680
17880 0 2 -2.000 85.485 0.000 16.680
17881 0 2 -2.000 83.400 37.530 18.765
17882 0 2 -2.000 85.485 39.615 22.935
17883 0 2 -2.000 87.570 39.615 20.850
17884 0 2 -2.000 85.485 0.000 20.850
17885 0 2 -2.000 83.400 37.530 22.935
17886 0 2 -2.000 85.485 39.615 27.105
17887 0 2 -2.000 87.570 39.615 25.020
17888 0 2 -2.000 85.485 0.000 25.020
17889 0 2 -2.000 83.400 37.530 27.105
17890 0 2 -2.000 85.485 39.615 31.275
17891 0 2 -2.000 87.570 39.615 29.190
17892 0 2 -2.000 85.485 0.000 29.190
17893 0 2 -2.000 83.400 37.530 31.275
17894 0 2 -2.000 85.485 39.615 35.445
17895 0 2 -2.000 87.570 39.615 33.360
17896 0 2 -2.000 85.485 0.000 33.360
17897 0 2 -2.000 83.400 37.530 35.445
17898 0 2 -2.000 85.485 39.615 39.615
17899 0 2 -2.000 87.570 39.615 37.530
17900 0 2 -2.000 85.485 0.000 37.530
17901 0 2 -2.000 83.400 37.530 39.615
17902 0 2 -2.000 89.655 2.085 2.085
17903 0 2 -2.000 91.740 2.085 0.000
17904 0 2 -2.000 89.655 4.170 0.000
17905 0 2 -2.000 87.570 0.000 2.085
17906 0 2 -2.000 89.655 2.085 6.255
17907 0 2 -2.000 91.740 2.085 4.170
17908 0 2 -2.000 89.655 4.170 4.170
17909 0 2 -2.000 87.570 0.000 6.255
17910 0 2 -2.000 89.655 2.085 10.425
17911 0 2 -2.000 91.740 2.085 8.340
17912 0 2 -2.000 89.655 4.170 8.340
17913 0 2 -2.000 87.570 0.000 10.425
17914 0 2 -2.000 89.655 2.085 14.595
17915 0 2 -2.000 91.740 2.085 12.510
17916 0 2 -2.000 89.655 4.170 12.510
17917 0 2 -2.000 87.570 0.000 14.595
17918 0 2 -2.000 89.655 2.085 18.765
17919 0 2 -2.000 91.740 2.085 16.680
17920 0 2 -2.000 89.655 4.170 16.680
17921 0 2 -2.000 87.570 0.000 18.765
17922 0 2 -2.000 89.655 2.085 22.935
17923 0 2 -2.000 91.740 2.085 20.850
17924 0 2 -2.000 89.655 4.170 20.850
17925 0 2 -2.000 87.570 0.000 22.935
17926 0 2 -2.000 89.655 2.085 27.105
17927 0 2 -2.000 91.740 2.085 25.020
17928 0 2 -2.000 89.655 4.170 25.020
17929 0 2 -2.000 87.570 0.000 27.105
17930 0 2 -2.000 89.655 2.085 31.275
17931 0 2 -2.000 91.740 2.085 29.190
17932 0 2 -2.000 89.655 4.170 29.190
17933 0 2 -2.000 87.570 0.000 31.275
17934 0 2 -2.000 89.655 2.085 35.445
17935 0 2 -2.000 91.740 2.085 33.360
17936 0 2 -2.000 89.655 4.170 33.360
17937 0 2 -2.000 87.570 0.000 35.445
17938 0 2 -2.000 89.655 2.085 39.615
17939 0 2 -2.000 91.740 2.085 37.530
17940 0 2 -2.000 89.655 4.170 37.530
17941 0 2 -2.000 87.570 0.000 39.615
17942 0 2 -2.000 89.655 6.255 2.085
17943 0 2 -2.000 91.740 6.255 0.000
17944 0 2 -2.000 89.655 8.340 0.000
17945 0 2 -2.000 87.570 4.170 2.085
17946 0 2 -2.000 89.655 6.255 6.255
17947 0 2 -2.000 91.740 6.255 4.170
17948 0 2 -2.000 89.655 8.340 4.170
17949 0 2 -2.000 87.570 4.170 6.255
17950 0 2 -2.000 89.655 6.255 10.425
17951 0 2 -2.000 91.740 6.255 8.340
17952 0 2 -2.000 89.655 8.340 8.340
17953 0 2 -2.000 87.570 4.170 10.425
17954 0 2 -2.000 89.655 6.255 14.595
17955 0 2 -2.000 91.740 6.255 12.510
17956 0 2 -2.000 89.655 8.340 12.510
17957 0 2 -2.000 87.570 4.170 14.595
17958 0 2 -2.000 89.655 6.255 18.765
17959 0 2 -2.000 91.740 6.255 16.680
17960 0 2 -2.000 89.655 8.340 16.680
17961 0 2 -2.000 87.570 4.170 18.765
17962 0 2 -2.000 89.655 6.255 22.935
17963 0 2 -2.000 91.740 6.255 20.850
17964 0 2 -2.000 89.655 8.340 20.850
17965 0 2 -2.000 87.570 4.170 22.935
17966 0 2 -2.000 89.655 6.255 27.105
17967 0 2 -2.000 91.740 6.255 25.020
17968 0 2 -2.000 89.655 8.340 25.020
17969 0 2 -2.000 87.570 4.170 27.105
17970 0 2 -2.000 89.655 6.255 31.275
17971 0 2 -2.000 91.740 6.255 29.190
17972 0 2 -2.000 89.655 8.340 29.190
17973 0 2 -2.000 87.570 4.170 31.275
17974 0 2 -2.000 89.655 6.255 35.445
17975 0 2 -2.000 91.740 6.255 33.360
17976 0 2 -2.000 89.655 8.340 33.360
17977 0 2 -2.000 87.570 4.170 35.445
17978 0 2 -2.000 89.655 6.255 39.615
17979 0 2 -2.000 91.740 6.255 37.530
17980 0 2 -2.000 89.655 8.340 37.530
17981 0 2 -2.000 87.570 4.170 39.615
17982 0 2 -2.000 89.655 10.425 2.085
17983 0 2 -2.000 91.740 10.425 0.000
17984 0 2 -2.000 89.655 12.510 0.000
17985 0 2 -2.000 87.570 8.340 2.085
17986 0 2 -2.000 89.655 10.425 6.255
17987 0 2 -2.000 91.740 10.425 4.170
17988 0 2 -2.000 89.655 12.510 4.170
17989 0 2 -2.000 87.570 8.340 6.255
17990 0 2 -2.000 89.655 10.425 10.425
17991 0 2 -2.000 91.740 10.425 8.340
17992 0 2 -2.000 89.655 12.510 8.340
17993 0 2 -2.000 87.570 8.340 10.425
17994 0 2 -2.000 89.655 10.425 14.595
17995 0 2 -2.000 91.740 10.425 12.510
17996 0 2 -2.000 89.655 12.510 12.510
17997 0 2 -2.000 87.570 8.340 14.595
17998 0 2 -2.000 89.655 10.425 18.765
17999 0 2 -2.000 91.740 10.425 16.680
18000 0 2 -2.000 89.655 12.510 16.680
18001 0 2 -2.000 87.570 8.340 18.765
18002 0 2 -2.000 89.655 10.425 22.935
18003 0 2 -2.000 91.740 10.425 20.850
18004 0 2 -2.000 89.655 12.510 20.850
18005 0 2 -2.000 87.570 8.340 22.935
18006 0 2 -2.000 89.655 10.425 27.105
18007 0 2 -2.000 91.740 10.425 25.020
18008 0 2 -2.000 89.655 12.510 25.020
18009 0 2 -2.000 87.570 8.340 27.105
18010 0 2 -2.000 89.655 10.425 31.275
18011 0 2 -2.000 91.740 10.425 29.190
18012 0 2 -2.000 89.655 12.510 29.190
18013 0 2 -2.000 87.570 8.340 31.275
18014 0 2 -2.000 89.655 10.425 35.445
18015 0 2 -2.000 91.740 10.425 33.360
18016 0 2 -2.000 89.655 12.510 33.360
18017 0 2 -2.000 87.570 8.340 35.445
18018 0 2 -2.000 89.655 14.595 2.085
18019 0 2 -2.000 91.740 14.595 0.000
18020 0 2 -2.000 89.655 16.680 0.000
18021 0 2 -2.000 87.570 12.510 2.085
18022 0 2 -2.000 89.655 14.595 6.255
18023 0 2 -2.000 91.740 14.595 4.170
18024 0 2 -2.000 89.655 16.680 4.170
18025 0 2 -2.000 87.570 12.510 6.255
18026 0 2 -2.000 89.655 14.595 10.425
18027 0 2 -2.000 91.740 14.595 8.340
18028 0 2 -2.000 89.655 16.680 8.340
18029 0 2 -2.000 87.570 12.510 10.425
18030 0 2 -2.000 89.655 14.595 14.595
18031 0 2 -2.000 91.740 14.595 12.510
18032 0 2 -2.000 89.655 16.680 12.510
18033 0 2 -2.000 87.570 12.510 14.595
18034 0 2 -2.000 89.655 14.595 18.765
18035 0 2 -2.000 91.740 14.595 16.680
18036 0 2 -2.000 89.655 16.680 16.680
18037 0 2 -2.000 87.570 12.510 18.765
18038 0 2 -2.000 89.655 14.595 22.935
18039 0 2 -2.000 91.740 14.595 20.850
18040 0 2 -2.000 89.655 16.680 20.850
18041 0 2 -2.000 87.570 12.510 22.935
18042 0 2 -2.000 89.655 14.595 27.105
18043 0 2 -2.000 91.740 14.595 25.020
18044 0 2 -2.000 89.655 16.680 25.020
18045 0 2 -2.000 87.570 12.510 27.105
18046 0 2 -2.000 89.655 14.595 31.275
18047 0 2 -2.000 91.740 14.595 29.190
18048 0 2 -2.000 89.655 16.680 29.190
18049 0 2 -2.000 87.570 12.510 31.275
18050 0 2 -2.000 89.655 18.765 2.085
18051 0 2 -2.000 91.740 18.765 0.000
18052 0 2 -2.000 89.655 20.850 0.000
18053 0 2 -2.000 87.570 16.680 2.085
18054 0 2 -2.000 89.655 18.765 6.255
18055 0 2 -2.000 91.740 18.765 4.170
18056 0 2 -2.000 89.655 20.850 4.170
18057 0 2 -2.000 87.570 16.680 6.255
18058 0 2 -2.000 89.655 18.765 10.425
18059 0 2 -2.000 91.740 18.765 8.340
18060 0 2 -2.000 89.655 20.850 8.340
18061 0 2 -2.000 87.570 16.680 10.425
18062 0 2 -2.000 89.655 18.765 14.595
18063 0 2 -2.000 91.740 18.765 12.510
18064 0 2 -2.000 89.655 20.850 12.510
18065 0 2 -2.000 87.570 16.680 14.595
18066 0 2 -2.000 89.655 18.765 18.765
18067 0 2 -2.000 91.740 18.765 16.680
18068 0 2 -2.000 89.655 20.850 16.680
18069 0 2 -2.000 87.570 16.680 18.765
18070 0 2 -2.000 89.655 18.765 22.935
18071 0 2 -2.000 91.740 18.765 20.850
18072 0 2 -2.000 89.655 20.850 20.850
18073 0 2 -2.000 87.570 16.680 22.935
18074 0 2 -2.000 89.655 18.765 27.105
18075 0 2 -2.000 91.740 18.765 25.020
18076 0 2 -2.000 89.655 20.850 25.020
18077 0 2 -2.000 87.570 16.680 27.105
18078 0 2 -2.000 89.655 22.935 2.085
18079 0 2 -2.000 91.740 22.935 0.000
18080 0 2 -2.000 89.655 25.020 0.000
18081 0 2 -2.000 87.570 20.850 2.085
18082 0 2 -2.000 89.655 22.935 6.255
18083 0 2 -2.000 91.740 22.935 4.170
18084 0 2 -2.000 89.655 25.020 4.170
18085 0 2 -2.000 87.570 20.850 6.255
18086 0 2 -2.000 89.655 22.935 10.425
18087 0 2 -2.000 91.740 22.935 8.340
18088 0 2 -2.000 89.655 25.020 8.340
18089 0 2 -2.000 87.570 20.850 10.425
18090 0 2 -2.000 89.655 22.935 14.595
18091 0 2 -2.000 91.740 22.935 12.510
18092 0 2 -2.000 89.655 25.020 12.510
18093 0 2 -2.000 87.570 20.850 14.595
18094 0 2 -2.000 89.655 22.935 18.765
18095 0 2 -2.000 91.740 22.935 16.680
18096 0 2 -2.000 89.655 25.020 16.680
18097 0 2 -2.000 87.570 20.850 18.765
18098 0 2 -2.000 89.655 22.935 22.935
18099 0 2 -2.000 91.740 22.935 20.850
18100 0 2 -2.000 89.655 25.020 20.850
18101 0 2 -2.000 87.570 20.850 22.935
18102 0 2 -2.000 89.655 22.935 27.105
18103 0 2 -2.000 91.740 22.935 25.020
18104 0 2 -2.000 89.655 25.020 25.020
18105 0 2 -2.000 89.655 25.020 29.190
18106 0 2 -2.000 89.655 27.105 2.085
18107 0 2 -2.000 91.740 27.105 0.000
18108 0 2 -2.000 89.655 29.190 0.000
18109 0 2 -2.000 87.570 25.020 2.085
18110 0 2 -2.000 89.655 27.105 6.255
18111 0 2 -2.000 91.740 27.105 4.170
18112 0 2 -2.000 89.655 29.190 4.170
18113 0 2 -2.000 87.570 25.020 6.255
18114 0 2 -2.000 89.655 27.105 10.425
18115 0 2 -2.000 91.740 27.105 8.340
18116 0 2 -2.000 89.655 29.190 8.340
18117 0 2 -2.000 87.570 25.020 10.425
18118 0 2 -2.000 89.655 27.105 14.595
18119 0 2 -2.000 91.740 27.105 12.510
18120 0 2 -2.000 89.655 29.190 12.510
18121 0 2 -2.000 87.570 25.020 14.595
18122 0 2 -2.000 89.655 27.105 18.765
18123 0 2 -2.000 91.740 27.105 16.680
18124 0 2 -2.000 89.655 29.190 16.680
18125 0 2 -2.000 87.570 25.020 18.765
18126 0 2 -2.000 89.655 27.105 22.935
18127 0 2 -2.000 91.740 27.105 20.850
18128 0 2 -2.000 89.655 29.190 20.850
18129 0 2 -2.000 87.570 25.020 22.935
18130 0 2 -2.000 89.655 27.105 27.105
18131 0 2 -2.000 91.740 27.105 25.020
18132 0 2 -2.000 89.655 29.190 25.020
18133 0 2 -2.000 87.570 25.020 27.105
18134 0 2 -2.000 89.655 27.105 31.275
18135 0 2 -2.000 91.740 27.105 29.190
18136 0 2 -2.000 89.655 29.190 29.190
18137 0 2 -2.000 89.655 29.190 33.360
18138 0 2 -2.000 89.655 31.275 2.085
18139 0 2 -2.000 91.740 31.275 0.000
18140 0 2 -2.000 89.655 33.360 0.000
18141 0 2 -2.000 87.570 29.190 2.085
18142 0 2 -2.000 89.655 31.275 6.255
18143 0 2 -2.000 91.740 31.275 4.170
18144 0 2 -2.000 89.655 33.360 4.170
18145 0 2 -2.000 87.570 29.190 6.255
18146 0 2 -2.000 89.655 31.275 10.425
18147 0 2 -2.000 91.740 31.275 8.340
18148 0 2 -2.000 89.655 33.360 8.340
18149 0 2 -2.000 87.570 29.190 10.425
18150 0 2 -2.000 89.655 31.275 14.595
18151 0 2 -2.000 91.740 31.275 12.510
18152 0 2 -2.000 89.655 33.360 12.510
18153 0 2 -2.000 87.570 29.190 14.595
18154 0 2 -2.000 89.655 31.275 18.765
18155 0 2 -2.000 91.740 31.275 16.680
18156 0 2 -2.000 89.655 33.360 16.680
18157 0 2 -2.000 87.570 29.190 18.765
18158 0 2 -2.000 89.655 31.275 22.935
18159 0 2 -2.000 91.740 31.275 20.850
18160 0 2 -2.000 89.655 33.360 20.850
18161 0 2 -2.000 87.570 29.190 22.935
18162 0 2 -2.000 89.655 31.275 27.105
18163 0 2 -2.000 91.740 31.275 25.020
18164 0 2 -2.000 89.655 33.360 25.020
18165 0 2 -2.000 87.570 29.190 27.105
18166 0 2 -2.000 89.655 31.275 31.275
18167 0 2 -2.000 91.740 31.275 29.190
18168 0 2 -2.000 89.655 33.360 29.190
18169 0 2 -2.000 87.570 29.190 31.275
18170 0 2 -2.000 89.655 31.275 35.445
18171 0 2 -2.000 91.740 31.275 33.360
18172 0 2 -2.000 89.655 33.360 33.360
18173 0 2 -2.000 89.655 33.360 37.530
18174 0 2 -2.000 89.655 35.445 2.085
18175 0 2 -2.000 91.740 35.445 0.000
18176 0 2 -2.000 89.655 37.530 0.000
18177 0 2 -2.000 87.570 33.360 2.085
18178 0 2 -2.000 89.655 35.445 6.255
18179 0 2 -2.000 91.740 35.445 4.170
18180 0 2 -2.000 89.655 37.530 4.170
18181 0 2 -2.000 87.570 33.360 6.255
18182 0 2 -2.000 89.655 35.445 10.425
18183 0 2 -2.000 91.740 35.445 8.340
18184 0 2 -2.000 89.655 37.530 8.340
18185 0 2 -2.000 87.570 33.360 10.425
18186 0 2 -2.000 89.655 35.445 14.595
18187 0 2 -2.000 91.740 35.445 12.510
18188 0 2 -2.000 89.655 37.530 12.510
18189 0 2 -2.000 87.570 33.360 14.595
18190 0 2 -2.000 89.655 35.445 18.765
18191 0 2 -2.000 91.740 35.445 16.680
18192 0 2 -2.000 89.655 37.530 16.680
18193 0 2 -2.000 87.570 33.360 18.765
18194 0 2 -2.000 89.655 35.445 22.935
18195 0 2 -2.000 91.740 35.445 20.850
18196 0 2 -2.000 89.655 37.530 20.850
18197 0 2 -2.000 87.570 33.360 22.935
18198 0 2 -2.000 89.655 35.445 27.105
18199 0 2 -2.000 91.740 35.445 25.020
18200 0 2 -2.000 89.655 37.530 25.020
18201 0 2 -2.000 87.570 33.360 27.105
18202 0 2 -2.000 89.655 35.445 31.275
18203 0 2 -2.000 91.740 35.445 29.190
18204 0 2 -2.000 89.655 37.530 29.190
18205 0 2 -2.000 87.570 33.360 31.275
18206 0 2 -2.000 89.655 35.445 35.445
18207 0 2 -2.000 91.740 35.445 33.360
18208 0 2 -2.000 89.655 37.530 33.360
18209 0 2 -2.000 87.570 33.360 35.445
18210 0 2 -2.000 89.655 35.445 39.615
18211 0 2 -2.000 91.740 35.445 37.530
18212 0 2 -2.000 89.655 37.530 37.530
18213 0 2 -2.000 89.655 39.615 2.085
18214 0 2 -2.000 91.740 39.615 0.000
18215 0 2 -2.000 89.655 0.000 0.000
18216 0 2 -2.000 87.570 37.530 2.085
18217 0 2 -2.000 89.655 39.615 6.255
18218 0 2 -2.000 91.740 39.615 4.170
18219 0 2 -2.000 89.655 0.000 4.170
18220 0 2 -2.000 87.570 37.530 6.255
18221 0 2 -2.000 89.655 39.615 10.425
18222 0 2 -2.000 91.740 39.615 8.340
18223 0 2 -2.000 89.655 0.000 8.340
18224 0 2 -2.000 87.570 37.530 10.425
18225 0 2 -2.000 89.655 39.615 14.595
18226 0 2 -2.000 91.740 39.615 12.510
18227 0 2 -2.000 89.655 0.000 12.510
18228 0 2 -2.000 87.570 37.530 14.595
18229 0 2 -2.000 89.655 39.615 18.765
18230 0 2 -2.000 91.740 39.615 16.680
18231 0 2 -2.000 89.655 0.000 16.680
18232 0 2 -2.000 87.570 37.530 18.765
18233 0 2 -2.000 89.655 39.615 22.935
18234 0 2 -2.000 91.740 39.615 20.850
18235 0 2 -2.000 89.655 0.000 20.850
18236 0 2 -2.000 87.570 37.530 22.935
18237 0 2 -2.000 89.655 39.615 27.105
18238 0 2 -2.000 91.740 39.615 25.020
18239 0 2 -2.000 89.655 0.000 25.020
18240 0 2 -2.000 87.570 37.530 27.105
18241 0 2 -2.000 89.655 39.615 31.275
18242 0 2 -2.000 91.740 39.615 29.190
18243 0 2 -2.000 89.655 0.000 29.190
18244 0 2 -2.000 87.570 37.530 31.275
18245 0 2 -2.000 89.655 39.615 35.445
18246 0 2 -2.000 91.740 39.615 33.360
18247 0 2 -2.000 89.655 0.000 33.360
18248 0 2 -2.000 87.570 37.530 35.445
18249 0 2 -2.000 89.655 39.615 39.615
18250 0 2 -2.000 91.740 39.615 37.530
18251 0 2 -2.000 89.655 0.000 37.530
18252 0 2 -2.000 87.570 37.530 39.615
18253 0 2 -2.000 93.825 2.085 2.085
18254 0 2 -2.000 95.910 2.085 0.000
18255 0 2 -2.000 93.825 4.170 0.000
18256 0 2 -2.000 91.740 0.000 2.085
18257 0 2 -2.000 93.825 2.085 6.255
18258 0 2 -2.000 95.910 2.085 4.170
18259 0 2 -2.000 93.825 4.170 4.170
18260 0 2 -2.000 91.740 0.000 6.255
18261 0 2 -2.000 93.825 2.085 10.425
18262 0 2 -2.000 95.910 2.085 8.340
18263 0 2 -2.000 93.825 4.170 8.340
18264 0 2 -2.000 91.740 0.000 10.425
18265 0 2 -2.000 93.825 2.085 14.595
18266 0 2 -2.000 95.910 2.085 12.510
18267 0 2 -2.000 93.825 4.170 12.510
18268 0 2 -2.000 91.740 0.000 14.595
18269 0 2 -2.000 93.825 2.085 18.765
18270 0 2 -2.000 95.910 2.085 16.680
18271 0 2 -2.000 93.825 4.170 16.680
18272 0 2 -2.000 91.740 0.000 18.765
18273 0 2 -2.000 93.825 2.085 22.935
18274 0 2 -2.000 95.910 2.085 20.850
18275 0 2 -2.000 93.825 4.170 20.850
18276 0 2 -2.000 91.740 0.000 22.935
18277 0 2 -2.000 93.825 2.085 27.105
18278 0 2 -2.000 95.910 2.085 25.020
18279 0 2 -2.000 93.825 4.170 25.020
18280 0 2 -2.000 91.740 0.000 27.105
18281 0 2 -2.000 93.825 2.085 31.275
18282 0 2 -2.000 95.910 2.085 29.190
18283 0 2 -2.000 93.825 4.170 29.190
18284 0 2 -2.000 91.740 0.000 31.275
18285 0 2 -2.000 93.825 2.085 35.445
18286 0 2 -2.000 95.910 2.085 33.360
18287 0 2 -2.000 93.825 4.170 33.360
18288 0 2 -2.000 91.740 0.000 35.445
18289 0 2 -2.000 93.825 2.085 39.615
18290 0 2 -2.000 95.910 2.085 37.530
18291 0 2 -2.000 93.825 4.170 37.530
18292 0 2 -2.000 91.740 0.000 39.615
18293 0 2 -2.000 93.825 6.255 2.085
18294 0 2 -2.000 95.910 6.255 0.000
18295 0 2 -2.000 93.825 8.340 0.000
18296 0 2 -2.000 91.740 4.170 2.085
18297 0 2 -2.000 93.825 6.255 6.255
18298 0 2 -2.000 95.910 6.255 4.170
18299 0 2 -2.000 93.825 8.340 4.170
18300 0 2 -2.000 91.740 4.170 6.255
18301 0 2 -2.000 93.825 6.255 10.425
18302 0 2 -2.000 95.910 6.255 8.340
18303 0 2 -2.000 93.825 8.340 8.340
18304 0 2 -2.000 91.740 4.170 10.425
18305 0 2 -2.000 93.825 6.255 14.595
18306 0 2 -2.000 95.910 6.255 12.510
18307 0 2 -2.000 93.825 8.340 12.510
18308 0 2 -2.000 91.740 4.170 14.595
18309 0 2 -2.000 93.825 6.255 18.765
18310 0 2 -2.000 95.910 6.255 16.680
18311 0 2 -2.000 93.825 8.340 16.680
18312 0 2 -2.000 91.740 4.170 18.765
18313 0 2 -2.000 93.825 6.255 22.935
18314 0 2 -2.000 95.910 6.255 20.850
18315 0 2 -2.000 93.825 8.340 20.850
18316 0 2 -2.000 91.740 4.170 22.935
18317 0 2 -2.000 93.825 6.255 27.105
18318 0 2 -2.000 95.910 6.255 25.020
18319 0 2 -2.000 93.825 8.340 25.020
18320 0 2 -2.000 91.740 4.170 27.105
18321 0 2 -2.000 93.825 6.255 31.275
18322 0 2 -2.000 95.910 6.255 29.190
18323 0 2 -2.000 93.825 8.340 29.190
18324 0 2 -2.000 91.740 4.170 31.275
18325 0 2 -2.000 93.825 6.255 35.445
18326 0 2 -2.000 95.910 6.255 33.360
18327 0 2 -2.000 93.825 8.340 33.360
18328 0 2 -2.000 91.740 4.170 35.445
18329 0 2 -2.000 93.825 6.255 39.615
18330 0 2 -2.000 95.910 6.255 37.530
18331 0 2 -2.000 93.825 8.340 37.530
18332 0 2 -2.000 91.740 4.170 39.615
18333 0 2 -2.000 93.825 10.425 2.085
18334 0 2 -2.000 95.910 10.425 0.000
18335 0 2 -2.000 93.825 12.510 0.000
18336 0 2 -2.000 91.740 8.340 2.085
18337 0 2 -2.000 93.825 10.425 6.255
18338 0 2 -2.000 95.910 10.425 4.170
18339 0 2 -2.000 93.825 12.510 4.170
18340 0 2 -2.000 91.740 8.340 6.255
18341 0 2 -2.000 93.825 10.425 10.425
18342 0 2 -2.000 95.910 10.425 8.340
18343 0 2 -2.000 93.825 12.510 8.340
18344 0 2 -2.000 91.740 8.340 10.425
18345 0 2 -2.000 93.825 10.425 14.595
18346 0 2 -2.000 95.910 10.425 12.510
18347 0 2 -2.000 93.825 12.510 12.510
18348 0 2 -2.000 91.740 8.340 14.595
18349 0 2 -2.000 93.825 10.425 18.765
18350 0 2 -2.000 95.910 10.425 16.680
18351 0 2 -2.000 93.825 12.510 16.680
18352 0 2 -2.000 91.740 8.340 18.765
18353 0 2 -2.000 93.825 10.425 22.935
18354 0 2 -2.000 95.910 10.425 20.850
18355 0 2 -2.000 93.825 12.510 20.850
18356 0 2 -2.000 91.740 8.340 22.935
18357 0 2 -2.000 93.825 10.425 27.105
18358 0 2 -2.000 95.910 10.425 25.020
18359 0 2 -2.000 93.825 12.510 25.020
18360 0 2 -2.000 91.740 8.340 27.105
18361 0 2 -2.000 93.825 10.425 31.275
18362 0 2 -2.000 95.910 10.425 29.190
18363 0 2 -2.000 93.825 12.510 29.190
18364 0 2 -2.000 91.740 8.340 31.275
18365 0 2 -2.000 93.825 10.425 35.445
18366 0 2 -2.000 95.910 10.425 33.360
18367 0 2 -2.000 93.825 12.510 33.360
18368 0 2 -2.000 91.740 8.340 35.445
18369 0 2 -2.000 93.825 14.595 2.085
18370 0 2 -2.000 95.910 14.595 0.000
18371 0 2 -2.000 93.825 16.680 0.000
18372 0 2 -2.000 91.740 12.510 2.085
18373 0 2 -2.000 93.825 14.595 6.255
18374 0 2 -2.000 95.910 14.595 4.170
18375 0 2 -2.000 93.825 16.680 4.170
18376 0 2 -2.000 91.740 12.510 6.255
18377 0 2 -2.000 93.825 14.595 10.425
18378 0 2 -2.000 95.910 14.595 8.340
18379 0 2 -2.000 93.825 16.680 8.340
18380 0 2 -2.000 91.740 12.510 10.425
18381 0 2 -2.000 93.825 14.595 14.595
18382 0 2 -2.000 95.910 14.595 12.510
18383 0 2 -2.000 93.825 16.680 12.510
18384 0 2 -2.000 91.740 12.510 14.595
18385 0 2 -2.000 93.825 14.595 18.765
18386 0 2 -2.000 95.910 14.595 16.680
18387 0 2 -2.000 93.825 16.680 16.680
18388 0 2 -2.000 91.740 12.510 18.765
18389 0 2 -2.000 93.825 14.595 22.935
18390 0 2 -2.000 95.910 14.595 20.850
18391 0 2 -2.000 93.825 16.680 20.850
18392 0 2 -2.000 91.740 12.510 22.935
18393 0 2 -2.000 93.825 14.595 27.105
18394 0 2 -2.000 95.910 14.595 25.020
18395 0 2 -2.000 93.825 16.680 25.020
18396 0 2 -2.000 91.740 12.510 27.105
18397 0 2 -2.000 93.825 14.595 31.275
18398 0 2 -2.000 95.910 14.595 29.190
18399 0 2 -2.000 93.825 16.680 29.190
18400 0 2 -2.000 91.740 12.510 31.275
18401 0 2 -2.000 93.825 18.765 2.085
18402 0 2 -2.000 95.910 18.765 0.000
18403 0 2 -2.000 93.825 20.850 0.000
18404 0 2 -2.000 91.740 16.680 2.085
18405 0 2 -2.000 93.825 18.765 6.255
18406 0 2 -2.000 95.910 18.765 4.170
18407 0 2 -2.000 93.825 20.850 4.170
18408 0 2 -2.000 91.740 16.680 6.255
18409 0 2 -2.000 93.825 18.765 10.425
18410 0 2 -2.000 95.910 18.765 8.340
18411 0 2 -2.000 93.825 20.850 8.340
18412 0 2 -2.000 91.740 16.680 10.425
18413 0 2 -2.000 93.825 18.765 14.595
18414 0 2 -2.000 95.910 18.765 12.510
18415 0 2 -2.000 93.825 20.850 12.510
18416 0 2 -2.000 91.740 16.680 14.595
18417 0 2 -2.000 93.825 18.765 18.765
18418 0 2 -2.000 95.910 18.765 16.680
18419 0 2 -2.000 93.825 20.850 16.680
18420 0 2 -2.000 91.740 16.680 18.765
18421 0 2 -2.000 93.825 18.765 22.935
18422 0 2 -2.000 95.910 18.765 20.850
18423 0 2 -2.000 93.825 20.850 20.850
18424 0 2 -2.000 91.740 16.680 22.935
18425 0 2 -2.000 93.825 18.765 27.105
18426 0 2 -2.000 95.910 18.765 25.020
18427 0 2 -2.000 93.825 20.850 25.020
18428 0 2 -2.000 91.740 16.680 27.105
18429 0 2 -2.000 93.825 22.935 2.085
18430 0 2 -2.000 95.910 22.935 0.000
18431 0 2 -2.000 93.825 25.020 0.000
18432 0 2 -2.000 91.740 20.850 2.085
18433 0 2 -2.000 93.825 22.935 6.255
18434 0 2 -2.000 95.910 22.935 4.170
18435 0 2 -2.000 93.825 25.020 4.170
18436 0 2 -2.000 91.740 20.850 6.255
18437 0 2 -2.000 93.825 22.935 10.425
18438 0 2 -2.000 95.910 22.935 8.340
18439 0 2 -2.000 93.825 25.020 8.340
18440 0 2 -2.000 91.740 20.850 10.425
18441 0 2 -2.000 93.825 22.935 14.595
18442 0 2 -2.000 95.910 22.935 12.510
18443 0 2 -2.000 93.825 25.020 12.510
18444 0 2 -2.000 91.740 20.850 14.595
18445 0 2 -2.000 93.825 22.935 18.765
18446 0 2 -2.000 95.910 22.935 16.680
18447 0 2 -2.000 93.825 25.020 16.680
18448 0 2 -2.000 91.740 20.850 18.765
18449 0 2 -2.000 93.825 22.935 22.935
18450 0 2 -2.000 95.910 22.935 20.850
18451 0 2 -2.000 93.825 25.020 20.850
18452 0 2 -2.000 91.740 20.850 22.935
18453 0 2 -2.000 93.825 22.935 27.105
18454 0 2 -2.000 95.910 22.935 25.020
18455 0 2 -2.000 93.825 25.020 25.020
18456 0 2 -2.000 93.825 25.020 29.190
18457 0 2 -2.000 93.825 27.105 2.085
18458 0 2 -2.000 95.910 27.105 0.000
18459 0 2 -2.000 93.825 29.190 0.000
18460 0 2 -2.000 91.740 25.020 2.085
18461 0 2 -2.000 93.825 27.105 6.255
18462 0 2 -2.000 95.910 27.105 4.170
18463 0 2 -2.000 93.825 29.190 4.170
18464 0 2 -2.000 91.740 25.020 6.255
18465 0 2 -2.000 93.825 27.105 10.425
18466 0 2 -2.000 95.910 27.105 8.340
18467 0 2 -2.000 93.825 29.190 8.340
18468 0 2 -2.000 91.740 25.020 10.425
18469 0 2 -2.000 93.825 27.105 14.595
18470 0 2 -2.000 95.910 27.105 12.510
18471 0 2 -2.000 93.825 29.190 12.510
18472 0 2 -2.000 91.740 25.020 14.595
18473 0 2 -2.000 93.825 27.105 18.765
18474 0 2 -2.000 95.910 27.105 16.680
18475 0 2 -2.000 93.825 29.190 16.680
18476 0 2 -2.000 91.740 25.020 18.765
18477 0 2 -2.000 93.825 27.105 22.935
18478 0 2 -2.000 95.910 27.105 20.850
18479 0 2 -2.000 93.825 29.190 20.850
18480 0 2 -2.000 91.740 25.020 22.935
18481 0 2 -2.000 93.825 27.105 27.105
18482 0 2 -2.000 95.910 27.105 25.020
18483 0 2 -2.000 93.825 29.190 25.020
18484 0 2 -2.000 91.740 25.020 27.105
18485 0 2 -2.000 93.825 27.105 31.275
18486 0 2 -2.000 95.910 27.105 29.190
18487 0 2 -2.000 93.825 29.190 29.190
18488 0 2 -2.000 93.825 29.190 33.360
18489 0 2 -2.000 93.825 31.275 2.085
18490 0 2 -2.000 95.910 31.275 0.000
18491 0 2 -2.000 93.825 33.360 0.000
18492 0 2 -2.000 91.740 29.190 2.085
18493 0 2 -2.000 93.825 31.275 6.255
18494 0 2 -2.000 95.910 31.275 4.170
18495 0 2 -2.000 93.825 33.360 4.170
18496 0 2 -2.000 91.740 29.190 6.255
18497 0 2 -2.000 93.825 31.275 10.425
18498 0 2 -2.000 95.910 31.275 8.340
18499 0 2 -2.000 93.825 33.360 8.340
18500 0 2 -2.000 91.740 29.190 10.425
18501 0 2 -2.000 93.825 31.275 14.595
18502 0 2 -2.000 95.910 31.275 12.510
18503 0 2 -2.000 93.825 33.360 12.510
18504 0 2 -2.000 91.740 29.190 14.595
18505 0 2 -2.000 93.825 31.275 18.765
18506 0 2 -2.000 95.910 31.275 16.680
18507 0 2 -2.000 93.825 33.360 16.680
18508 0 2 -2.000 91.740 29.190 18.765
18509 0 2 -2.000 93.825 31.275 22.935
18510 0 2 -2.000 95.910 31.275 20.850
18511 0 2 -2.000 93.825 33.360 20.850
18512 0 2 -2.000 91.740 29.190 22.935
18513 0 2 -2.000 93.825 31.275 27.105
18514 0 2 -2.000 95.910 31.275 25.020
18515 0 2 -2.000 93.825 33.360 25.020
18516 0 2 -2.000 91.740 29.190 27.105
18517 0 2 -2.000 93.825 31.275 31.275
18518 0 2 -2.000 95.910 31.275 29.190
18519 0 2 -2.000 93.825 33.360 29.190
18520 0 2 -2.000 91.740 29.190 31.275
18521 0 2 -2.000 93.825 31.275 35.445
18522 0 2 -2.000 95.910 31.275 33.360
18523 0 2 -2.000 93.825 33.360 33.360
18524 0 2 -2.000 93.825 33.360 37.530
18525 0 2 -2.000 93.825 35.445 2.085
18526 0 2 -2.000 95.910 35.445 0.000
18527 0 2 -2.000 93.825 37.530 0.000
18528 0 2 -2.000 91.740 33.360 2.085
18529 0 2 -2.000 93.825 35.445 6.255
18530 0 2 -2.000 95.910 35.445 4.170
18531 0 2 -2.000 93.825 37.530 4.170
18532 0 2 -2.000 91.740 33.360 6.255
18533 0 2 -2.000 93.825 35.445 10.425
18534 0 2 -2.000 95.910 35.445 8.340
18535 0 2 -2.000 93.825 37.530 8.340
18536 0 2 -2.000 91.740 33.360 10.425
18537 0 2 -2.000 93.825 35.445 14.595
18538 0 2 -2.000 95.910 35.445 12.510
18539 0 2 -2.000 93.825 37.530 12.510
18540 0 2 -2.000 91.740 33.360 14.595
18541 0 2 -2.000 93.825 35.445 18.765
18542 0 2 -2.000 95.910 35.445 16.680
18543 0 2 -2.000 93.825 37.530 16.680
18544 0 2 -2.000 91.740 33.360 18.765
18545 0 2 -2.000 93.825 35.445 22.935
18546 0 2 -2.000 95.910 35.445 20.850
18547 0 2 -2.000 93.825 37.530 20.850
18548 0 2 -2.000 91.740 33.360 22.935
18549 0 2 -2.000 93.825 35.445 27.105
18550 0 2 -2.000 95.910 35.445 25.020
18551 0 2 -2.000 93.825 37.530 25.020
18552 0 2 -2.000 91.740 33.360 27.105
18553 0 2 -2.000 93.825 35.445 31.275
18554 0 2 -2.000 95.910 35.445 29.190
18555 0 2 -2.000 93.825 37.530 29.190
18556 0 2 -2.000 91.740 33.360 31.275
18557 0 2 -2.000 93.825 35.445 35.445
18558 0 2 -2.000 95.910 35.445 33.360
18559 0 2 -2.000 93.825 37.530 33.360
18560 0 2 -2.000 91.740 33.360 35.445
18561 0 2 -2.000 93.825 35.445 39.615
18562 0 2 -2.000 95.910 35.445 37.530
18563 0 2 -2.000 93.825 37.530 37.530
18564 0 2 -2.000 93.825 39.615 2.085
18565 0 2 -2.000 95.910 39.615 0.000
18566 0 2 -2.000 93.825 0.000 0.000
18567 0 2 -2.000 91.740 37.530 2.085
18568 0 2 -2.000 93.825 39.615 6.255
18569 0 2 -2.000 95.910 39.615 4.170
18570 0 2 -2.000 93.825 0.000 4.170
18571 0 2 -2.000 91.740 37.530 6.255
18572 0 2 -2.000 93.825 39.615 10.425
18573 0 2 -2.000 95.910 39.615 8.340
18574 0 2 -2.000 93.825 0.000 8.340
18575 0 2 -2.000 91.740 37.530 10.425
18576 0 2 -2.000 93.825 39.615 14.595
18577 0 2 -2.000 95.910 39.615 12.510
18578 0 2 -2.000 93.825 0.000 12.510
18579 0 2 -2.000 91.740 37.530 14.595
18580 0 2 -2.000 93.825 39.615 18.765
18581 0 2 -2.000 95.910 39.615 16.680
18582 0 2 -2.000 93.825 0.000 16.680
18583 0 2 -2.000 91.740 37.530 18.765
18584 0 2 -2.000 93.825 39.615 22.935
18585 0 2 -2.000 95.910 39.615 20.850
18586 0 2 -2.000 93.825 0.000 20.850
18587 0 2 -2.000 91.740 37.530 22.935
18588 0 2 -2.000 93.825 39.615 27.105
18589 0 2 -2.000 95.910 39.615 25.020
18590 0 2 -2.000 93.825 0.000 25.020
18591 0 2 -2.000 91.740 37.530 27.105
18592 0 2 -2.000 93.825 39.615 31.275
18593 0 2 -2.000 95.910 39.615 29.190
18594 0 2 -2.000 93.825 0.000 29.190
18595 0 2 -2.000 91.740 37.530 31.275
18596 0 2 -2.000 93.825 39.615 35.445
18597 0 2 -2.000 95.910 39.615 33.360
18598 0 2 -2.000 93.825 0.000 33.360
18599 0 2 -2.000 91.740 37.530 35.445
18600 0 2 -2.000 93.825 39.615 39.615
18601 0 2 -2.000 95.910 39.615 37.530
18602 0 2 -2.000 93.825 0.000 37.530
18603 0 2 -2.000 91.740 37.530 39.615
18604 0 2 -2.000 97.995 2.085 2.085
18605 0 2 -2.000 100.080 2.085 0.000
18606 0 2 -2.000 97.995 4.170 0.000
18607 0 2 -2.000 95.910 0.000 2.085
18608 0 2 -2.000 97.995 2.085 6.255
18609 0 2 -2.000 100.080 2.085 4.170
18610 0 2 -2.000 97.995 4.170 4.170
18611 0 2 -2.000 95.910 0.000 6.255
18612 0 2 -2.000 97.995 2.085 10.425
18613 0 2 -2.000 100.080 2.085 8.340
18614 0 2 -2.000 97.995 4.170 8.340
18615 0 2 -2.000 95.910 0.000 10.425
18616 0 2 -2.000 97.995 2.085 14.595
18617 0 2 -2.000 100.080 2.085 12.510
18618 0 2 -2.000 97.995 4.170 12.510
18619 0 2 -2.000 95.910 0.000 14.595
18620 0 2 -2.000 97.995 2.085 18.765
18621 0 2 -2.000 100.080 2.085 16.680
18622 0 2 -2.000 97.995 4.170 16.680
18623 0 2 -2.000 95.910 0.000 18.765
18624 0 2 -2.000 97.995 2.085 22.935
18625 0 2 -2.000 100.080 2.085 20.850
18626 0 2 -2.000 97.995 4.170 20.850
18627 0 2 -2.000 95.910 0.000 22.935
18628 0 2 -2.000 97.995 2.085 27.105
18629 0 2 -2.000 100.080 2.085 25.020
18630 0 2 -2.000 97.995 4.170 25.020
18631 0 2 -2.000 95.910 0.000 27.105
18632 0 2 -2.000 97.995 2.085 31.275
18633 0 2 -2.000 100.080 2.085 29.190
18634 0 2 -2.000 97.995 4.170 29.190
18635 0 2 -2.000 95.910 0.000 31.275
18636 0 2 -2.000 97.995 2.085 35.445
18637 0 2 -2.000 100.080 2.085 33.360
18638 0 2 -2.000 97.995 4.170 33.360
18639 0 2 -2.000 95.910 0.000 35.445
18640 0 2 -2.000 97.995 2.085 39.615
18641 0 2 -2.000 100.080 2.085 37.530
18642 0 2 -2.000 97.995 4.170 37.530
18643 0 2 -2.000 95.910 0.000 39.615
18644 0 2 -2.000 97.995 6.255 2.085
18645 0 2 -2.000 100.080 6.255 0.000
18646 0 2 -2.000 97.995 8.340 0.000
18647 0 2 -2.000 95.910 4.170 2.085
18648 0 2 -2.000 97.995 6.255 6.255
18649 0 2 -2.000 100.080 6.255 4.170
18650 0 2 -2.000 97.995 8.340 4.170
18651 0 2 -2.000 95.910 4.170 6.255
18652 0 2 -2.000 97.995 6.255 10.425
18653 0 2 -2.000 100.080 6.255 8.340
18654 0 2 -2.000 97.995 8.340 8.340
18655 0 2 -2.000 95.910 4.170 10.425
18656 0 2 -2.000 97.995 6.255 14.595
18657 0 2 -2.000 100.080 6.255 12.510
18658 0 2 -2.000 97.995 8.340 12.510
18659 0 2 -2.000 95.910 4.170 14.595
18660 0 2 -2.000 97.995 6.255 18.765
18661 0 2 -2.000 100.080 6.255 16.680
18662 0 2 -2.000 97.995 8.340 16.680
18663 0 2 -2.000 95.910 4.170 18.765
18664 0 2 -2.000 97.995 6.255 22.935
18665 0 2 -2.000 100.080 6.255 20.850
18666 0 2 -2.000 97.995 8.340 20.850
18667 0 2 -2.000 95.910 4.170 22.935
18668 0 2 -2.000 97.995 6.255 27.105
18669 0 2 -2.000 100.080 6.255 25.020
18670 0 2 -2.000 97.995 8.340 25.020
18671 0 2 -2.000 95.910 4.170 27.105
18672 0 2 -2.000 97.995 6.255 31.275
18673 0 2 -2.000 100.080 6.255 29.190
18674 0 2 -2.000 97.995 8.340 29.190
18675 0 2 -2.000 95.910 4.170 31.275
18676 0 2 -2.000 97.995 6.255 35.445
18677 0 2 -2.000 100.080 6.255 33.360
18678 0 2 -2.000 97.995 8.340 33.360
18679 0 2 -2.000 95.910 4.170 35.445
18680 0 2 -2.000 97.995 6.255 39.615
18681 0 2 -2.000 100.080 6.255 37.530
18682 0 2 -2.000 97.995 8.340 37.530
18683 0 2 -2.000 95.910 4.170 39.615
18684 0 2 -2.000 97.995 10.425 2.085
18685 0 2 -2.000 100.080 10.425 0.000
18686 0 2 -2.000 97.995 12.510 0.000
18687 0 2 -2.000 95.910 8.340 2.085
18688 0 2 -2.000 97.995 10.425 6.255
18689 0 2 -2.000 100.080 10.425 4.170
18690 0 2 -2.000 97.995 12.510 4.170
18691 0 2 -2.000 95.910 8.340 6.255
18692 0 2 -2.000 97.995 10.425 10.425
18693 0 2 -2.000 100.080 10.425 8.340
18694 0 2 -2.000 97.995 12.510 8.340
18695 0 2 -2.000 95.910 8.340 10.425
18696 0 2 -2.000 97.995 10.425 14.595
18697 0 2 -2.000 100.080 10.425 12.510
18698 0 2 -2.000 97.995 12.510 12.510
18699 0 2 -2.000 95.910 8.340 14.595
18700 0 2 -2.000 97.995 10.425 18.765
18701 0 2 -2.000 100.080 10.425 16.680
18702 0 2 -2.000 97.995 12.510 16.680
18703 0 2 -2.000 95.910 8.340 18.765
18704 0 2 -2.000 97.995 10.425 22.935
18705 0 2 -2.000 100.080 10.425 20.850
18706 0 2 -2.000 97.995 12.510 20.850
18707 0 2 -2.000 95.910 8.340 22.935
18708 0 2 -2.000 97.995 10.425 27.105
18709 0 2 -2.000 100.080 10.425 25.020
18710 0 2 -2.000 97.995 12.510 25.020
18711 0 2 -2.000 95.910 8.340 27.105
18712 0 2 -2.000 97.995 10.425 31.275
18713 0 2 -2.000 100.080 10.425 29.190
18714 0 2 -2.000 97.995 12.510 29.190
18715 0 2 -2.000 95.910 8.340 31.275
18716 0 2 -2.000 97.995 10.425 35.445
18717 0 2 -2.000 100.080 10.425 33.360
18718 0 2 -2.000 97.995 12.510 33.360
18719 0 2 -2.000 95.910 8.340 35.445
18720 0 2 -2.000 97.995 14.595 2.085
18721 0 2 -2.000 100.080 14.595 0.000
18722 0 2 -2.000 97.995 16.680 0.000
18723 0 2 -2.000 95.910 12.510 2.085
18724 0 2 -2.000 97.995 14.595 6.255
18725 0 2 -2.000 100.080 14.595 4.170
18726 0 2 -2.000 97.995 16.680 4.170
18727 0 2 -2.000 95.910 12.510 6.255
18728 0 2 -2.000 97.995 14.595 10.425
18729 0 2 -2.000 100.080 14.595 8.340
18730 0 2 -2.000 97.995 16.680 8.340
18731 0 2 -2.000 95.910 12.510 10.425
18732 0 2 -2.000 97.995 14.595 14.595
18733 0 2 -2.000 100.080 14.595 12.510
18734 0 2 -2.000 97.995 16.680 12.510
18735 0 2 -2.000 95.910 12.510 14.595
18736 0 2 -2.000 97.995 14.595 18.765
18737 0 2 -2.000 100.080 14.595 16.680
18738 0 2 -2.000 97.995 16.680 16.680
18739 0 2 -2.000 95.910 12.510 18.765
18740 0 2 -2.000 97.995 14.595 22.935
18741 0 2 -2.000 100.080 14.595 20.850
18742 0 2 -2.000 97.995 16.680 20.850
18743 0 2 -2.000 95.910 12.510 22.935
18744 0 2 -2.000 97.995 14.595 27.105
18745 0 2 -2.000 100.080 14.595 25.020
18746 0 2 -2.000 97.995 16.680 25.020
18747 0 2 -2.000 95.910 12.510 27.105
18748 0 2 -2.000 97.995 14.595 31.275
18749 0 2 -2.000 100.080 14.595 29.190
18750 0 2 -2.000 97.995 16.680 29.190
18751 0 2 -2.000 95.910 12.510 31.275
18752 0 2 -2.000 97.995 18.765 2.085
18753 0 2 -2.000 100.080 18.765 0.000
18754 0 2 -2.000 97.995 20.850 0.000
18755 0 2 -2.000 95.910 16.680 2.085
18756 0 2 -2.000 97.995 18.765 6.255
18757 0 2 -2.000 100.080 18.765 4.170
18758 0 2 -2.000 97.995 20.850 4.170
18759 0 2 -2.000 95.910 16.680 6.255
18760 0 2 -2.000 97.995 18.765 10.425
18761 0 2 -2.000 100.080 18.765 8.340
18762 0 2 -2.000 97.995 20.850 8.340
18763 0 2 -2.000 95.910 16.680 10.425
18764 0 2 -2.000 97.995 18.765 14.595
18765 0 2 -2.000 100.080 18.765 12.510
18766 0 2 -2.000 97.995 20.850 12.510
18767 0 2 -2.000 95.910 16.680 14.595
18768 0 2 -2.000 97.995 18.765 18.765
18769 0 2 -2.000 100.080 18.765 16.680
18770 0 2 -2.000 97.995 20.850 16.680
18771 0 2 -2.000 95.910 16.680 18.765
18772 0 2 -2.000 97.995 18.765 22.935
18773 0 2 -2.000 100.080 18.765 20.850
18774 0 2 -2.000 97.995 20.850 20.850
18775 0 2 -2.000 95.910 16.680 22.935
18776 0 2 -2.000 97.995 18.765 27.105
18777 0 2 -2.000 100.080 18.765 25.020
18778 0 2 -2.000 97.995 20.850 25.020
18779 0 2 -2.000 95.910 16.680 27.105
18780 0 2 -2.000 97.995 22.935 2.085
18781 0 2 -2.000 100.080 22.935 0.000
18782 0 2 -2.000 97.995 25.020 0.000
18783 0 2 -2.000 95.910 20.850 2.085
18784 0 2 -2.000 97.995 22.935 6.255
18785 0 2 -2.000 100.080 22.935 4.170
18786 0 2 -2.000 97.995 25.020 4.170
18787 0 2 -2.000 95.910 20.850 6.255
18788 0 2 -2.000 97.995 22.935 10.425
18789 0 2 -2.000 100.080 22.935 8.340
18790 0 2 -2.000 97.995 25.020 8.340
18791 0 2 -2.000 95.910 20.850 10.425
18792 0 2 -2.000 97.995 22.935 14.595
18793 0 2 -2.000 100.080 22.935 12.510
18794 0 2 -2.000 97.995 25.020 12.510
18795 0 2 -2.000 95.910 20.850 14.595
18796 0 2 -2.000 97.995 22.935 18.765
18797 0 2 -2.000 100.080 22.935 16.680
18798 0 2 -2.000 97.995 25.020 16.680
18799 0 2 -2.000 95.910 20.850 18.765
18800 0 2 -2.000 97.995 22.935 22.935
18801 0 2 -2.000 100.080 22.935 20.850
18802 0 2 -2.000 97.995 25.020 20.850
18803 0 2 -2.000 95.910 20.850 22.935
18804 0 2 -2.000 97.995 22.935 27.105
18805 0 2 -2.000 100.080 22.935 25.020
18806 0 2 -2.000 97.995 25.020 25.020
18807 0 2 -2.000 97.995 25.020 29.190
18808 0 2 -2.000 97.995 27.105 2.085
18809 0 2 -2.000 100.080 27.105 0.000
18810 0 2 -2.000 97.995 29.190 0.000
18811 0 2 -2.000 95.910 25.020 2.085
18812 0 2 -2.000 97.995 27.105 6.255
18813 0 2 -2.000 100.080 27.105 4.170
18814 0 2 -2.000 97.995 29.190 4.170
18815 0 2 -2.000 95.910 25.020 6.255
18816 0 2 -2.000 97.995 27.105 10.425
18817 0 2 -2.000 100.080 27.105 8.340
18818 0 2 -2.000 97.995 29.190 8.340
18819 0 2 -2.000 95.910 25.020 10.425
18820 0 2 -2.000 97.995 27.105 14.595
18821 0 2 -2.000 100.080 27.105 12.510
18822 0 2 -2.000 97.995 29.190 12.510
18823 0 2 -2.000 95.910 25.020 14.595
18824 0 2 -2.000 97.995 27.105 18.765
18825 0 2 -2.000 100.080 27.105 16.680
18826 0 2 -2.000 97.995 29.190 16.680
18827 0 2 -2.000 95.910 25.020 18.765
18828 0 2 -2.000 97.995 27.105 22.935
18829 0 2 -2.000 100.080 27.105 20.850
18830 0 2 -2.000 97.995 29.190 20.850
18831 0 2 -2.000 95.910 25.020 22.935
18832 0 2 -2.000 97.995 27.105 27.105
18833 0 2 -2.000 100.080 27.105 25.020
18834 0 2 -2.000 97.995 29.190 25.020
18835 0 2 -2.000 95.910 25.020 27.105
18836 0 2 -2.000 97.995 27.105 31.275
18837 0 2 -2.000 100.080 27.105 29.190
18838 0 2 -2.000 97.995 29.190 29.190
18839 0 2 -2.000 97.995 29.190 33.360
18840 0 2 -2.000 97.995 31.275 2.085
18841 0 2 -2.000 100.080 31.275 0.000
18842 0 2 -2.000 97.995 33.360 0.000
18843 0 2 -2.000 95.910 29.190 2.085
18844 0 2 -2.000 97.995 31.275 6.255
18845 0 2 -2.000 100.080 31.275 4.170
18846 0 2 -2.000 97.995 33.360 4.170
18847 0 2 -2.000 95.910 29.190 6.255
18848 0 2 -2.000 97.995 31.275 10.425
18849 0 2 -2.000 100.080 31.275 8.340
18850 0 2 -2.000 97.995 33.360 8.340
18851 0 2 -2.000 95.910 29.190 10.425
18852 0 2 -2.000 97.995 31.275 14.595
18853 0 2 -2.000 100.080 31.275 12.510
18854 0 2 -2.000 97.995 33.360 12.510
18855 0 2 -2.000 95.910 29.190 14.595
18856 0 2 -2.000 97.995 31.275 18.765
18857 0 2 -2.000 100.080 31.275 16.680
18858 0 2 -2.000 97.995 33.360 16.680
18859 0 2 -2.000 95.910 29.190 18.765
18860 0 2 -2.000 97.995 31.275 22.935
18861 0 2 -2.000 100.080 31.275 20.850
18862 0 2 -2.000 97.995 33.360 20.850
18863 0 2 -2.000 95.910 29.190 22.935
18864 0 2 -2.000 97.995 31.275 27.105
18865 0 2 -2.000 100.080 31.275 25.020
18866 0 2 -2.000 97.995 33.360 25.020
18867 0 2 -2.000 95.910 29.190 27.105
18868 0 2 -2.000 97.995 31.275 31.275
18869 0 2 -2.000 100.080 31.275 29.190
18870 0 2 -2.000 97.995 33.360 29.190
18871 0 2 -2.000 95.910 29.190 31.275
18872 0 2 -2.000 97.995 31.275 35.445
18873 0 2 -2.000 100.080 31.275 33.360
18874 0 2 -2.000 97.995 33.360 33.360
18875 0 2 -2.000 97.995 33.360 37.530
18876 0 2 -2.000 97.995 35.445 2.085
18877 0 2 -2.000 100.080 35.445 0.000
18878 0 2 -2.000 97.995 37.530 0.000
18879 0 2 -2.000 95.910 33.360 2.085
18880 0 2 -2.000 97.995 35.445 6.255
18881 0 2 -2.000 100.080 35.445 4.170
18882 0 2 -2.000 97.995 37.530 4.170
18883 0 2 -2.000 95.910 33.360 6.255
18884 0 2 -2.000 97.995 35.445 10.425
18885 0 2 -2.000 100.080 35.445 8.340
18886 0 2 -2.000 97.995 37.530 8.340
18887 0 2 -2.000 95.910 33.360 10.425
18888 0 2 -2.000 97.995 35.445 14.595
18889 0 2 -2.000 100.080 35.445 12.510
18890 0 2 -2.000 97.995 37.530 12.510
18891 0 2 -2.000 95.910 33.360 14.595
18892 0 2 -2.000 97.995 35.445 18.765
18893 0 2 -2.000 100.080 35.445 16.680
18894 0 2 -2.000 97.995 37.530 16.680
18895 0 2 -2.000 95.910 33.360 18.765
18896 0 2 -2.000 97.995 35.445 22.935
18897 0 2 -2.000 100.080 35.445 20.850
18898 0 2 -2.000 97.995 37.530 20.850
18899 0 2 -2.000 95.910 33.360 22.935
18900 0 2 -2.000 97.995 35.445 27.105
18901 0 2 -2.000 100.080 35.445 25.020
18902 0 2 -2.000 97.995 37.530 25.020
18903 0 2 -2.000 95.910 33.360 27.105
18904 0 2 -2.000 97.995 35.445 31.275
18905 0 2 -2.000 100.080 35.445 29.190
18906 0 2 -2.000 97.995 37.530 29.190
18907 0 2 -2.000 95.910 33.360 31.275
18908 0 2 -2.000 97.995 35.445 35.445
18909 0 2 -2.000 100.080 35.445 33.360
18910 0 2 -2.000 97.995 37.530 33.360
18911 0 2 -2.000 95.910 33.360 35.445
18912 0 2 -2.000 97.995 35.445 39.615
18913 0 2 -2.000 100.080 35.445 37.530
18914 0 2 -2.000 97.995 37.530 37.530
18915 0 2 -2.000 97.995 39.615 2.085
18916 0 2 -2.000 100.080 39.615 0.000
18917 0 2 -2.000 97.995 0.000 0.000
18918 0 2 -2.000 95.910 37.530 2.085
18919 0 2 -2.000 97.995 39.615 6.255
18920 0 2 -2.000 100.080 39.615 4.170
18921 0 2 -2.000 97.995 0.000 4.170
18922 0 2 -2.000 95.910 37.530 6.255
18923 0 2 -2.000 97.995 39.615 10.425
18924 0 2 -2.000 100.080 39.615 8.340
18925 0 2 -2.000 97.995 0.000 8.340
18926 0 2 -2.000 95.910 37.530 10.425
18927 0 2 -2.000 97.995 39.615 14.595
18928 0 2 -2.000 100.080 39.615 12.510
18929 0 2 -2.000 97.995 0.000 12.510
18930 0 2 -2.000 95.910 37.530 14.595
18931 0 2 -2.000 97.995 39.615 18.765
18932 0 2 -2.000 100.080 39.615 16.680
18933 0 2 -2.000 97.995 0.000 16.680
18934 0 2 -2.000 95.910 37.530 18.765
18935 0 2 -2.000 97.995 39.615 22.935
18936 0 2 -2.000 100.080 39.615 20.850
18937 0 2 -2.000 97.995 0.000 20.850
18938 0 2 -2.000 95.910 37.530 22.935
18939 0 2 -2.000 97.995 39.615 27.105
18940 0 2 -2.000 100.080 39.615 25.020
18941 0 2 -2.000 97.995 0.000 25.020
18942 0 2 -2.000 95.910 37.530 27.105
18943 0 2 -2.000 97.995 39.615 31.275
18944 0 2 -2.000 100.080 39.615 29.190
18945 0 2 -2.000 97.995 0.000 29.190
18946 0 2 -2.000 95.910 37.530 31.275
18947 0 2 -2.000 97.995 39.615 35.445
18948 0 2 -2.000 100.080 39.615 33.360
18949 0 2 -2.000 97.995 0.000 33.360
18950 0 2 -2.000 95.910 37.530 35.445
18951 0 2 -2.000 97.995 39.615 39.615
18952 0 2 -2.000 100.080 39.615 37.530
18953 0 2 -2.000 97.995 0.000 37.530
18954 0 2 -2.000 95.910 37.530 39.615
18955 0 2 -2.000 102.165 2.085 2.085
18956 0 2 -2.000 104.250 2.085 0.000
18957 0 2 -2.000 102.165 4.170 0.000
18958 0 2 -2.000 100.080 0.000 2.085
18959 0 2 -2.000 102.165 2.085 6.255
18960 0 2 -2.000 104.250 2.085 4.170
18961 0 2 -2.000 102.165 4.170 4.170
18962 0 2 -2.000 100.080 0.000 6.255
18963 0 2 -2.000 102.165 2.085 10.425
18964 0 2 -2.000 104.250 2.085 8.340
18965 0 2 -2.000 102.165 4.170 8.340
18966 0 2 -2.000 100.080 0.000 10.425
18967 0 2 -2.000 102.165 2.085 14.595
18968 0 2 -2.000 104.250 2.085 12.510
18969 0 2 -2.000 102.165 4.170 12.510
18970 0 2 -2.000 100.080 0.000 14.595
18971 0 2 -2.000 102.165 2.085 18.765
18972 0 2 -2.000 104.250 2.085 16.680
18973 0 2 -2.000 102.165 4.170 16.680
18974 0 2 -2.000 100.080 0.000 18.765
18975 0 2 -2.000 102.165 2.085 22.935
18976 0 2 -2.000 104.250 2.085 20.850
18977 0 2 -2.000 102.165 4.170 20.850
18978 0 2 -2.000 100.080 0.000 22.935
18979 0 2 -2.000 102.165 2.085 27.105
18980 0 2 -2.000 104.250 2.085 25.020
18981 0 2 -2.000 102.165 4.170 25.020
18982 0 2 -2.000 100.080 0.000 27.105
18983 0 2 -2.000 102.165 2.085 31.275
18984 0 2 -2.000 104.250 2.085 29.190
18985 0 2 -2.000 102.165 4.170 29.190
18986 0 2 -2.000 100.080 0.000 31.275
18987 0 2 -2.000 102.165 2.085 35.445
18988 0 2 -2.000 104.250 2.085 33.360
18989 0 2 -2.000 102.165 4.170 33.360
18990 0 2 -2.000 100.080 0.000 35.445
18991 0 2 -2.000 102.165 2.085 39.615
18992 0 2 -2.000 104.250 2.085 37.530
18993 0 2 -2.000 102.165 4.170 37.530
18994 0 2 -2.000 100.080 0.000 39.615
18995 0 2 -2.000 102.165 6.255 2.085
18996 0 2 -2.000 104.250 6.255 0.000
18997 0 2 -2.000 102.165 8.340 0.000
18998 0 2 -2.000 100.080 4.170 2.085
18999 0 2 -2.000 102.165 6.255 6.255
19000 0 2 -2.000 104.250 6.255 4.170
19001 0 2 -2.000 102.165 8.340 4.170
19002 0 2 -2.000 100.080 4.170 6.255
19003 0 2 -2.000 102.165 6.255 10.425
19004 0 2 -2.000 104.250 6.255 8.340
19005 0 2 -2.000 102.165 8.340 8.340
19006 0 2 -2.000 100.080 4.170 10.425
19007 0 2 -2.000 102.165 6.255 14.595
19008 0 2 -2.000 104.250 6.255 12.510
19009 0 2 -2.000 102.165 8.340 12.510
19010 0 2 -2.000 100.080 4.170 14.595
19011 0 2 -2.000 102.165 6.255 18.765
19012 0 2 -2.000 104.250 6.255 16.680
19013 0 2 -2.000 102.165 8.340 16.680
19014 0 2 -2.000 100.080 4.170 18.765
19015 0 2 -2.000 102.165 6.255 22.935
19016 0 2 -2.000 104.250 6.255 20.850
19017 0 2 -2.000 102.165 8.340 20.850
19018 0 2 -2.000 100.080 4.170 22.935
19019 0 2 -2.000 102.165 6.255 27.105
19020 0 2 -2.000 104.250 6.255 25.020
19021 0 2 -2.000 102.165 8.340 25.020
19022 0 2 -2.000 100.080 4.170 27.105
19023 0 2 -2.000 102.165 6.255 31.275
19024 0 2 -2.000 104.250 6.255 29.190
19025 0 2 -2.000 102.165 8.340 29.190
19026 0 2 -2.000 100.080 4.170 31.275
19027 0 2 -2.000 102.165 6.255 35.445
19028 0 2 -2.000 104.250 6.255 33.360
19029 0 2 -2.000 102.165 8.340 33.360
19030 0 2 -2.000 100.080 4.170 35.445
19031 0 2 -2.000 102.165 6.255 39.615
19032 0 2 -2.000 104.250 6.255 37.530
19033 0 2 -2.000 102.165 8.340 37.530
19034 0 2 -2.000 100.080 4.170 39.615
19035 0 2 -2.000 102.165 10.425 2.085
19036 0 2 -2.000 104.250 10.425 0.000
19037 0 2 -2.000 102.165 12.510 0.000
19038 0 2 -2.000 100.080 8.340 2.085
19039 0 2 -2.000 102.165 10.425 6.255
19040 0 2 -2.000 104.250 10.425 4.170
19041 0 2 -2.000 102.165 12.510 4.170
19042 0 2 -2.000 100.080 8.340 6.255
19043 0 2 -2.000 102.165 10.425 10.425
19044 0 2 -2.000 104.250 10.425 8.340
19045 0 2 -2.000 102.165 12.510 8.340
19046 0 2 -2.000 100.080 8.340 10.425
19047 0 2 -2.000 102.165 10.425 14.595
19048 0 2 -2.000 104.250 10.425 12.510
19049 0 2 -2.000 102.165 12.510 12.510
19050 0 2 -2.000 100.080 8.340 14.595
19051 0 2 -2.000 102.165 10.425 18.765
19052 0 2 -2.000 104.250 10.425 16.680
19053 0 2 -2.000 102.165 12.510 16.680
19054 0 2 -2.000 100.080 8.340 18.765
19055 0 2 -2.000 102.165 10.425 22.935
19056 0 2 -2.000 104.250 10.425 20.850
19057 0 2 -2.000 102.165 12.510 20.850
19058 0 2 -2.000 100.080 8.340 22.935
19059 0 2 -2.000 102.165 10.425 27.105
19060 0 2 -2.000 104.250 10.425 25.020
19061 0 2 -2.000 102.165 12.510 25.020
19062 0 2 -2.000 100.080 8.340 27.105
19063 0 2 -2.000 102.165 10.425 31.275
19064 0 2 -2.000 104.250 10.425 29.190
19065 0 2 -2.000 102.165 12.510 29.190
19066 0 2 -2.000 100.080 8.340 31.275
19067 0 2 -2.000 102.165 10.425 35.445
19068 0 2 -2.000 104.250 10.425 33.360
19069 0 2 -2.000 102.165 12.510 33.360
19070 0 2 -2.000 100.080 8.340 35.445
19071 0 2 -2.000 102.165 14.595 2.085
19072 0 2 -2.000 104.250 14.595 0.000
19073 0 2 -2.000 102.165 16.680 0.000
19074 0 2 -2.000 100.080 12.510 2.085
19075 0 2 -2.000 102.165 14.595 6.255
19076 0 2 -2.000 104.250 14.595 4.170
19077 0 2 -2.000 102.165 16.680 4.170
19078 0 2 -2.000 100.080 12.510 6.255
19079 0 2 -2.000 102.165 14.595 10.425
19080 0 2 -2.000 104.250 14.595 8.340
19081 0 2 -2.000 102.165 16.680 8.340
19082 0 2 -2.000 100.080 12.510 10.425
19083 0 2 -2.000 102.165 14.595 14.595
19084 0 2 -2.000 104.250 14.595 12.510
19085 0 2 -2.000 102.165 16.680 12.510
19086 0 2 -2.000 100.080 12.510 14.595
19087 0 2 -2.000 102.165 14.595 18.765
19088 0 2 -2.000 104.250 14.595 16.680
19089 0 2 -2.000 102.165 16.680 16.680
19090 0 2 -2.000 100.080 12.510 18.765
19091 0 2 -2.000 102.165 14.595 22.935
19092 0 2 -2.000 104.250 14.595 20.850
19093 0 2 -2.000 102.165 16.680 20.850
19094 0 2 -2.000 100.080 12.510 22.935
19095 0 2 -2.000 102.165 14.595 27.105
19096 0 2 -2.000 104.250 14.595 25.020
19097 0 2 -2.000 102.165 16.680 25.020
19098 0 2 -2.000 100.080 12.510 27.105
19099 0 2 -2.000 102.165 14.595 31.275
19100 0 2 -2.000 104.250 14.595 29.190
19101 0 2 -2.000 102.165 16.680 29.190
19102 0 2 -2.000 100.080 12.510 31.275
19103 0 2 -2.000 102.165 18.765 2.085
19104 0 2 -2.000 104.250 18.765 0.000
19105 0 2 -2.000 102.165 20.850 0.000
19106 0 2 -2.000 100.080 16.680 2.085
19107 0 2 -2.000 102.165 18.765 6.255
19108 0 2 -2.000 104.250 18.765 4.170
19109 0 2 -2.000 102.165 20.850 4.170
19110 0 2 -2.000 100.080 16.680 6.255
19111 0 2 -2.000 102.165 18.765 10.425
19112 0 2 -2.000 104.250 18.765 8.340
19113 0 2 -2.000 102.165 20.850 8.340
19114 0 2 -2.000 100.080 16.680 10.425
19115 0 2 -2.000 102.165 18.765 14.595
19116 0 2 -2.000 104.250 18.765 12.510
19117 0 2 -2.000 102.165 20.850 12.510
19118 0 2 -2.000 100.080 16.680 14.595
19119 0 2 -2.000 102.165 18.765 18.765
19120 0 2 -2.000 104.250 18.765 16.680
19121 0 2 -2.000 102.165 20.850 16.680
19122 0 2 -2.000 100.080 16.680 18.765
19123 0 2 -2.000 102.165 18.765 22.935
19124 0 2 -2.000 104.250 18.765 20.850
19125 0 2 -2.000 102.165 20.850 20.850
19126 0 2 -2.000 100.080 16.680 22.935
19127 0 2 -2.000 102.165 18.765 27.105
19128 0 2 -2.000 104.250 18.765 25.020
19129 0 2 -2.000 102.165 20.850 25.020
19130 0 2 -2.000 100.080 16.680 27.105
19131 0 2 -2.000 102.165 22.935 2.085
19132 0 2 -2.000 104.250 22.935 0.000
19133 0 2 -2.000 102.165 25.020 0.000
19134 0 2 -2.000 100.080 20.850 2.085
19135 0 2 -2.000 102.165 22.935 6.255
19136 0 2 -2.000 104.250 22.935 4.170
19137 0 2 -2.000 102.165 25.020 4.170
19138 0 2 -2.000 100.080 20.850 6.255
19139 0 2 -2.000 102.165 22.935 10.425
19140 0 2 -2.000 104.250 22.935 8.340
19141 0 2 -2.000 102.165 25.020 8.340
19142 0 2 -2.000 100.080 20.850 10.425
19143 0 2 -2.000 102.165 22.935 14.595
19144 0 2 -2.000 104.250 22.935 12.510
19145 0 2 -2.000 102.165 25.020 12.510
19146 0 2 -2.000 100.080 20.850 14.595
19147 0 2 -2.000 102.165 22.935 18.765
19148 0 2 -2.000 104.250 22.935 16.680
19149 0 2 -2.000 102.165 25.020 16.680
19150 0 2 -2.000 100.080 20.850 18.765
19151 0 2 -2.000 102.165 22.935 22.935
19152 0 2 -2.000 104.250 22.935 20.850
19153 0 2 -2.000 102.165 25.020 20.850
19154 0 2 -2.000 100.080 20.850 22.935
19155 0 2 -2.000 102.165 22.935 27.105
19156 0 2 -2.000 104.250 22.935 25.020
19157 0 2 -2.000 102.165 25.020 25.020
19158 0 2 -2.000 102.165 25.020 29.190
19159 0 2 -2.000 102.165 27.105 2.085
19160 0 2 -2.000 104.250 27.105 0.000
19161 0 2 -2.000 102.165 29.190 0.000
19162 0 2 -2.000 100.080 25.020 2.085
19163 0 2 -2.000 102.165 27.105 6.255
19164 0 2 -2.000 104.250 27.105 4.170
19165 0 2 -2.000 102.165 29.190 4.170
19166 0 2 -2.000 100.080 25.020 6.255
19167 0 2 -2.000 102.165 27.105 10.425
19168 0 2 -2.000 104.250 27.105 8.340
19169 0 2 -2.000 102.165 29.190 8.340
19170 0 2 -2.000 100.080 25.020 10.425
19171 0 2 -2.000 102.165 27.105 14.595
19172 0 2 -2.000 104.250 27.105 12.510
19173 0 2 -2.000 102.165 29.190 12.510
19174 0 2 -2.000 100.080 25.020 14.595
19175 0 2 -2.000 102.165 27.105 18.765
19176 0 2 -2.000 104.250 27.105 16.680
19177 0 2 -2.000 102.165 29.190 16.680
19178 0 2 -2.000 100.080 25.020 18.765
19179 0 2 -2.000 102.165 27.105 22.935
19180 0 2 -2.000 104.250 27.105 20.850
19181 0 2 -2.000 102.165 29.190 20.850
19182 0 2 -2.000 100.080 25.020 22.935
19183 0 2 -2.000 102.165 27.105 27.105
19184 0 2 -2.000 104.250 27.105 25.020
19185 0 2 -2.000 102.165 29.190 25.020
19186 0 2 -2.000 100.080 25.020 27.105
19187 0 2 -2.000 102.165 27.105 31.275
19188 0 2 -2.000 104.250 27.105 29.190
19189 0 2 -2.000 102.165 29.190 29.190
19190 0 2 -2.000 102.165 29.190 33.360
19191 0 2 -2.000 102.165 31.275 2.085
19192 0 2 -2.000 104.250 31.275 0.000
19193 0 2 -2.000 102.165 33.360 0.000
19194 0 2 -2.000 100.080 29.190 2.085
19195 0 2 -2.000 102.165 31.275 6.255
19196 0 2 -2.000 104.250 31.275 4.170
19197 0 2 -2.000 102.165 33.360 4.170
19198 0 2 -2.000 100.080 29.190 6.255
19199 0 2 -2.000 102.165 31.275 10.425
19200 0 2 -2.000 104.250 31.275 8.340
19201 0 2 -2.000 102.165 33.360 8.340
19202 0 2 -2.000 100.080 29.190 10.425
19203 0 2 -2.000 102.165 31.275 14.595
19204 0 2 -2.000 104.250 31.275 12.510
19205 0 2 -2.000 102.165 33.360 12.510
19206 0 2 -2.000 100.080 29.190 14.595
19207 0 2 -2.000 102.165 31.275 18.765
19208 0 2 -2.000 104.250 31.275 16.680
19209 0 2 -2.000 102.165 33.360 16.680
19210 0 2 -2.000 100.080 29.190 18.765
19211 0 2 -2.000 102.165 31.275 22.935
19212 0 2 -2.000 104.250 31.275 20.850
19213 0 2 -2.000 102.165 33.360 20.850
19214 0 2 -2.000 100.080 29.190 22.935
19215 0 2 -2.000 102.165 31.275 27.105
19216 0 2 -2.000 104.250 31.275 25.020
19217 0 2 -2.000 102.165 33.360 25.020
19218 0 2 -2.000 100.080 29.190 27.105
19219 0 2 -2.000 102.165 31.275 31.275
19220 0 2 -2.000 104.250 31.275 29.190
19221 0 2 -2.000 102.165 33.360 29.190
19222 0 2 -2.000 100.080 29.190 31.275
19223 0 2 -2.000 102.165 31.275 35.445
19224 0 2 -2.000 104.250 31.275 33.360
19225 0 2 -2.000 102.165 33.360 33.360
19226 0 2 -2.000 102.165 33.360 37.530
19227 0 2 -2.000 102.165 35.445 2.085
19228 0 2 -2.000 104.250 35.445 0.000
19229 0 2 -2.000 102.165 37.530 0.000
19230 0 2 -2.000 100.080 33.360 2.085
19231 0 2 -2.000 102.165 35.445 6.255
19232 0 2 -2.000 104.250 35.445 4.170
19233 0 2 -2.000 102.165 37.530 4.170
19234 0 2 -2.000 100.080 33.360 6.255
19235 0 2 -2.000 102.165 35.445 10.425
19236 0 2 -2.000 104.250 35.445 8.340
19237 0 2 -2.000 102.165 37.530 8.340
19238 0 2 -2.000 100.080 33.360 10.425
19239 0 2 -2.000 102.165 35.445 14.595
19240 0 2 -2.000 104.250 35.445 12.510
19241 0 2 -2.000 102.165 37.530 12.510
19242 0 2 -2.000 100.080 33.360 14.595
19243 0 2 -2.000 102.165 35.445 18.765
19244 0 2 -2.000 104.250 35.445 16.680
19245 0 2 -2.000 102.165 37.530 16.680
19246 0 2 -2.000 100.080 33.360 18.765
19247 0 2 -2.000 102.165 35.445 22.935
19248 0 2 -2.000 104.250 35.445 20.850
19249 0 2 -2.000 102.165 37.530 20.850
19250 0 2 -2.000 100.080 33.360 22.935
19251 0 2 -2.000 102.165 35.445 27.105
19252 0 2 -2.000 104.250 35.445 25.020
19253 0 2 -2.000 102.165 37.530 25.020
19254 0 2 -2.000 100.080 33.360 27.105
19255 0 2 -2.000 102.165 35.445 31.275
19256 0 2 -2.000 104.250 35.445 29.190
19257 0 2 -2.000 102.165 37.530 29.190
19258 0 2 -2.000 100.080 33.360 31.275
19259 0 2 -2.000 102.165 35.445 35.445
19260 0 2 -2.000 104.250 35.445 33.360
19261 0 2 -2.000 102.165 37.530 33.360
19262 0 2 -2.000 100.080 33.360 35.445
19263 0 2 -2.000 102.165 35.445 39.615
19264 0 2 -2.000 104.250 35.445 37.530
19265 0 2 -2.000 102.165 37.530 37.530
19266 0 2 -2.000 102.165 39.615 2.085
19267 0 2 -2.000 104.250 39.615 0.000
19268 0 2 -2.000 102.165 0.000 0.000
19269 0 2 -2.000 100.080 37.530 2.085
19270 0 2 -2.000 102.165 39.615 6.255
19271 0 2 -2.000 104.250 39.615 4.170
19272 0 2 -2.000 102.165 0.000 4.170
19273 0 2 -2.000 100.080 37.530 6.255
19274 0 2 -2.000 102.165 39.615 10.425
19275 0 2 -2.000 104.250 39.615 8.340
19276 0 2 -2.000 102.165 0.000 8.340
19277 0 2 -2.000 100.080 37.530 10.425
19278 0 2 -2.000 102.165 39.615 14.595
19279 0 2 -2.000 104.250 39.615 12.510
19280 0 2 -2.000 102.165 0.000 12.510
19281 0 2 -2.000 100.080 37.530 14.595
19282 0 2 -2.000 102.165 39.615 18.765
19283 0 2 -2.000 104.250 39.615 16.680
19284 0 2 -2.000 102.165 0.000 16.680
19285 0 2 -2.000 100.080 37.530 18.765
19286 0 2 -2.000 102.165 39.615 22.935
19287 0 2 -2.000 104.250 39.615 20.850
19288 0 2 -2.000 102.165 0.000 20.850
19289 0 2 -2.000 100.080 37.530 22.935
19290 0 2 -2.000 102.165 39.615 27.105
19291 0 2 -2.000 104.250 39.615 25.020
19292 0 2 -2.000 102.165 0.000 25.020
19293 0 2 -2.000 100.080 37.530 27.105
19294 0 2 -2.000 102.165 39.615 31.275
19295 0 2 -2.000 104.250 39.615 29.190
19296 0 2 -2.000 102.165 0.000 29.190
19297 0 2 -2.000 100.080 37.530 31.275
19298 0 2 -2.000 102.165 39.615 35.445
19299 0 2 -2.000 104.250 39.615 33.360
19300 0 2 -2.000 102.165 0.000 33.360
19301 0 2 -2.000 100.080 37.530 35.445
19302 0 2 -2.000 102.165 39.615 39.615
19303 0 2 -2.000 104.250 39.615 37.530
19304 0 2 -2.000 102.165 0.000 37.530
19305 0 2 -2.000 100.080 37.530 39.615
19306 0 2 -2.000 106.335 2.085 2.085
19307 0 2 -2.000 108.420 2.085 0.000
19308 0 2 -2.000 106.335 4.170 0.000
19309 0 2 -2.000 104.250 0.000 2.085
19310 0 2 -2.000 106.335 2.085 6.255
19311 0 2 -2.000 108.420 2.085 4.170
19312 0 2 -2.000 106.335 4.170 4.170
19313 0 2 -2.000 104.250 0.000 6.255
19314 0 2 -2.000 106.335 2.085 10.425
19315 0 2 -2.000 108.420 2.085 8.340
19316 0 2 -2.000 106.335 4.170 8.340
19317 0 2 -2.000 104.250 0.000 10.425
19318 0 2 -2.000 106.335 2.085 14.595
19319 0 2 -2.000 108.420 2.085 12.510
19320 0 2 -2.000 106.335 4.170 12.510
19321 0 2 -2.000 104.250 0.000 14.595
19322 0 2 -2.000 106.335 2.085 18.765
19323 0 2 -2.000 108.420 2.085 16.680
19324 0 2 -2.000 106.335 4.170 16.680
19325 0 2 -2.000 104.250 0.000 18.765
19326 0 2 -2.000 106.335 2.085 22.935
19327 0 2 -2.000 108.420 2.085 20.850
19328 0 2 -2.000 106.335 4.170 20.850
19329 0 2 -2.000 104.250 0.000 22.935
19330 0 2 -2.000 106.335 2.085 27.105
19331 0 2 -2.000 108.420 2.085 25.020
19332 0 2 -2.000 106.335 4.170 25.020
19333 0 2 -2.000 104.250 0.000 27.105
19334 0 2 -2.000 106.335 2.085 31.275
19335 0 2 -2.000 108.420 2.085 29.190
19336 0 2 -2.000 106.335 4.170 29.190
19337 0 2 -2.000 104.250 0.000 31.275
19338 0 2 -2.000 106.335 2.085 35.445
19339 0 2 -2.000 108.420 2.085 33.360
19340 0 2 -2.000 106.335 4.170 33.360
19341 0 2 -2.000 104.250 0.000 35.445
19342 0 2 -2.000 106.335 2.085 39.615
19343 0 2 -2.000 108.420 2.085 37.530
19344 0 2 -2.000 106.335 4.170 37.530
19345 0 2 -2.000 104.250 0.000 39.615
19346 0 2 -2.000 106.335 6.255 2.085
19347 0 2 -2.000 108.420 6.255 0.000
19348 0 2 -2.000 106.335 8.340 0.000
19349 0 2 -2.000 104.250 4.170 2.085
19350 0 2 -2.000 106.335 6.255 6.255
19351 0 2 -2.000 108.420 6.255 4.170
19352 0 2 -2.000 106.335 8.340 4.170
19353 0 2 -2.000 104.250 4.170 6.255
19354 0 2 -2.000 106.335 6.255 10.425
19355 0 2 -2.000 108.420 6.255 8.340
19356 0 2 -2.000 106.335 8.340 8.340
19357 0 2 -2.000 104.250 4.170 10.425
19358 0 2 -2.000 106.335 6.255 14.595
19359 0 2 -2.000 108.420 6.255 12.510
19360 0 2 -2.000 106.335 8.340 12.510
19361 0 2 -2.000 104.250 4.170 14.595
19362 0 2 -2.000 106.335 6.255 18.765
19363 0 2 -2.000 108.420 6.255 16.680
19364 0 2 -2.000 106.335 8.340 16.680
19365 0 2 -2.000 104.250 4.170 18.765
19366 0 2 -2.000 106.335 6.255 22.935
19367 0 2 -2.000 108.420 6.255 20.850
19368 0 2 -2.000 106.335 8.340 20.850
19369 0 2 -2.000 104.250 4.170 22.935
19370 0 2 -2.000 106.335 6.255 27.105
19371 0 2 -2.000 108.420 6.255 25.020
19372 0 2 -2.000 106.335 8.340 25.020
19373 0 2 -2.000 104.250 4.170 27.105
19374 0 2 -2.000 106.335 6.255 31.275
19375 0 2 -2.000 108.420 6.255 29.190
19376 0 2 -2.000 106.335 8.340 29.190
19377 0 2 -2.000 104.250 4.170 31.275
19378 0 2 -2.000 106.335 6.255 35.445
19379 0 2 -2.000 108.420 6.255 33.360
19380 0 2 -2.000 106.335 8.340 33.360
19381 0 2 -2.000 104.250 4.170 35.445
19382 0 2 -2.000 106.335 6.255 39.615
19383 0 2 -2.000 108.420 6.255 37.530
19384 0 2 -2.000 106.335 8.340 37.530
19385 0 2 -2.000 104.250 4.170 39.615
19386 0 2 -2.000 106.335 10.425 2.085
19387 0 2 -2.000 108.420 10.425 0.000
19388 0 2 -2.000 106.335 12.510 0.000
19389 0 2 -2.000 104.250 8.340 2.085
19390 0 2 -2.000 106.335 10.425 6.255
19391 0 2 -2.000 108.420 10.425 4.170
19392 0 2 -2.000 106.335 12.510 4.170
19393 0 2 -2.000 104.250 8.340 6.255
19394 0 2 -2.000 106.335 10.425 10.425
19395 0 2 -2.000 108.420 10.425 8.340
19396 0 2 -2.000 106.335 12.510 8.340
19397 0 2 -2.000 104.250 8.340 10.425
19398 0 2 -2.000 106.335 10.425 14.595
19399 0 2 -2.000 108.420 10.425 12.510
19400 0 2 -2.000 106.335 12.510 12.510
19401 0 2 -2.000 104.250 8.340 14.595
19402 0 2 -2.000 106.335 10.425 18.765
19403 0 2 -2.000 108.420 10.425 16.680
19404 0 2 -2.000 106.335 12.510 16.680
19405 0 2 -2.000 104.250 8.340 18.765
19406 0 2 -2.000 106.335 10.425 22.935
19407 0 2 -2.000 108.420 10.425 20.850
19408 0 2 -2.000 106.335 12.510 20.850
19409 0 2 -2.000 104.250 8.340 22.935
19410 0 2 -2.000 106.335 10.425 27.105
19411 0 2 -2.000 108.420 10.425 25.020
19412 0 2 -2.000 106.335 12.510 25.020
19413 0 2 -2.000 104.250 8.340 27.105
19414 0 2 -2.000 106.335 10.425 31.275
19415 0 2 -2.000 108.420 10.425 29.190
19416 0 2 -2.000 106.335 12.510 29.190
19417 0 2 -2.000 104.250 8.340 31.275
19418 0 2 -2.000 106.335 10.425 35.445
19419 0 2 -2.000 108.420 10.425 33.360
19420 0 2 -2.000 106.335 12.510 33.360
19421 0 2 -2.000 104.250 8.340 35.445
19422 0 2 -2.000 106.335 14.595 2.085
19423 0 2 -2.000 108.420 14.595 0.000
19424 0 2 -2.000 106.335 16.680 0.000
19425 0 2 -2.000 104.250 12.510 2.085
19426 0 2 -2.000 106.335 14.595 6.255
19427 0 2 -2.000 108.420 14.595 4.170
19428 0 2 -2.000 106.335 16.680 4.170
19429 0 2 -2.000 104.250 12.510 6.255
19430 0 2 -2.000 106.335 14.595 10.425
19431 0 2 -2.000 108.420 14.595 8.340
19432 0 2 -2.000 106.335 16.680 8.340
19433 0 2 -2.000 104.250 12.510 10.425
19434 0 2 -2.000 106.335 14.595 14.595
19435 0 2 -2.000 108.420 14.595 12.510
19436 0 2 -2.000 106.335 16.680 12.510
19437 0 2 -2.000 104.250 12.510 14.595
19438 0 2 -2.000 106.335 14.595 18.765
19439 0 2 -2.000 108.420 14.595 16.680
19440 0 2 -2.000 106.335 16.680 16.680
19441 0 2 -2.000 104.250 12.510 18.765
19442 0 2 -2.000 106.335 14.595 22.935
19443 0 2 -2.000 108.420 14.595 20.850
19444 0 2 -2.000 106.335 16.680 20.850
19445 0 2 -2.000 104.250 12.510 22.935
19446 0 2 -2.000 106.335 14.595 27.105
19447 0 2 -2.000 108.420 14.595 25.020
19448 0 2 -2.000 106.335 16.680 25.020
19449 0 2 -2.000 104.250 12.510 27.105
19450 0 2 -2.000 106.335 14.595 31.275
19451 0 2 -2.000 108.420 14.595 29.190
19452 0 2 -2.000 106.335 16.680 29.190
19453 0 2 -2.000 104.250 12.510 31.275
19454 0 2 -2.000 106.335 18.765 2.085
19455 0 2 -2.000 108.420 18.765 0.000
19456 0 2 -2.000 106.335 20.850 0.000
19457 0 2 -2.000 104.250 16.680 2.085
19458 0 2 -2.000 106.335 18.765 6.255
19459 0 2 -2.000 108.420 18.765 4.170
19460 0 2 -2.000 106.335 20.850 4.170
19461 0 2 -2.000 104.250 16.680 6.255
19462 0 2 -2.000 106.335 18.765 10.425
19463 0 2 -2.000 108.420 18.765 8.340
19464 0 2 -2.000 106.335 20.850 8.340
19465 0 2 -2.000 104.250 16.680 10.425
19466 0 2 -2.000 106.335 18.765 14.595
19467 0 2 -2.000 108.420 18.765 12.510
19468 0 2 -2.000 106.335 20.850 12.510
19469 0 2 -2.000 104.250 16.680 14.595
19470 0 2 -2.000 106.335 18.765 18.765
19471 0 2 -2.000 108.420 18.765 16.680
19472 0 2 -2.000 106.335 20.850 16.680
19473 0 2 -2.000 104.250 16.680 18.765
19474 0 2 -2.000 106.335 18.765 22.935
19475 0 2 -2.000 108.420 18.765 20.850
19476 0 2 -2.000 106.335 20.850 20.850
19477 0 2 -2.000 104.250 16.680 22.935
19478 0 2 -2.000 106.335 18.765 27.105
19479 0 2 -2.000 108.420 18.765 25.020
19480 0 2 -2.000 106.335 20.850 25.020
19481 0 2 -2.000 104.250 16.680 27.105
19482 0 2 -2.000 106.335 22.935 2.085
19483 0 2 -2.000 108.420 22.935 0.000
19484 0 2 -2.000 106.335 25.020 0.000
19485 0 2 -2.000 104.250 20.850 2.085
19486 0 2 -2.000 106.335 22.935 6.255
19487 0 2 -2.000 108.420 22.935 4.170
19488 0 2 -2.000 106.335 25.020 4.170
19489 0 2 -2.000 104.250 20.850 6.255
19490 0 2 -2.000 106.335 22.935 10.425
19491 0 2 -2.000 108.420 22.935 8.340
19492 0 2 -2.000 106.335 25.020 8.340
19493 0 2 -2.000 104.250 20.850 10.425
19494 0 2 -2.000 106.335 22.935 14.595
19495 0 2 -2.000 108.420 22.935 12.510
19496 0 2 -2.000 106.335 25.020 12.510
19497 0 2 -2.000 104.250 20.850 14.595
19498 0 2 -2.000 106.335 22.935 18.765
19499 0 2 -2.000 108.420 22.935 16.680
19500 0 2 -2.000 106.335 25.020 16.680
19501 0 2 -2.000 104.250 20.850 18.765
19502 0 2 -2.000 106.335 22.935 22.935
19503 0 2 -2.000 108.420 22.935 20.850
19504 0 2 -2.000 106.335 25.020 20.850
19505 0 2 -2.000 104.250 20.850 22.935
19506 0 2 -2.000 106.335 22.935 27.105
19507 0 2 -2.000 108.420 22.935 25.020
19508 0 2 -2.000 106.335 25.020 25.020
19509 0 2 -2.000 106.335 25.020 29.190
19510 0 2 -2.000 106.335 27.105 2.085
19511 0 2 -2.000 108.420 27.105 0.000
19512 0 2 -2.000 106.335 29.190 0.000
19513 0 2 -2.000 104.250 25.020 2.085
19514 0 2 -2.000 106.335 27.105 6.255
19515 0 2 -2.000 108.420 27.105 4.170
19516 0 2 -2.000 106.335 29.190 4.170
19517 0 2 -2.000 104.250 25.020 6.255
19518 0 2 -2.000 106.335 27.105 10.425
19519 0 2 -2.000 108.420 27.105 8.340
19520 0 2 -2.000 106.335 29.190 8.340
19521 0 2 -2.000 104.250 25.020 10.425
19522 0 2 -2.000 106.335 27.105 14.595
19523 0 2 -2.000 108.420 27.105 12.510
19524 0 2 -2.000 106.335 29.190 12.510
19525 0 2 -2.000 104.250 25.020 14.595
19526 0 2 -2.000 106.335 27.105 18.765
19527 0 2 -2.000 108.420 27.105 16.680
19528 0 2 -2.000 106.335 29.190 16.680
19529 0 2 -2.000 104.250 25.020 18.765
19530 0 2 -2.000 106.335 27.105 22.935
19531 0 2 -2.000 108.420 27.105 20.850
19532 0 2 -2.000 106.335 29.190 20.850
19533 0 2 -2.000 104.250 25.020 22.935
19534 0 2 -2.000 106.335 27.105 27.105
19535 0 2 -2.000 108.420 27.105 25.020
19536 0 2 -2.000 106.335 29.190 25.020
19537 0 2 -2.000 104.250 25.020 27.105
19538 0 2 -2.000 106.335 27.105 31.275
19539 0 2 -2.000 108.420 27.105 29.190
19540 0 2 -2.000 106.335 29.190 29.190
19541 0 2 -2.000 106.335 29.190 33.360
19542 0 2 -2.000 106.335 31.275 2.085
19543 0 2 -2.000 108.420 31.275 0.000
19544 0 2 -2.000 106.335 33.360 0.000
19545 0 2 -2.000 104.250 29.190 2.085
19546 0 2 -2.000 106.335 31.275 6.255
19547 0 2 -2.000 108.420 31.275 4.170
19548 0 2 -2.000 106.335 33.360 4.170
19549 0 2 -2.000 104.250 29.190 6.255
19550 0 2 -2.000 106.335 31.275 10.425
19551 0 2 -2.000 108.420 31.275 8.340
19552 0 2 -2.000 106.335 33.360 8.340
19553 0 2 -2.000 104.250 29.190 10.425
19554 0 2 -2.000 106.335 31.275 14.595
19555 0 2 -2.000 108.420 31.275 12.510
19556 0 2 -2.000 106.335 33.360 12.510
19557 0 2 -2.000 104.250 29.190 14.595
19558 0 2 -2.000 106.335 31.275 18.765
19559 0 2 -2.000 108.420 31.275 16.680
19560 0 2 -2.000 106.335 33.360 16.680
19561 0 2 -2.000 104.250 29.190 18.765
19562 0 2 -2.000 106.335 31.275 22.935
19563 0 2 -2.000 108.420 31.275 20.850
19564 0 2 -2.000 106.335 33.360 20.850
19565 0 2 -2.000 104.250 29.190 22.935
19566 0 2 -2.000 106.335 31.275 27.105
19567 0 2 -2.000 108.420 31.275 25.020
19568 0 2 -2.000 106.335 33.360 25.020
19569 0 2 -2.000 104.250 29.190 27.105
19570 0 2 -2.000 106.335 31.275 31.275
19571 0 2 -2.000 108.420 31.275 29.190
19572 0 2 -2.000 106.335 33.360 29.190
19573 0 2 -2.000 104.250 29.190 31.275
19574 0 2 -2.000 106.335 31.275 35.445
19575 0 2 -2.000 108.420 31.275 33.360
19576 0 2 -2.000 106.335 33.360 33.360
19577 0 2 -2.000 106.335 33.360 37.530
19578 0 2 -2.000 106.335 35.445 2.085
19579 0 2 -2.000 108.420 35.445 0.000
19580 0 2 -2.000 106.335 37.530 0.000
19581 0 2 -2.000 104.250 33.360 2.085
19582 0 2 -2.000 106.335 35.445 6.255
19583 0 2 -2.000 108.420 35.445 4.170
19584 0 2 -2.000 106.335 37.530 4.170
19585 0 2 -2.000 104.250 33.360 6.255
19586 0 2 -2.000 106.335 35.445 10.425
19587 0 2 -2.000 108.420 35.445 8.340
19588 0 2 -2.000 106.335 37.530 8.340
19589 0 2 -2.000 104.250 33.360 10.425
19590 0 2 -2.000 106.335 35.445 14.595
19591 0 2 -2.000 108.420 35.445 12.510
19592 0 2 -2.000 106.335 37.530 12.510
19593 0 2 -2.000 104.250 33.360 14.595
19594 0 2 -2.000 106.335 35.445 18.765
19595 0 2 -2.000 108.420 35.445 16.680
19596 0 2 -2.000 106.335 37.530 16.680
19597 0 2 -2.000 104.250 33.360 18.765
19598 0 2 -2.000 106.335 35.445 22.935
19599 0 2 -2.000 108.420 35.445 20.850
19600 0 2 -2.000 106.335 37.530 20.850
19601 0 2 -2.000 104.250 33.360 22.935
19602 0 2 -2.000 106.335 35.445 27.105
19603 0 2 -2.000 108.420 35.445 25.020
19604 0 2 -2.000 106.335 37.530 25.020
19605 0 2 -2.000 104.250 33.360 27.105
19606 0 2 -2.000 106.335 35.445 31.275
19607 0 2 -2.000 108.420 35.445 29.190
19608 0 2 -2.000 106.335 37.530 29.190
19609 0 2 -2.000 104.250 33.360 31.275
19610 0 2 -2.000 106.335 35.445 35.445
19611 0 2 -2.000 108.420 35.445 33.360
19612 0 2 -2.000 106.335 37.530 33.360
19613 0 2 -2.000 104.250 33.360 35.445
19614 0 2 -2.000 106.335 35.445 39.615
19615 0 2 -2.000 108.420 35.445 37.530
19616 0 2 -2.000 106.335 37.530 37.530
19617 0 2 -2.000 106.335 39.615 2.085
19618 0 2 -2.000 108.420 39.615 0.000
19619 0 2 -2.000 106.335 0.000 0.000
19620 0 2 -2.000 104.250 37.530 2.085
19621 0 2 -2.000 106.335 39.615 6.255
19622 0 2 -2.000 108.420 39.615 4.170
19623 0 2 -2.000 106.335 0.000 4.170
19624 0 2 -2.000 104.250 37.530 6.255
19625 0 2 -2.000 106.335 39.615 10.425
19626 0 2 -2.000 108.420 39.615 8.340
19627 0 2 -2.000 106.335 0.000 8.340
19628 0 2 -2.000 104.250 37.530 10.425
19629 0 2 -2.000 106.335 39.615 14.595
19630 0 2 -2.000 108.420 39.615 12.510
19631 0 2 -2.000 106.335 0.000 12.510
19632 0 2 -2.000 104.250 37.530 14.595
19633 0 2 -2.000 106.335 39.615 18.765
19634 0 2 -2.000 108.420 39.615 16.680
19635 0 2 -2.000 106.335 0.000 16.680
19636 0 2 -2.000 104.250 37.530 18.765
19637 0 2 -2.000 106.335 39.615 22.935
19638 0 2 -2.000 108.420 39.615 20.850
19639 0 2 -2.000 106.335 0.000 20.850
19640 0 2 -2.000 104.250 37.530 22.935
19641 0 2 -2.000 106.335 39.615 27.105
19642 0 2 -2.000 108.420 39.615 25.020
19643 0 2 -2.000 106.335 0.000 25.020
19644 0 2 -2.000 104.250 37.530 27.105
19645 0 2 -2.000 106.335 39.615 31.275
19646 0 2 -2.000 108.420 39.615 29.190
19647 0 2 -2.000 106.335 0.000 29.190
19648 0 2 -2.000 104.250 37.530 31.275
19649 0 2 -2.000 106.335 39.615 35.445
19650 0 2 -2.000 108.420 39.615 33.360
19651 0 2 -2.000 106.335 0.000 33.360
19652 0 2 -2.000 104.250 37.530 35.445
19653 0 2 -2.000 106.335 39.615 39.615
19654 0 2 -2.000 108.420 39.615 37.530
19655 0 2 -2.000 106.335 0.000 37.530
19656 0 2 -2.000 104.250 37.530 39.615
19657 0 2 -2.000 110.505 2.085 2.085
19658 0 2 -2.000 112.590 2.085 0.000
19659 0 2 -2.000 110.505 4.170 0.000
19660 0 2 -2.000 108.420 0.000 2.085
19661 0 2 -2.000 110.505 2.085 6.255
19662 0 2 -2.000 112.590 2.085 4.170
19663 0 2 -2.000 110.505 4.170 4.170
19664 0 2 -2.000 108.420 0.000 6.255
19665 0 2 -2.000 110.505 2.085 10.425
19666 0 2 -2.000 112.590 2.085 8.340
19667 0 2 -2.000 110.505 4.170 8.340
19668 0 2 -2.000 108.420 0.000 10.425
19669 0 2 -2.000 110.505 2.085 14.595
19670 0 2 -2.000 112.590 2.085 12.510
19671 0 2 -2.000 110.505 4.170 12.510
19672 0 2 -2.000 108.420 0.000 14.595
19673 0 2 -2.000 110.505 2.085 18.765
19674 0 2 -2.000 112.590 2.085 16.680
19675 0 2 -2.000 110.505 4.170 16.680
19676 0 2 -2.000 108.420 0.000 18.765
19677 0 2 -2.000 110.505 2.085 22.935
19678 0 2 -2.000 112.590 2.085 20.850
19679 0 2 -2.000 110.505 4.170 20.850
19680 0 2 -2.000 108.420 0.000 22.935
19681 0 2 -2.000 110.505 2.085 27.105
19682 0 2 -2.000 112.590 2.085 25.020
19683 0 2 -2.000 110.505 4.170 25.020
19684 0 2 -2.000 108.420 0.000 27.105
19685 0 2 -2.000 110.505 2.085 31.275
19686 0 2 -2.000 112.590 2.085 29.190
19687 0 2 -2.000 110.505 4.170 29.190
19688 0 2 -2.000 108.420 0.000 31.275
19689 0 2 -2.000 110.505 2.085 35.445
19690 0 2 -2.000 112.590 2.085 33.360
19691 0 2 -2.000 110.505 4.170 33.360
19692 0 2 -2.000 108.420 0.000 35.445
19693 0 2 -2.000 110.505 2.085 39.615
19694 0 2 -2.000 112.590 2.085 37.530
19695 0 2 -2.000 110.505 4.170 37.530
19696 0 2 -2.000 108.420 0.000 39.615
19697 0 2 -2.000 110.505 6.255 2.085
19698 0 2 -2.000 112.590 6.255 0.000
19699 0 2 -2.000 110.505 8.340 0.000
19700 0 2 -2.000 108.420 4.170 2.085
19701 0 2 -2.000 110.505 6.255 6.255
19702 0 2 -2.000 112.590 6.255 4.170
19703 0 2 -2.000 110.505 8.340 4.170
19704 0 2 -2.000 108.420 4.170 6.255
19705 0 2 -2.000 110.505 6.255 10.425
19706 0 2 -2.000 112.590 6.255 8.340
19707 0 2 -2.000 110.505 8.340 8.340
19708 0 2 -2.000 108.420 4.170 10.425
19709 0 2 -2.000 110.505 6.255 14.595
19710 0 2 -2.000 112.590 6.255 12.510
19711 0 2 -2.000 110.505 8.340 12.510
19712 0 2 -2.000 108.420 4.170 14.595
19713 0 2 -2.000 110.505 6.255 18.765
19714 0 2 -2.000 112.590 6.255 16.680
19715 0 2 -2.000 110.505 8.340 16.680
19716 0 2 -2.000 108.420 4.170 18.765
19717 0 2 -2.000 110.505 6.255 22.935
19718 0 2 -2.000 112.590 6.255 20.850
19719 0 2 -2.000 110.505 8.340 20.850
19720 0 2 -2.000 108.420 4.170 22.935
19721 0 2 -2.000 110.505 6.255 27.105
19722 0 2 -2.000 112.590 6.255 25.020
19723 0 2 -2.000 110.505 8.340 25.020
19724 0 2 -2.000 108.420 4.170 27.105
19725 0 2 -2.000 110.505 6.255 31.275
19726 0 2 -2.000 112.590 6.255 29.190
19727 0 2 -2.000 110.505 8.340 29.190
19728 0 2 -2.000 108.420 4.170 31.275
19729 0 2 -2.000 110.505 6.255 35.445
19730 0 2 -2.000 112.590 6.255 33.360
19731 0 2 -2.000 110.505 8.340 33.360
19732 0 2 -2.000 108.420 4.170 35.445
19733 0 2 -2.000 110.505 6.255 39.615
19734 0 2 -2.000 112.590 6.255 37.530
19735 0 2 -2.000 110.505 8.340 37.530
19736 0 2 -2.000 108.420 4.170 39.615
19737 0 2 -2.000 110.505 10.425 2.085
19738 0 2 -2.000 112.590 10.425 0.000
19739 0 2 -2.000 110.505 12.510 0.000
19740 0 2 -2.000 108.420 8.340 2.085
19741 0 2 -2.000 110.505 10.425 6.255
19742 0 2 -2.000 112.590 10.425 4.170
19743 0 2 -2.000 110.505 12.510 4.170
19744 0 2 -2.000 108.420 8.340 6.255
19745 0 2 -2.000 110.505 10.425 10.425
19746 0 2 -2.000 112.590 10.425 8.340
19747 0 2 -2.000 110.505 12.510 8.340
19748 0 2 -2.000 108.420 8.340 10.425
19749 0 2 -2.000 110.505 10.425 14.595
19750 0 2 -2.000 112.590 10.425 12.510
19751 0 2 -2.000 110.505 12.510 12.510
19752 0 2 -2.000 108.420 8.340 14.595
19753 0 2 -2.000 110.505 10.425 18.765
19754 0 2 -2.000 112.590 10.425 16.680
19755 0 2 -2.000 110.505 12.510 16.680
19756 0 2 -2.000 108.420 8.340 18.765
19757 0 2 -2.000 110.505 10.425 22.935
19758 0 2 -2.000 112.590 10.425 20.850
19759 0 2 -2.000 110.505 12.510 20.850
19760 0 2 -2.000 108.420 8.340 22.935
19761 0 2 -2.000 110.505 10.425 27.105
19762 0 2 -2.000 112.590 10.425 25.020
19763 0 2 -2.000 110.505 12.510 25.020
19764 0 2 -2.000 108.420 8.340 27.105
19765 0 2 -2.000 110.505 10.425 31.275
19766 0 2 -2.000 112.590 10.425 29.190
19767 0 2 -2.000 110.505 12.510 29.190
19768 0 2 -2.000 108.420 8.340 31.275
19769 0 2 -2.000 110.505 10.425 35.445
19770 0 2 -2.000 112.590 10.425 33.360
19771 0 2 -2.000 110.505 12.510 33.360
19772 0 2 -2.000 108.420 8.340 35.445
19773 0 2 -2.000 110.505 14.595 2.085
19774 0 2 -2.000 112.590 14.595 0.000
19775 0 2 -2.000 110.505 16.680 0.000
19776 0 2 -2.000 108.420 12.510 2.085
19777 0 2 -2.000 110.505 14.595 6.255
19778 0 2 -2.000 112.590 14.595 4.170
19779 0 2 -2.000 110.505 16.680 4.170
19780 0 2 -2.000 108.420 12.510 6.255
19781 0 2 -2.000 110.505 14.595 10.425
19782 0 2 -2.000 112.590 14.595 8.340
19783 0 2 -2.000 110.505 16.680 8.340
19784 0 2 -2.000 108.420 12.510 10.425
19785 0 2 -2.000 110.505 14.595 14.595
19786 0 2 -2.000 112.590 14.595 12.510
19787 0 2 -2.000 110.505 16.680 12.510
19788 0 2 -2.000 108.420 12.510 14.595
19789 0 2 -2.000 110.505 14.595 18.765
19790 0 2 -2.000 112.590 14.595 16.680
19791 0 2 -2.000 110.505 16.680 16.680
19792 0 2 -2.000 108.420 12.510 18.765
19793 0 2 -2.000 110.505 14.595 22.935
19794 0 2 -2.000 112.590 14.595 20.850
19795 0 2 -2.000 110.505 16.680 20.850
19796 0 2 -2.000 108.420 12.510 22.935
19797 0 2 -2.000 110.505 14.595 27.105
19798 0 2 -2.000 112.590 14.595 25.020
19799 0 2 -2.000 110.505 16.680 25.020
19800 0 2 -2.000 108.420 12.510 27.105
19801 0 2 -2.000 110.505 14.595 31.275
19802 0 2 -2.000 112.590 14.595 29.190
19803 0 2 -2.000 110.505 16.680 29.190
19804 0 2 -2.000 108.420 12.510 31.275
19805 0 2 -2.000 110.505 18.765 2.085
19806 0 2 -2.000 112.590 18.765 0.000
19807 0 2 -2.000 110.505 20.850 0.000
19808 0 2 -2.000 108.420 16.680 2.085
19809 0 2 -2.000 110.505 18.765 6.255
19810 0 2 -2.000 112.590 18.765 4.170
19811 0 2 -2.000 110.505 20.850 4.170
19812 0 2 -2.000 108.420 16.680 6.255
19813 0 2 -2.000 110.505 18.765 10.425
19814 0 2 -2.000 112.590 18.765 8.340
19815 0 2 -2.000 110.505 20.850 8.340
19816 0 2 -2.000 108.420 16.680 10.425
19817 0 2 -2.000 110.505 18.765 14.595
19818 0 2 -2.000 112.590 18.765 12.510
19819 0 2 -2.000 110.505 20.850 12.510
19820 0 2 -2.000 108.420 16.680 14.595
19821 0 2 -2.000 110.505 18.765 18.765
19822 0 2 -2.000 112.590 18.765 16.680
19823 0 2 -2.000 110.505 20.850 16.680
19824 0 2 -2.000 108.420 16.680 18.765
19825 0 2 -2.000 110.505 18.765 22.935
19826 0 2 -2.000 112.590 18.765 20.850
19827 0 2 -2.000 110.505 20.850 20.850
19828 0 2 -2.000 108.420 16.680 22.935
19829 0 2 -2.000 110.505 18.765 27.105
19830 0 2 -2.000 112.590 18.765 25.020
19831 0 2 -2.000 110.505 20.850 25.020
19832 0 2 -2.000 108.420 16.680 27.105
19833 0 2 -2.000 110.505 22.935 2.085
19834 0 2 -2.000 112.590 22.935 0.000
19835 0 2 -2.000 110.505 25.020 0.000
19836 0 2 -2.000 108.420 20.850 2.085
19837 0 2 -2.000 110.505 22.935 6.255
19838 0 2 -2.000 112.590 22.935 4.170
19839 0 2 -2.000 110.505 25.020 4.170
19840 0 2 -2.000 108.420 20.850 6.255
19841 0 2 -2.000 110.505 22.935 10.425
19842 0 2 -2.000 112.590 22.935 8.340
19843 0 2 -2.000 110.505 25.020 8.340
19844 0 2 -2.000 108.420 20.850 10.425
19845 0 2 -2.000 110.505 22.935 14.595
19846 0 2 -2.000 112.590 22.935 12.510
19847 0 2 -2.000 110.505 25.020 12.510
19848 0 2 -2.000 108.420 20.850 14.595
19849 0 2 -2.000 110.505 22.935 18.765
19850 0 2 -2.000 112.590 22.935 16.680
19851 0 2 -2.000 110.505 25.020 16.680
19852 0 2 -2.000 108.420 20.850 18.765
19853 0 2 -2.000 110.505 22.935 22.935
19854 0 2 -2.000 112.590 22.935 20.850
19855 0 2 -2.000 110.505 25.020 20.850
19856 0 2 -2.000 108.420 20.850 22.935
19857 0 2 -2.000 110.505 22.935 27.105
19858 0 2 -2.000 112.590 22.935 25.020
19859 0 2 -2.000 110.505 25.020 25.020
19860 0 2 -2.000 110.505 25.020 29.190
19861 0 2 -2.000 110.505 27.105 2.085
19862 0 2 -2.000 112.590 27.105 0.000
19863 0 2 -2.000 110.505 29.190 0.000
19864 0 2 -2.000 108.420 25.020 2.085
19865 0 2 -2.000 110.505 27.105 6.255
19866 0 2 -2.000 112.590 27.105 4.170
19867 0 2 -2.000 110.505 29.190 4.170
19868 0 2 -2.000 108.420 25.020 6.255
19869 0 2 -2.000 110.505 27.105 10.425
19870 0 2 -2.000 112.590 27.105 8.340
19871 0 2 -2.000 110.505 29.190 8.340
19872 0 2 -2.000 108.420 25.020 10.425
19873 0 2 -2.000 110.505 27.105 14.595
19874 0 2 -2.000 112.590 27.105 12.510
19875 0 2 -2.000 110.505 29.190 12.510
19876 0 2 -2.000 108.420 25.020 14.595
19877 0 2 -2.000 110.505 27.105 18.765
19878 0 2 -2.000 112.590 27.105 16.680
19879 0 2 -2.000 110.505 29.190 16.680
19880 0 2 -2.000 108.420 25.020 18.765
19881 0 2 -2.000 110.505 27.105 22.935
19882 0 2 -2.000 112.590 27.105 20.850
19883 0 2 -2.000 110.505 29.190 20.850
19884 0 2 -2.000 108.420 25.020 22.935
19885 0 2 -2.000 110.505 27.105 27.105
19886 0 2 -2.000 112.590 27.105 25.020
19887 0 2 -2.000 110.505 29.190 25.020
19888 0 2 -2.000 108.420 25.020 27.105
19889 0 2 -2.000 110.505 27.105 31.275
19890 0 2 -2.000 112.590 27.105 29.190
19891 0 2 -2.000 110.505 29.190 29.190
19892 0 2 -2.000 110.505 29.190 33.360
19893 0 2 -2.000 110.505 31.275 2.085
19894 0 2 -2.000 112.590 31.275 0.000
19895 0 2 -2.000 110.505 33.360 0.000
19896 0 2 -2.000 108.420 29.190 2.085
19897 0 2 -2.000 110.505 31.275 6.255
19898 0 2 -2.000 112.590 31.275 4.170
19899 0 2 -2.000 110.505 33.360 4.170
19900 0 2 -2.000 108.420 29.190 6.255
19901 0 2 -2.000 110.505 31.275 10.425
19902 0 2 -2.000 112.590 31.275 8.340
19903 0 2 -2.000 110.505 33.360 8.340
19904 0 2 -2.000 108.420 29.190 10.425
19905 0 2 -2.000 110.505 31.275 14.595
19906 0 2 -2.000 112.590 31.275 12.510
19907 0 2 -2.000 110.505 33.360 12.510
19908 0 2 -2.000 108.420 29.190 14.595
19909 0 2 -2.000 110.505 31.275 18.765
19910 0 2 -2.000 112.590 31.275 16.680
19911 0 2 -2.000 110.505 33.360 16.680
19912 0 2 -2.000 108.420 29.190 18.765
19913 0 2 -2.000 110.505 31.275 22.935
19914 0 2 -2.000 112.590 31.275 20.850
19915 0 2 -2.000 110.505 33.360 20.850
19916 0 2 -2.000 108.420 29.190 22.935
19917 0 2 -2.000 110.505 31.275 27.105
19918 0 2 -2.000 112.590 31.275 25.020
19919 0 2 -2.000 110.505 33.360 25.020
19920 0 2 -2.000 108.420 29.190 27.105
19921 0 2 -2.000 110.505 31.275 31.275
19922 0 2 -2.000 112.590 31.275 29.190
19923 0 2 -2.000 110.505 33.360 29.190
19924 0 2 -2.000 108.420 29.190 31.275
19925 0 2 -2.000 110.505 31.275 35.445
19926 0 2 -2.000 112.590 31.275 33.360
19927 0 2 -2.000 110.505 33.360 33.360
19928 0 2 -2.000 110.505 33.360 37.530
19929 0 2 -2.000 110.505 35.445 2.085
19930 0 2 -2.000 112.590 35.445 0.000
19931 0 2 -2.000 110.505 37.530 0.000
19932 0 2 -2.000 108.420 33.360 2.085
19933 0 2 -2.000 110.505 35.445 6.255
19934 0 2 -2.000 112.590 35.445 4.170
19935 0 2 -2.000 110.505 37.530 4.170
19936 0 2 -2.000 108.420 33.360 6.255
19937 0 2 -2.000 110.505 35.445 10.425
19938 0 2 -2.000 112.590 35.445 8.340
19939 0 2 -2.000 110.505 37.530 8.340
19940 0 2 -2.000 108.420 33.360 10.425
19941 0 2 -2.000 110.505 35.445 14.595
19942 0 2 -2.000 112.590 35.445 12.510
19943 0 2 -2.000 110.505 37.530 12.510
19944 0 2 -2.000 108.420 33.360 14.595
19945 0 2 -2.000 110.505 35.445 18.765
19946 0 2 -2.000 112.590 35.445 16.680
19947 0 2 -2.000 110.505 37.530 16.680
19948 0 2 -2.000 108.420 33.360 18.765
19949 0 2 -2.000 110.505 35.445 22.935
19950 0 2 -2.000 112.590 35.445 20.850
19951 0 2 -2.000 110.505 37.530 20.850
19952 0 2 -2.000 108.420 33.360 22.935
19953 0 2 -2.000 110.505 35.445 27.105
19954 0 2 -2.000 112.590 35.445 25.020
19955 0 2 -2.000 110.505 37.530 25.020
19956 0 2 -2.000 108.420 33.360 27.105
19957 0 2 -2.000 110.505 35.445 31.275
19958 0 2 -2.000 112.590 35.445 29.190
19959 0 2 -2.000 110.505 37.530 29.190
19960 0 2 -2.000 108.420 33.360 31.275
19961 0 2 -2.000 110.505 35.445 35.445
19962 0 2 -2.000 112.590 35.445 33.360
19963 0 2 -2.000 110.505 37.530 33.360
19964 0 2 -2.000 108.420 33.360 35.445
19965 0 2 -2.000 110.505 35.445 39.615
19966 0 2 -2.000 112.590 35.445 37.530
19967 0 2 -2.000 110.505 37.530 37.530
19968 0 2 -2.000 110.505 39.615 2.085
19969 0 2 -2.000 112.590 39.615 0.000
19970 0 2 -2.000 110.505 0.000 0.000
19971 0 2 -2.000 108.420 37.530 2.085
19972 0 2 -2.000 110.505 39.615 6.255
19973 0 2 -2.000 112.590 39.615 4.170
19974 0 2 -2.000 110.505 0.000 4.170
19975 0 2 -2.000 108.420 37.530 6.255
19976 0 2 -2.000 110.505 39.615 10.425
19977 0 2 -2.000 112.590 39.615 8.340
19978 0 2 -2.000 110.505 0.000 8.340
19979 0 2 -2.000 108.420 37.530 10.425
19980 0 2 -2.000 110.505 39.615 14.595
19981 0 2 -2.000 112.590 39.615 12.510
19982 0 2 -2.000 110.505 0.000 12.510
19983 0 2 -2.000 108.420 37.530 14.595
19984 0 2 -2.000 110.505 39.615 18.765
19985 0 2 -2.000 112.590 39.615 16.680
19986 0 2 -2.000 110.505 0.000 16.680
19987 0 2 -2.000 108.420 37.530 18.765
19988 0 2 -2.000 110.505 39.615 22.935
19989 0 2 -2.000 112.590 39.615 20.850
19990 0 2 -2.000 110.505 0.000 20.850
19991 0 2 -2.000 108.420 37.530 22.935
19992 0 2 -2.000 110.505 39.615 27.105
19993 0 2 -2.000 112.590 39.615 25.020
19994 0 2 -2.000 110.505 0.000 25.020
19995 0 2 -2.000 108.420 37.530 27.105
19996 0 2 -2.000 110.505 39.615 31.275
19997 0 2 -2.000 112.590 39.615 29.190
19998 0 2 -2.000 110.505 0.000 29.190
19999 0 2 -2.000 108.420 37.530 31.275
20000 0 2 -2.000 110.505 39.615 35.445
20001 0 2 -2.000 112.590 39.615 33.360
20002 0 2 -2.000 110.505 0.000 33.360
20003 0 2 -2.000 108.420 37.530 35.445
20004 0 2 -2.000 110.505 39.615 39.615
20005 0 2 -2.000 112.590 39.615 37.530
20006 0 2 -2.000 110.505 0.000 37.530
20007 0 2 -2.000 108.420 37.530 39.615
20008 0 2 -2.000 114.675 2.085 2.085
20009 0 2 -2.000 116.760 2.085 0.000
20010 0 2 -2.000 114.675 4.170 0.000
20011 0 2 -2.000 112.590 0.000 2.085
20012 0 2 -2.000 114.675 2.085 6.255
20013 0 2 -2.000 116.760 2.085 4.170
20014 0 2 -2.000 114.675 4.170 4.170
20015 0 2 -2.000 112.590 0.000 6.255
20016 0 2 -2.000 114.675 2.085 10.425
20017 0 2 -2.000 116.760 2.085 8.340
20018 0 2 -2.000 114.675 4.170 8.340
20019 0 2 -2.000 112.590 0.000 10.425
20020 0 2 -2.000 114.675 2.085 14.595
20021 0 2 -2.000 116.760 2.085 12.510
20022 0 2 -2.000 114.675 4.170 12.510
20023 0 2 -2.000 112.590 0.000 14.595
20024 0 2 -2.000 114.675 2.085 18.765
20025 0 2 -2.000 116.760 2.085 16.680
20026 0 2 -2.000 114.675 4.170 16.680
20027 0 2 -2.000 112.590 0.000 18.765
20028 0 2 -2.000 114.675 2.085 22.935
20029 0 2 -2.000 116.760 2.085 20.850
20030 0 2 -2.000 114.675 4.170 20.850
20031 0 2 -2.000 112.590 0.000 22.935
20032 0 2 -2.000 114.675 2.085 27.105
20033 0 2 -2.000 116.760 2.085 25.020
20034 0 2 -2.000 114.675 4.170 25.020
20035 0 2 -2.000 112.590 0.000 27.105
20036 0 2 -2.000 114.675 2.085 31.275
20037 0 2 -2.000 116.760 2.085 29.190
20038 0 2 -2.000 114.675 4.170 29.190
20039 0 2 -2.000 112.590 0.000 31.275
20040 0 2 -2.000 114.675 2.085 35.445
20041 0 2 -2.000 116.760 2.085 33.360
20042 0 2 -2.000 114.675 4.170 33.360
20043 0 2 -2.000 112.590 0.000 35.445
20044 0 2 -2.000 114.675 2.085 39.615
20045 0 2 -2.000 116.760 2.085 37.530
20046 0 2 -2.000 114.675 4.170 37.530
20047 0 2 -2.000 112.590 0.000 39.615
20048 0 2 -2.000 114.675 6.255 2.085
20049 0 2 -2.000 116.760 6.255 0.000
20050 0 2 -2.000 114.675 8.340 0.000
20051 0 2 -2.000 112.590 4.170 2.085
20052 0 2 -2.000 114.675 6.255 6.255
20053 0 2 -2.000 116.760 6.255 4.170
20054 0 2 -2.000 114.675 8.340 4.170
20055 0 2 -2.000 112.590 4.170 6.255
20056 0 2 -2.000 114.675 6.255 10.425
20057 0 2 -2.000 116.760 6.255 8.340
20058 0 2 -2.000 114.675 8.340 8.340
20059 0 2 -2.000 112.590 4.170 10.425
20060 0 2 -2.000 114.675 6.255 14.595
20061 0 2 -2.000 116.760 6.255 12.510
20062 0 2 -2.000 114.675 8.340 12.510
20063 0 2 -2.000 112.590 4.170 14.595
20064 0 2 -2.000 114.675 6.255 18.765
20065 0 2 -2.000 116.760 6.255 16.680
20066 0 2 -2.000 114.675 8.340 16.680
20067 0 2 -2.000 112.590 4.170 18.765
20068 0 2 -2.000 114.675 6.255 22.935
20069 0 2 -2.000 116.760 6.255 20.850
20070 0 2 -2.000 114.675 8.340 20.850
20071 0 2 -2.000 112.590 4.170 22.935
20072 0 2 -2.000 114.675 6.255 27.105
20073 0 2 -2.000 116.760 6.255 25.020
20074 0 2 -2.000 114.675 8.340 25.020
20075 0 2 -2.000 112.590 4.170 27.105
20076 0 2 -2.000 114.675 6.255 31.275
20077 0 2 -2.000 116.760 6.255 29.190
20078 0 2 -2.000 114.675 8.340 29.190
20079 0 2 -2.000 112.590 4.170 31.275
20080 0 2 -2.000 114.675 6.255 35.445
20081 0 2 -2.000 116.760 6.255 33.360
20082 0 2 -2.000 114.675 8.340 33.360
20083 0 2 -2.000 112.590 4.170 35.445
20084 0 2 -2.000 114.675 6.255 39.615
20085 0 2 -2.000 116.760 6.255 37.530
20086 0 2 -2.000 114.675 8.340 37.530
20087 0 2 -2.000 112.590 4.170 39.615
20088 0 2 -2.000 114.675 10.425 2.085
20089 0 2 -2.000 116.760 10.425 0.000
20090 0 2 -2.000 114.675 12.510 0.000
20091 0 2 -2.000 112.590 8.340 2.085
20092 0 2 -2.000 114.675 10.425 6.255
20093 0 2 -2.000 116.760 10.425 4.170
20094 0 2 -2.000 114.675 12.510 4.170
20095 0 2 -2.000 112.590 8.340 6.255
20096 0 2 -2.000 114.675 10.425 10.425
20097 0 2 -2.000 116.760 10.425 8.340
20098 0 2 -2.000 114.675 12.510 8.340
20099 0 2 -2.000 112.590 8.340 10.425
20100 0 2 -2.000 114.675 10.425 14.595
20101 0 2 -2.000 116.760 10.425 12.510
20102 0 2 -2.000 114.675 12.510 12.510
20103 0 2 -2.000 112.590 8.340 14.595
20104 0 2 -2.000 114.675 10.425 18.765
20105 0 2 -2.000 116.760 10.425 16.680
20106 0 2 -2.000 114.675 12.510 16.680
20107 0 2 -2.000 112.590 8.340 18.765
20108 0 2 -2.000 114.675 10.425 22.935
20109 0 2 -2.000 116.760 10.425 20.850
20110 0 2 -2.000 114.675 12.510 20.850
20111 0 2 -2.000 112.590 8.340 22.935
20112 0 2 -2.000 114.675 10.425 27.105
20113 0 2 -2.000 116.760 10.425 25.020
20114 0 2 -2.000 114.675 12.510 25.020
20115 0 2 -2.000 112.590 8.340 27.105
20116 0 2 -2.000 114.675 10.425 31.275
20117 0 2 -2.000 116.760 10.425 29.190
20118 0 2 -2.000 114.675 12.510 29.190
20119 0 2 -2.000 112.590 8.340 31.275
20120 0 2 -2.000 114.675 10.425 35.445
20121 0 2 -2.000 116.760 10.425 33.360
20122 0 2 -2.000 114.675 12.510 33.360
20123 0 2 -2.000 112.590 8.340 35.445
20124 0 2 -2.000 114.675 14.595 2.085
20125 0 2 -2.000 116.760 14.595 0.000
20126 0 2 -2.000 114.675 16.680 0.000
20127 0 2 -2.000 112.590 12.510 2.085
20128 0 2 -2.000 114.675 14.595 6.255
20129 0 2 -2.000 116.760 14.595 4.170
20130 0 2 -2.000 114.675 16.680 4.170
20131 0 2 -2.000 112.590 12.510 6.255
20132 0 2 -2.000 114.675 14.595 10.425
20133 0 2 -2.000 116.760 14.595 8.340
20134 0 2 -2.000 114.675 16.680 8.340
20135 0 2 -2.000 112.590 12.510 10.425
20136 0 2 -2.000 114.675 14.595 14.595
20137 0 2 -2.000 116.760 14.595 12.510
20138 0 2 -2.000 114.675 16.680 12.510
20139 0 2 -2.000 112.590 12.510 14.595
20140 0 2 -2.000 114.675 14.595 18.765
20141 0 2 -2.000 116.760 14.595 16.680
20142 0 2 -2.000 114.675 16.680 16.680
20143 0 2 -2.000 112.590 12.510 18.765
20144 0 2 -2.000 114.675 14.595 22.935
20145 0 2 -2.000 116.760 14.595 20.850
20146 0 2 -2.000 114.675 16.680 20.850
20147 0 2 -2.000 112.590 12.510 22.935
20148 0 2 -2.000 114.675 14.595 27.105
20149 0 2 -2.000 116.760 14.595 25.020
20150 0 2 -2.000 114.675 16.680 25.020
20151 0 2 -2.000 112.590 12.510 27.105
20152 0 2 -2.000 114.675 14.595 31.275
20153 0 2 -2.000 116.760 14.595 29.190
20154 0 2 -2.000 114.675 16.680 29.190
20155 0 2 -2.000 112.590 12.510 31.275
20156 0 2 -2.000 114.675 18.765 2.085
20157 0 2 -2.000 116.760 18.765 0.000
20158 0 2 -2.000 114.675 20.850 0.000
20159 0 2 -2.000 112.590 16.680 2.085
20160 0 2 -2.000 114.675 18.765 6.255
20161 0 2 -2.000 116.760 18.765 4.170
20162 0 2 -2.000 114.675 20.850 4.170
20163 0 2 -2.000 112.590 16.680 6.255
20164 0 2 -2.000 114.675 18.765 10.425
20165 0 2 -2.000 116.760 18.765 8.340
20166 0 2 -2.000 114.675 20.850 8.340
20167 0 2 -2.000 112.590 16.680 10.425
20168 0 2 -2.000 114.675 18.765 14.595
20169 0 2 -2.000 116.760 18.765 12.510
20170 0 2 -2.000 114.675 20.850 12.510
20171 0 2 -2.000 112.590 16.680 14.595
20172 0 2 -2.000 114.675 18.765 18.765
20173 0 2 -2.000 116.760 18.765 16.680
20174 0 2 -2.000 114.675 20.850 16.680
20175 0 2 -2.000 112.590 16.680 18.765
20176 0 2 -2.000 114.675 18.765 22.935
20177 0 2 -2.000 116.760 18.765 20.850
20178 0 2 -2.000 114.675 20.850 20.850
20179 0 2 -2.000 112.590 16.680 22.935
20180 0 2 -2.000 114.675 18.765 27.105
20181 0 2 -2.000 116.760 18.765 25.020
20182 0 2 -2.000 114.675 20.850 25.020
20183 0 2 -2.000 112.590 16.680 27.105
20184 0 2 -2.000 114.675 22.935 2.085
20185 0 2 -2.000 116.760 22.935 0.000
20186 0 2 -2.000 114.675 25.020 0.000
20187 0 2 -2.000 112.590 20.850 2.085
20188 0 2 -2.000 114.675 22.935 6.255
20189 0 2 -2.000 116.760 22.935 4.170
20190 0 2 -2.000 114.675 25.020 4.170
20191 0 2 -2.000 112.590 20.850 6.255
20192 0 2 -2.000 114.675 22.935 10.425
20193 0 2 -2.000 116.760 22.935 8.340
20194 0 2 -2.000 114.675 25.020 8.340
20195 0 2 -2.000 112.590 20.850 10.425
20196 0 2 -2.000 114.675 22.935 14.595
20197 0 2 -2.000 116.760 22.935 12.510
20198 0 2 -2.000 114.675 25.020 12.510
20199 0 2 -2.000 112.590 20.850 14.595
20200 0 2 -2.000 114.675 22.935 18.765
20201 0 2 -2.000 116.760 22.935 16.680
20202 0 2 -2.000 114.675 25.020 16.680
20203 0 2 -2.000 112.590 20.850 18.765
20204 0 2 -2.000 114.675 22.935 22.935
20205 0 2 -2.000 116.760 22.935 20.850
20206 0 2 -2.000 114.675 25.020 20.850
20207 0 2 -2.000 112.590 20.850 22.935
20208 0 2 -2.000 114.675 22.935 27.105
20209 0 2 -2.000 116.760 22.935 25.020
20210 0 2 -2.000 114.675 25.020 25.020
20211 0 2 -2.000 114.675 25.020 29.190
20212 0 2 -2.000 114.675 27.105 2.085
20213 0 2 -2.000 116.760 27.105 0.000
20214 0 2 -2.000 114.675 29.190 0.000
20215 0 2 -2.000 112.590 25.020 2.085
20216 0 2 -2.000 114.675 27.105 6.255
20217 0 2 -2.000 116.760 27.105 4.170
20218 0 2 -2.000 114.675 29.190 4.170
20219 0 2 -2.000 112.590 25.020 6.255
20220 0 2 -2.000 114.675 27.105 10.425
20221 0 2 -2.000 116.760 27.105 8.340
20222 0 2 -2.000 114.675 29.190 8.340
20223 0 2 -2.000 112.590 25.020 10.425
20224 0 2 -2.000 114.675 27.105 14.595
20225 0 2 -2.000 116.760 27.105 12.510
20226 0 2 -2.000 114.675 29.190 12.510
20227 0 2 -2.000 112.590 25.020 14.595
20228 0 2 -2.000 114.675 27.105 18.765
20229 0 2 -2.000 116.760 27.105 16.680
20230 0 2 -2.000 114.675 29.190 16.680
20231 0 2 -2.000 112.590 25.020 18.765
20232 0 2 -2.000 114.675 27.105 22.935
20233 0 2 -2.000 116.760 27.105 20.850
20234 0 2 -2.000 114.675 29.190 20.850
20235 0 2 -2.000 112.590 25.020 22.935
20236 0 2 -2.000 114.675 27.105 27.105
20237 0 2 -2.000 116.760 27.105 25.020
20238 0 2 -2.000 114.675 29.190 25.020
20239 0 2 -2.000 112.590 25.020 27.105
20240 0 2 -2.000 114.675 27.105 31.275
20241 0 2 -2.000 116.760 27.105 29.190
20242 0 2 -2.000 114.675 29.190 29.190
20243 0 2 -2.000 114.675 29.190 33.360
20244 0 2 -2.000 114.675 31.275 2.085
20245 0 2 -2.000 116.760 31.275 0.000
20246 0 2 -2.000 114.675 33.360 0.000
20247 0 2 -2.000 112.590 29.190 2.085
20248 0 2 -2.000 114.675 31.275 6.255
20249 0 2 -2.000 116.760 31.275 4.170
20250 0 2 -2.000 114.675 33.360 4.170
20251 0 2 -2.000 112.590 29.190 6.255
20252 0 2 -2.000 114.675 31.275 10.425
20253 0 2 -2.000 116.760 31.275 8.340
20254 0 2 -2.000 114.675 33.360 8.340
20255 0 2 -2.000 112.590 29.190 10.425
20256 0 2 -2.000 114.675 31.275 14.595
20257 0 2 -2.000 116.760 31.275 12.510
20258 0 2 -2.000 114.675 33.360 12.510
20259 0 2 -2.000 112.590 29.190 14.595
20260 0 2 -2.000 114.675 31.275 18.765
20261 0 2 -2.000 116.760 31.275 16.680
20262 0 2 -2.000 114.675 33.360 16.680
20263 0 2 -2.000 112.590 29.190 18.765
20264 0 2 -2.000 114.675 31.275 22.935
20265 0 2 -2.000 116.760 31.275 20.850
20266 0 2 -2.000 114.675 33.360 20.850
20267 0 2 -2.000 112.590 29.190 22.935
20268 0 2 -2.000 114.675 31.275 27.105
20269 0 2 -2.000 116.760 31.275 25.020
20270 0 2 -2.000 114.675 33.360 25.020
20271 0 2 -2.000 112.590 29.190 27.105
20272 0 2 -2.000 114.675 31.275 31.275
20273 0 2 -2.000 116.760 31.275 29.190
20274 0 2 -2.000 114.675 33.360 29.190
20275 0 2 -2.000 112.590 29.190 31.275
20276 0 2 -2.000 114.675 31.275 35.445
20277 0 2 -2.000 116.760 31.275 33.360
20278 0 2 -2.000 114.675 33.360 33.360
20279 0 2 -2.000 114.675 33.360 37.530
20280 0 2 -2.000 114.675 35.445 2.085
20281 0 2 -2.000 116.760 35.445 0.000
20282 0 2 -2.000 114.675 37.530 0.000
20283 0 2 -2.000 112.590 33.360 2.085
20284 0 2 -2.000 114.675 35.445 6.255
20285 0 2 -2.000 116.760 35.445 4.170
20286 0 2 -2.000 114.675 37.530 4.170
20287 0 2 -2.000 112.590 33.360 6.255
20288 0 2 -2.000 114.675 35.445 10.425
20289 0 2 -2.000 116.760 35.445 8.340
20290 0 2 -2.000 114.675 37.530 8.340
20291 0 2 -2.000 112.590 33.360 10.425
20292 0 2 -2.000 114.675 35.445 14.595
20293 0 2 -2.000 116.760 35.445 12.510
20294 0 2 -2.000 114.675 37.530 12.510
20295 0 2 -2.000 112.590 33.360 14.595
20296 0 2 -2.000 114.675 35.445 18.765
20297 0 2 -2.000 116.760 35.445 16.680
20298 0 2 -2.000 114.675 37.530 16.680
20299 0 2 -2.000 112.590 33.360 18.765
20300 0 2 -2.000 114.675 35.445 22.935
20301 0 2 -2.000 116.760 35.445 20.850
20302 0 2 -2.000 114.675 37.530 20.850
20303 0 2 -2.000 112.590 33.360 22.935
20304 0 2 -2.000 114.675 35.445 27.105
20305 0 2 -2.000 116.760 35.445 25.020
20306 0 2 -2.000 114.675 37.530 25.020
20307 0 2 -2.000 112.590 33.360 27.105
20308 0 2 -2.000 114.675 35.445 31.275
20309 0 2 -2.000 116.760 35.445 29.190
20310 0 2 -2.000 114.675 37.530 29.190
20311 0 2 -2.000 112.590 33.360 31.275
20312 0 2 -2.000 114.675 35.445 35.445
20313 0 2 -2.000 116.760 35.445 33.360
20314 0 2 -2.000 114.675 37.530 33.360
20315 0 2 -2.000 112.590 33.360 35.445
20316 0 2 -2.000 114.675 35.445 39.615
20317 0 2 -2.000 116.760 35.445 37.530
20318 0 2 -2.000 114.675 37.530 37.530
20319 0 2 -2.000 114.675 39.615 2.085
20320 0 2 -2.000 116.760 39.615 0.000
20321 0 2 -2.000 114.675 0.000 0.000
20322 0 2 -2.000 112.590 37.530 2.085
20323 0 2 -2.000 114.675 39.615 6.255
20324 0 2 -2.000 116.760 39.615 4.170
20325 0 2 -2.000 114.675 0.000 4.170
20326 0 2 -2.000 112.590 37.530 6.255
20327 0 2 -2.000 114.675 39.615 10.425
20328 0 2 -2.000 116.760 39.615 8.340
20329 0 2 -2.000 114.675 0.000 8.340
20330 0 2 -2.000 112.590 37.530 10.425
20331 0 2 -2.000 114.675 39.615 14.595
20332 0 2 -2.000 116.760 39.615 12.510
20333 0 2 -2.000 114.675 0.000 12.510
20334 0 2 -2.000 112.590 37.530 14.595
20335 0 2 -2.000 114.675 39.615 18.765
20336 0 2 -2.000 116.760 39.615 16.680
20337 0 2 -2.000 114.675 0.000 16.680
20338 0 2 -2.000 112.590 37.530 18.765
20339 0 2 -2.000 114.675 39.615 22.935
20340 0 2 -2.000 116.760 39.615 20.850
20341 0 2 -2.000 114.675 0.000 20.850
20342 0 2 -2.000 112.590 37.530 22.935
20343 0 2 -2.000 114.675 39.615 27.105
20344 0 2 -2.000 116.760 39.615 25.020
20345 0 2 -2.000 114.675 0.000 25.020
20346 0 2 -2.000 112.590 37.530 27.105
20347 0 2 -2.000 114.675 39.615 31.275
20348 0 2 -2.000 116.760 39.615 29.190
20349 0 2 -2.000 114.675 0.000 29.190
20350 0 2 -2.000 112.590 37.530 31.275
20351 0 2 -2.000 114.675 39.615 35.445
20352 0 2 -2.000 116.760 39.615 33.360
20353 0 2 -2.000 114.675 0.000 33.360
20354 0 2 -2.000 112.590 37.530 35.445
20355 0 2 -2.000 114.675 39.615 39.615
20356 0 2 -2.000 116.760 39.615 37.530
20357 0 2 -2.000 114.675 0.000 37.530
20358 0 2 -2.000 112.590 37.530 39.615
20359 0 2 -2.000 118.845 2.085 2.085
20360 0 2 -2.000 120.930 2.085 0.000
20361 0 2 -2.000 118.845 4.170 0.000
20362 0 2 -2.000 116.760 0.000 2.085
20363 0 2 -2.000 118.845 2.085 6.255
20364 0 2 -2.000 120.930 2.085 4.170
20365 0 2 -2.000 118.845 4.170 4.170
20366 0 2 -2.000 116.760 0.000 6.255
20367 0 2 -2.000 118.845 2.085 10.425
20368 0 2 -2.000 120.930 2.085 8.340
20369 0 2 -2.000 118.845 4.170 8.340
20370 0 2 -2.000 116.760 0.000 10.425
20371 0 2 -2.000 118.845 2.085 14.595
20372 0 2 -2.000 120.930 2.085 12.510
20373 0 2 -2.000 118.845 4.170 12.510
20374 0 2 -2.000 116.760 0.000 14.595
20375 0 2 -2.000 118.845 2.085 18.765
20376 0 2 -2.000 120.930 2.085 16.680
20377 0 2 -2.000 118.845 4.170 16.680
20378 0 2 -2.000 116.760 0.000 18.765
20379 0 2 -2.000 118.845 2.085 22.935
20380 0 2 -2.000 120.930 2.085 20.850
20381 0 2 -2.000 118.845 4.170 20.850
20382 0 2 -2.000 116.760 0.000 22.935
20383 0 2 -2.000 118.845 2.085 27.105
20384 0 2 -2.000 120.930 2.085 25.020
20385 0 2 -2.000 118.845 4.170 25.020
20386 0 2 -2.000 116.760 0.000 27.105
20387 0 2 -2.000 118.845 2.085 31.275
20388 0 2 -2.000 120.930 2.085 29.190
20389 0 2 -2.000 118.845 4.170 29.190
20390 0 2 -2.000 116.760 0.000 31.275
20391 0 2 -2.000 118.845 2.085 35.445
20392 0 2 -2.000 120.930 2.085 33.360
20393 0 2 -2.000 118.845 4.170 33.360
20394 0 2 -2.000 116.760 0.000 35.445
20395 0 2 -2.000 118.845 2.085 39.615
20396 0 2 -2.000 120.930 2.085 37.530
20397 0 2 -2.000 118.845 4.170 37.530
20398 0 2 -2.000 116.760 0.000 39.615
20399 0 2 -2.000 118.845 6.255 2.085
20400 0 2 -2.000 120.930 6.255 0.000
20401 0 2 -2.000 118.845 8.340 0.000
20402 0 2 -2.000 116.760 4.170 2.085
20403 0 2 -2.000 118.845 6.255 6.255
20404 0 2 -2.000 120.930 6.255 4.170
20405 0 2 -2.000 118.845 8.340 4.170
20406 0 2 -2.000 116.760 4.170 6.255
20407 0 2 -2.000 118.845 6.255 10.425
20408 0 2 -2.000 120.930 6.255 8.340
20409 0 2 -2.000 118.845 8.340 8.340
20410 0 2 -2.000 116.760 4.170 10.425
20411 0 2 -2.000 118.845 6.255 14.595
20412 0 2 -2.000 120.930 6.255 12.510
20413 0 2 -2.000 118.845 8.340 12.510
20414 0 2 -2.000 116.760 4.170 14.595
20415 0 2 -2.000 118.845 6.255 18.765
20416 0 2 -2.000 120.930 6.255 16.680
20417 0 2 -2.000 118.845 8.340 16.680
20418 0 2 -2.000 116.760 4.170 18.765
20419 0 2 -2.000 118.845 6.255 22.935
20420 0 2 -2.000 120.930 6.255 20.850
20421 0 2 -2.000 118.845 8.340 20.850
20422 0 2 -2.000 116.760 4.170 22.935
20423 0 2 -2.000 118.845 6.255 27.105
20424 0 2 -2.000 120.930 6.255 25.020
20425 0 2 -2.000 118.845 8.340 25.020
20426 0 2 -2.000 116.760 4.170 27.105
20427 0 2 -2.000 118.845 6.255 31.275
20428 0 2 -2.000 120.930 6.255 29.190
20429 0 2 -2.000 118.845 8.340 29.190
20430 0 2 -2.000 116.760 4.170 31.275
20431 0 2 -2.000 118.845 6.255 35.445
20432 0 2 -2.000 120.930 6.255 33.360
20433 0 2 -2.000 118.845 8.340 33.360
20434 0 2 -2.000 116.760 4.170 35.445
20435 0 2 -2.000 118.845 6.255 39.615
20436 0 2 -2.000 120.930 6.255 37.530
20437 0 2 -2.000 118.845 8.340 37.530
20438 0 2 -2.000 116.760 4.170 39.615
20439 0 2 -2.000 118.845 10.425 2.085
20440 0 2 -2.000 120.930 10.425 0.000
20441 0 2 -2.000 118.845 12.510 0.000
20442 0 2 -2.000 116.760 8.340 2.085
20443 0 2 -2.000 118.845 10.425 6.255
20444 0 2 -2.000 120.930 10.425 4.170
20445 0 2 -2.000 118.845 12.510 4.170
20446 0 2 -2.000 116.760 8.340 6.255
20447 0 2 -2.000 118.845 10.425 10.425
20448 0 2 -2.000 120.930 10.425 8.340
20449 0 2 -2.000 118.845 12.510 8.340
20450 0 2 -2.000 116.760 8.340 10.425
20451 0 2 -2.000 118.845 10.425 14.595
20452 0 2 -2.000 120.930 10.425 12.510
20453 0 2 -2.000 118.845 12.510 12.510
20454 0 2 -2.000 116.760 8.340 14.595
20455 0 2 -2.000 118.845 10.425 18.765
20456 0 2 -2.000 120.930 10.425 16.680
20457 0 2 -2.000 118.845 12.510 16.680
20458 0 2 -2.000 116.760 8.340 18.765
20459 0 2 -2.000 118.845 10.425 22.935
20460 0 2 -2.000 120.930 10.425 20.850
20461 0 2 -2.000 118.845 12.510 20.850
20462 0 2 -2.000 116.760 8.340 22.935
20463 0 2 -2.000 118.845 10.425 27.105
20464 0 2 -2.000 120.930 10.425 25.020
20465 0 2 -2.000 118.845 12.510 25.020
20466 0 2 -2.000 116.760 8.340 27.105
20467 0 2 -2.000 118.845 10.425 31.275
20468 0 2 -2.000 120.930 10.425 29.190
20469 0 2 -2.000 118.845 12.510 29.190
20470 0 2 -2.000 116.760 8.340 31.275
20471 0 2 -2.000 118.845 10.425 35.445
20472 0 2 -2.000 120.930 10.425 33.360
20473 0 2 -2.000 118.845 12.510 33.360
20474 0 2 -2.000 116.760 8.340 35.445
20475 0 2 -2.000 118.845 14.595 2.085
20476 0 2 -2.000 120.930 14.595 0.000
20477 0 2 -2.000 118.845 16.680 0.000
20478 0 2 -2.000 116.760 12.510 2.085
20479 0 2 -2.000 118.845 14.595 6.255
20480 0 2 -2.000 120.930 14.595 4.170
20481 0 2 -2.000 118.845 16.680 4.170
20482 0 2 -2.000 116.760 12.510 6.255
20483 0 2 -2.000 118.845 14.595 10.425
20484 0 2 -2.000 120.930 14.595 8.340
20485 0 2 -2.000 118.845 16.680 8.340
20486 0 2 -2.000 116.760 12.510 10.425
20487 0 2 -2.000 118.845 14.595 14.595
20488 0 2 -2.000 120.930 14.595 12.510
20489 0 2 -2.000 118.845 16.680 12.510
20490 0 2 -2.000 116.760 12.510 14.595
20491 0 2 -2.000 118.845 14.595 18.765
20492 0 2 -2.000 120.930 14.595 16.680
20493 0 2 -2.000 118.845 16.680 16.680
20494 0 2 -2.000 116.760 12.510 18.765
20495 0 2 -2.000 118.845 14.595 22.935
20496 0 2 -2.000 120.930 14.595 20.850
20497 0 2 -2.000 118.845 16.680 20.850
20498 0 2 -2.000 116.760 12.510 22.935
20499 0 2 -2.000 118.845 14.595 27.105
20500 0 2 -2.000 120.930 14.595 25.020
20501 0 2 -2.000 118.845 16.680 25.020
20502 0 2 -2.000 116.760 12.510 27.105
20503 0 2 -2.000 118.845 14.595 31.275
20504 0 2 -2.000 120.930 14.595 29.190
20505 0 2 -2.000 118.845 16.680 29.190
20506 0 2 -2.000 116.760 12.510 31.275
20507 0 2 -2.000 118.845 18.765 2.085
20508 0 2 -2.000 120.930 18.765 0.000
20509 0 2 -2.000 118.845 20.850 0.000
20510 0 2 -2.000 116.760 16.680 2.085
20511 0 2 -2.000 118.845 18.765 6.255
20512 0 2 -2.000 120.930 18.765 4.170
20513 0 2 -2.000 118.845 20.850 4.170
20514 0 2 -2.000 116.760 16.680 6.255
20515 0 2 -2.000 118.845 18.765 10.425
20516 0 2 -2.000 120.930 18.765 8.340
20517 0 2 -2.000 118.845 20.850 8.340
20518 0 2 -2.000 116.760 16.680 10.425
20519 0 2 -2.000 118.845 18.765 14.595
20520 0 2 -2.000 120.930 18.765 12.510
20521 0 2 -2.000 118.845 20.850 12.510
20522 0 2 -2.000 116.760 16.680 14.595
20523 0 2 -2.000 118.845 18.765 18.765
20524 0 2 -2.000 120.930 18.765 16.680
20525 0 2 -2.000 118.845 20.850 16.680
20526 0 2 -2.000 116.760 16.680 18.765
20527 0 2 -2.000 118.845 18.765 22.935
20528 0 2 -2.000 120.930 18.765 20.850
20529 0 2 -2.000 118.845 20.850 20.850
20530 0 2 -2.000 116.760 16.680 22.935
20531 0 2 -2.000 118.845 18.765 27.105
20532 0 2 -2.000 120.930 18.765 25.020
20533 0 2 -2.000 118.845 20.850 25.020
20534 0 2 -2.000 116.760 16.680 27.105
20535 0 2 -2.000 118.845 22.935 2.085
20536 0 2 -2.000 120.930 22.935 0.000
20537 0 2 -2.000 118.845 25.020 0.000
20538 0 2 -2.000 116.760 20.850 2.085
20539 0 2 -2.000 118.845 22.935 6.255
20540 0 2 -2.000 120.930 22.935 4.170
20541 0 2 -2.000 118.845 25.020 4.170
20542 0 2 -2.000 116.760 20.850 6.255
20543 0 2 -2.000 118.845 22.935 10.425
20544 0 2 -2.000 120.930 22.935 8.340
20545 0 2 -2.000 118.845 25.020 8.340
20546 0 2 -2.000 116.760 20.850 10.425
20547 0 2 -2.000 118.845 22.935 14.595
20548 0 2 -2.000 120.930 22.935 12.510
20549 0 2 -2.000 118.845 25.020 12.510
20550 0 2 -2.000 116.760 20.850 14.595
20551 0 2 -2.000 118.845 22.935 18.765
20552 0 2 -2.000 120.930 22.935 16.680
20553 0 2 -2.000 118.845 25.020 16.680
20554 0 2 -2.000 116.760 20.850 18.765
20555 0 2 -2.000 118.845 22.935 22.935
20556 0 2 -2.000 120.930 22.935 20.850
20557 0 2 -2.000 118.845 25.020 20.850
20558 0 2 -2.000 116.760 20.850 22.935
20559 0 2 -2.000 118.845 22.935 27.105
20560 0 2 -2.000 120.930 22.935 25.020
20561 0 2 -2.000 118.845 25.020 25.020
20562 0 2 -2.000 118.845 25.020 29.190
20563 0 2 -2.000 118.845 27.105 2.085
20564 0 2 -2.000 120.930 27.105 0.000
20565 0 2 -2.000 118.845 29.190 0.000
20566 0 2 -2.000 116.760 25.020 2.085
20567 0 2 -2.000 118.845 27.105 6.255
20568 0 2 -2.000 120.930 27.105 4.170
20569 0 2 -2.000 118.845 29.190 4.170
20570 0 2 -2.000 116.760 25.020 6.255
20571 0 2 -2.000 118.845 27.105 10.425
20572 0 2 -2.000 120.930 27.105 8.340
20573 0 2 -2.000 118.845 29.190 8.340
20574 0 2 -2.000 116.760 25.020 10.425
20575 0 2 -2.000 118.845 27.105 14.595
20576 0 2 -2.000 120.930 27.105 12.510
20577 0 2 -2.000 118.845 29.190 12.510
20578 0 2 -2.000 116.760 25.020 14.595
20579 0 2 -2.000 118.845 27.105 18.765
20580 0 2 -2.000 120.930 27.105 16.680
20581 0 2 -2.000 118.845 29.190 16.680
20582 0 2 -2.000 116.760 25.020 18.765
20583 0 2 -2.000 118.845 27.105 22.935
20584 0 2 -2.000 120.930 27.105 20.850
20585 0 2 -2.000 118.845 29.190 20.850
20586 0 2 -2.000 116.760 25.020 22.935
20587 0 2 -2.000 118.845 27.105 27.105
20588 0 2 -2.000 120.930 27.105 25.020
20589 0 2 -2.000 118.845 29.190 25.020
20590 0 2 -2.000 116.760 25.020 27.105
20591 0 2 -2.000 118.845 27.105 31.275
20592 0 2 -2.000 120.930 27.105 29.190
20593 0 2 -2.000 118.845 29.190 29.190
20594 0 2 -2.000 118.845 29.190 33.360
20595 0 2 -2.000 118.845 31.275 2.085
20596 0 2 -2.000 120.930 31.275 0.000
20597 0 2 -2.000 118.845 33.360 0.000
20598 0 2 -2.000 116.760 29.190 2.085
20599 0 2 -2.000 118.845 31.275 6.255
20600 0 2 -2.000 120.930 31.275 4.170
20601 0 2 -2.000 118.845 33.360 4.170
20602 0 2 -2.000 116.760 29.190 6.255
20603 0 2 -2.000 118.845 31.275 10.425
20604 0 2 -2.000 120.930 31.275 8.340
20605 0 2 -2.000 118.845 33.360 8.340
20606 0 2 -2.000 116.760 29.190 10.425
20607 0 2 -2.000 118.845 31.275 14.595
20608 0 2 -2.000 120.930 31.275 12.510
20609 0 2 -2.000 118.845 33.360 12.510
20610 0 2 -2.000 116.760 29.190 14.595
20611 0 2 -2.000 118.845 31.275 18.765
20612 0 2 -2.000 120.930 31.275 16.680
20613 0 2 -2.000 118.845 33.360 16.680
20614 0 2 -2.000 116.760 29.190 18.765
20615 0 2 -2.000 118.845 31.275 22.935
20616 0 2 -2.000 120.930 31.275 20.850
20617 0 2 -2.000 118.845 33.360 20.850
20618 0 2 -2.000 116.760 29.190 22.935
20619 0 2 -2.000 118.845 31.275 27.105
20620 0 2 -2.000 120.930 31.275 25.020
20621 0 2 -2.000 118.845 33.360 25.020
20622 0 2 -2.000 116.760 29.190 27.105
20623 0 2 -2.000 118.845 31.275 31.275
20624 0 2 -2.000 120.930 31.275 29.190
20625 0 2 -2.000 118.845 33.360 29.190
20626 0 2 -2.000 116.760 29.190 31.275
20627 0 2 -2.000 118.845 31.275 35.445
20628 0 2 -2.000 120.930 31.275 33.360
20629 0 2 -2.000 118.845 33.360 33.360
20630 0 2 -2.000 118.845 33.360 37.530
20631 0 2 -2.000 118.845 35.445 2.085
20632 0 2 -2.000 120.930 35.445 0.000
20633 0 2 -2.000 118.845 37.530 0.000
20634 0 2 -2.000 116.760 33.360 2.085
20635 0 2 -2.000 118.845 35.445 6.255
20636 0 2 -2.000 120.930 35.445 4.170
20637 0 2 -2.000 118.845 37.530 4.170
20638 0 2 -2.000 116.760 33.360 6.255
20639 0 2 -2.000 118.845 35.445 10.425
20640 0 2 -2.000 120.930 35.445 8.340
20641 0 2 -2.000 118.845 37.530 8.340
20642 0 2 -2.000 116.760 33.360 10.425
20643 0 2 -2.000 118.845 35.445 14.595
20644 0 2 -2.000 120.930 35.445 12.510
20645 0 2 -2.000 118.845 37.530 12.510
20646 0 2 -2.000 116.760 33.360 14.595
20647 0 2 -2.000 118.845 35.445 18.765
20648 0 2 -2.000 120.930 35.445 16.680
20649 0 2 -2.000 118.845 37.530 16.680
20650 0 2 -2.000 116.760 33.360 18.765
20651 0 2 -2.000 118.845 35.445 22.935
20652 0 2 -2.000 120.930 35.445 20.850
20653 0 2 -2.000 118.845 37.530 20.850
20654 0 2 -2.000 116.760 33.360 22.935
20655 0 2 -2.000 118.845 35.445 27.105
20656 0 2 -2.000 120.930 35.445 25.020
20657 0 2 -2.000 118.845 37.530 25.020
20658 0 2 -2.000 116.760 33.360 27.105
20659 0 2 -2.000 118.845 35.445 31.275
20660 0 2 -2.000 120.930 35.445 29.190
20661 0 2 -2.000 118.845 37.530 29.190
20662 0 2 -2.000 116.760 33.360 31.275
20663 0 2 -2.000 118.845 35.445 35.445
20664 0 2 -2.000 120.930 35.445 33.360
20665 0 2 -2.000 118.845 37.530 33.360
20666 0 2 -2.000 116.760 33.360 35.445
20667 0 2 -2.000 118.845 35.445 39.615
20668 0 2 -2.000 120.930 35.445 37.530
20669 0 2 -2.000 118.845 37.530 37.530
20670 0 2 -2.000 118.845 39.615 2.085
20671 0 2 -2.000 120.930 39.615 0.000
20672 0 2 -2.000 118.845 0.000 0.000
20673 0 2 -2.000 116.760 37.530 2.085
20674 0 2 -2.000 118.845 39.615 6.255
20675 0 2 -2.000 120.930 39.615 4.170
20676 0 2 -2.000 118.845 0.000 4.170
20677 0 2 -2.000 116.760 37.530 6.255
20678 0 2 -2.000 118.845 39.615 10.425
20679 0 2 -2.000 120.930 39.615 8.340
20680 0 2 -2.000 118.845 0.000 8.340
20681 0 2 -2.000 116.760 37.530 10.425
20682 0 2 -2.000 118.845 39.615 14.595
20683 0 2 -2.000 120.930 39.615 12.510
20684 0 2 -2.000 118.845 0.000 12.510
20685 0 2 -2.000 116.760 37.530 14.595
20686 0 2 -2.000 118.845 39.615 18.765
20687 0 2 -2.000 120.930 39.615 16.680
20688 0 2 -2.000 118.845 0.000 16.680
20689 0 2 -2.000 116.760 37.530 18.765
20690 0 2 -2.000 118.845 39.615 22.935
20691 0 2 -2.000 120.930 39.615 20.850
20692 0 2 -2.000 118.845 0.000 20.850
20693 0 2 -2.000 116.760 37.530 22.935
20694 0 2 -2.000 118.845 39.615 27.105
20695 0 2 -2.000 120.930 39.615 25.020
20696 0 2 -2.000 118.845 0.000 25.020
20697 0 2 -2.000 116.760 37.530 27.105
20698 0 2 -2.000 118.845 39.615 31.275
20699 0 2 -2.000 120.930 39.615 29.190
20700 0 2 -2.000 118.845 0.000 29.190
20701 0 2 -2.000 116.760 37.530 31.275
20702 0 2 -2.000 118.845 39.615 35.445
20703 0 2 -2.000 120.930 39.615 33.360
20704 0 2 -2.000 118.845 0.000 33.360
20705 0 2 -2.000 116.760 37.530 35.445
20706 0 2 -2.000 118.845 39.615 39.615
20707 0 2 -2.000 120.930 39.615 37.530
20708 0 2 -2.000 118.845 0.000 37.530
20709 0 2 -2.000 116.760 37.530 39.615
20710 0 2 -2.000 123.015 2.085 2.085
20711 0 2 -2.000 0.000 2.085 0.000
20712 0 2 -2.000 123.015 4.170 0.000
20713 0 2 -2.000 120.930 0.000 2.085
20714 0 2 -2.000 123.015 2.085 6.255
20715 0 2 -2.000 0.000 2.085 4.170
20716 0 2 -2.000 123.015 4.170 4.170
20717 0 2 -2.000 120.930 0.000 6.255
20718 0 2 -2.000 123.015 2.085 10.425
20719 0 2 -2.000 0.000 2.085 8.340
20720 0 2 -2.000 123.015 4.170 8.340
20721 0 2 -2.000 120.930 0.000 10.425
20722 0 2 -2.000 123.015 2.085 14.595
20723 0 2 -2.000 0.000 2.085 12.510
20724 0 2 -2.000 123.015 4.170 12.510
20725 0 2 -2.000 120.930 0.000 14.595
20726 0 2 -2.000 123.015 2.085 18.765
20727 0 2 -2.000 0.000 2.085 16.680
20728 0 2 -2.000 123.015 4.170 16.680
20729 0 2 -2.000 120.930 0.000 18.765
20730 0 2 -2.000 123.015 2.085 22.935
20731 0 2 -2.000 0.000 2.085 20.850
20732 0 2 -2.000 123.015 4.170 20.850
20733 0 2 -2.000 120.930 0.000 22.935
20734 0 2 -2.000 123.015 2.085 27.105
20735 0 2 -2.000 0.000 2.085 25.020
20736 0 2 -2.000 123.015 4.170 25.020
20737 0 2 -2.000 120.930 0.000 27.105
20738 0 2 -2.000 123.015 2.085 31.275
20739 0 2 -2.000 0.000 2.085 29.190
20740 0 2 -2.000 123.015 4.170 29.190
20741 0 2 -2.000 120.930 0.000 31.275
20742 0 2 -2.000 123.015 2.085 35.445
20743 0 2 -2.000 0.000 2.085 33.360
20744 0 2 -2.000 123.015 4.170 33.360
20745 0 2 -2.000 120.930 0.000 35.445
20746 0 2 -2.000 123.015 2.085 39.615
20747 0 2 -2.000 0.000 2.085 37.530
20748 0 2 -2.000 123.015 4.170 37.530
20749 0 2 -2.000 120.930 0.000 39.615
20750 0 2 -2.000 123.015 6.255 2.085
20751 0 2 -2.000 0.000 6.255 0.000
20752 0 2 -2.000 123.015 8.340 0.000
20753 0 2 -2.000 120.930 4.170 2.085
20754 0 2 -2.000 123.015 6.255 6.255
20755 0 2 -2.000 0.000 6.255 4.170
20756 0 2 -2.000 123.015 8.340 4.170
20757 0 2 -2.000 120.930 4.170 6.255
20758 0 2 -2.000 123.015 6.255 10.425
20759 0 2 -2.000 0.000 6.255 8.340
20760 0 2 -2.000 123.015 8.340 8.340
20761 0 2 -2.000 120.930 4.170 10.425
20762 0 2 -2.000 123.015 6.255 14.595
20763 0 2 -2.000 0.000 6.255 12.510
20764 0 2 -2.000 123.015 8.340 12.510
20765 0 2 -2.000 120.930 4.170 14.595
20766 0 2 -2.000 123.015 6.255 18.765
20767 0 2 -2.000 0.000 6.255 16.680
20768 0 2 -2.000 123.015 8.340 16.680
20769 0 2 -2.000 120.930 4.170 18.765
20770 0 2 -2.000 123.015 6.255 22.935
20771 0 2 -2.000 0.000 6.255 20.850
20772 0 2 -2.000 123.015 8.340 20.850
20773 0 2 -2.000 120.930 4.170 22.935
20774 0 2 -2.000 123.015 6.255 27.105
20775 0 2 -2.000 0.000 6.255 25.020
20776 0 2 -2.000 123.015 8.340 25.020
20777 0 2 -2.000 120.930 4.170 27.105
20778 0 2 -2.000 123.015 6.255 31.275
20779 0 2 -2.000 0.000 6.255 29.190
20780 0 2 -2.000 123.015 8.340 29.190
20781 0 2 -2.000 120.930 4.170 31.275
20782 0 2 -2.000 123.015 6.255 35.445
20783 0 2 -2.000 0.000 6.255 33.360
20784 0 2 -2.000 123.015 8.340 33.360
20785 0 2 -2.000 120.930 4.170 35.445
20786 0 2 -2.000 123.015 6.255 39.615
20787 0 2 -2.000 0.000 6.255 37.530
20788 0 2 -2.000 123.015 8.340 37.530
20789 0 2 -2.000 120.930 4.170 39.615
20790 0 2 -2.000 123.015 10.425 2.085
20791 0 2 -2.000 0.000 10.425 0.000
20792 0 2 -2.000 123.015 12.510 0.000
20793 0 2 -2.000 120.930 8.340 2.085
20794 0 2 -2.000 123.015 10.425 6.255
20795 0 2 -2.000 0.000 10.425 4.170
20796 0 2 -2.000 123.015 12.510 4.170
20797 0 2 -2.000 120.930 8.340 6.255
20798 0 2 -2.000 123.015 10.425 10.425
20799 0 2 -2.000 0.000 10.425 8.340
20800 0 2 -2.000 123.015 12.510 8.340
20801 0 2 -2.000 120.930 8.340 10.425
20802 0 2 -2.000 123.015 10.425 14.595
20803 0 2 -2.000 0.000 10.425 12.510
20804 0 2 -2.000 123.015 12.510 12.510
20805 0 2 -2.000 120.930 8.340 14.595
20806 0 2 -2.000 123.015 10.425 18.765
20807 0 2 -2.000 0.000 10.425 16.680
20808 0 2 -2.000 123.015 12.510 16.680
20809 0 2 -2.000 120.930 8.340 18.765
20810 0 2 -2.000 123.015 10.425 22.935
20811 0 2 -2.000 0.000 10.425 20.850
20812 0 2 -2.000 123.015 12.510 20.850
20813 0 2 -2.000 120.930 8.340 22.935
20814 0 2 -2.000 123.015 10.425 27.105
20815 0 2 -2.000 0.000 10.425 25.020
20816 0 2 -2.000 123.015 12.510 25.020
20817 0 2 -2.000 120.930 8.340 27.105
20818 0 2 -2.000 123.015 10.425 31.275
20819 0 2 -2.000 0.000 10.425 29.190
20820 0 2 -2.000 123.015 12.510 29.190
20821 0 2 -2.000 120.930 8.340 31.275
20822 0 2 -2.000 123.015 10.425 35.445
20823 0 2 -2.000 0.000 10.425 33.360
20824 0 2 -2.000 123.015 12.510 33.360
20825 0 2 -2.000 120.930 8.340 35.445
20826 0 2 -2.000 123.015 14.595 2.085
20827 0 2 -2.000 0.000 14.595 0.000
20828 0 2 -2.000 123.015 16.680 0.000
20829 0 2 -2.000 120.930 12.510 2.085
20830 0 2 -2.000 123.015 14.595 6.255
20831 0 2 -2.000 0.000 14.595 4.170
20832 0 2 -2.000 123.015 16.680 4.170
20833 0 2 -2.000 120.930 12.510 6.255
20834 0 2 -2.000 123.015 14.595 10.425
20835 0 2 -2.000 0.000 14.595 8.340
20836 0 2 -2.000 123.015 16.680 8.340
20837 0 2 -2.000 120.930 12.510 10.425
20838 0 2 -2.000 123.015 14.595 14.595
20839 0 2 -2.000 0.000 14.595 12.510
20840 0 2 -2.000 123.015 16.680 12.510
20841 0 2 -2.000 120.930 12.510 14.595
20842 0 2 -2.000 123.015 14.595 18.765
20843 0 2 -2.000 0.000 14.595 16.680
20844 0 2 -2.000 123.015 16.680 16.680
20845 0 2 -2.000 120.930 12.510 18.765
20846 0 2 -2.000 123.015 14.595 22.935
20847 0 2 -2.000 0.000 14.595 20.850
20848 0 2 -2.000 123.015 16.680 20.850
20849 0 2 -2.000 120.930 12.510 22.935
20850 0 2 -2.000 123.015 14.595 27.105
20851 0 2 -2.000 0.000 14.595 25.020
20852 0 2 -2.000 123.015 16.680 25.020
20853 0 2 -2.000 120.930 12.510 27.105
20854 0 2 -2.000 123.015 14.595 31.275
20855 0 2 -2.000 0.000 14.595 29.190
20856 0 2 -2.000 123.015 16.680 29.190
20857 0 2 -2.000 120.930 12.510 31.275
20858 0 2 -2.000 123.015 18.765 2.085
20859 0 2 -2.000 0.000 18.765 0.000
20860 0 2 -2.000 123.015 20.850 0.000
20861 0 2 -2.000 120.930 16.680 2.085
20862 0 2 -2.000 123.015 18.765 6.255
20863 0 2 -2.000 0.000 18.765 4.170
20864 0 2 -2.000 123.015 20.850 4.170
20865 0 2 -2.000 120.930 16.680 6.255
20866 0 2 -2.000 123.015 18.765 10.425
20867 0 2 -2.000 0.000 18.765 8.340
20868 0 2 -2.000 123.015 20.850 8.340
20869 0 2 -2.000 120.930 16.680 10.425
20870 0 2 -2.000 123.015 18.765 14.595
20871 0 2 -2.000 0.000 18.765 12.510
20872 0 2 -2.000 123.015 20.850 12.510
20873 0 2 -2.000 120.930 16.680 14.595
20874 0 2 -2.000 123.015 18.765 18.765
20875 0 2 -2.000 0.000 18.765 16.680
20876 0 2 -2.000 123.015 20.850 16.680
20877 0 2 -2.000 120.930 16.680 18.765
20878 0 2 -2.000 123.015 18.765 22.935
20879 0 2 -2.000 0.000 18.765 20.850
20880 0 2 -2.000 123.015 20.850 20.850
20881 0 2 -2.000 120.930 16.680 22.935
20882 0 2 -2.000 123.015 18.765 27.105
20883 0 2 -2.000 0.000 18.765 25.020
20884 0 2 -2.000 123.015 20.850 25.020
20885 0 2 -2.000 120.930 16.680 27.105
20886 0 2 -2.000 123.015 22.935 2.085
20887 0 2 -2.000 0.000 22.935 0.000
20888 0 2 -2.000 123.015 25.020 0.000
20889 0 2 -2.000 120.930 20.850 2.085
20890 0 2 -2.000 123.015 22.935 6.255
20891 0 2 -2.000 0.000 22.935 4.170
20892 0 2 -2.000 123.015 25.020 4.170
20893 0 2 -2.000 120.930 20.850 6.255
20894 0 2 -2.000 123.015 22.935 10.425
20895 0 2 -2.000 0.000 22.935 8.340
20896 0 2 -2.000 123.015 25.020 8.340
20897 0 2 -2.000 120.930 20.850 10.425
20898 0 2 -2.000 123.015 22.935 14.595
20899 0 2 -2.000 0.000 22.935 12.510
20900 0 2 -2.000 123.015 25.020 12.510
20901 0 2 -2.000 120.930 20.850 14.595
20902 0 2 -2.000 123.015 22.935 18.765
20903 0 2 -2.000 0.000 22.935 16.680
20904 0 2 -2.000 123.015 25.020 16.680
20905 0 2 -2.000 120.930 20.850 18.765
20906 0 2 -2.000 123.015 22.935 22.935
20907 0 2 -2.000 0.000 22.935 20.850
20908 0 2 -2.000 123.015 25.020 20.850
20909 0 2 -2.000 120.930 20.850 22.935
20910 0 2 -2.000 123.015 22.935 27.105
20911 0 2 -2.000 0.000 22.935 25.020
20912 0 2 -2.000 123.015 25.020 25.020
20913 0 2 -2.000 123.015 25.020 29.190
20914 0 2 -2.000 123.015 27.105 2.085
20915 0 2 -2.000 0.000 27.105 0.000
20916 0 2 -2.000 123.015 29.190 0.000
20917 0 2 -2.000 120.930 25.020 2.085
20918 0 2 -2.000 123.015 27.105 6.255
20919 0 2 -2.000 0.000 27.105 4.170
20920 0 2 -2.000 123.015 29.190 4.170
20921 0 2 -2.000 120.930 25.020 6.255
20922 0 2 -2.000 123.015 27.105 10.425
20923 0 2 -2.000 0.000 27.105 8.340
20924 0 2 -2.000 123.015 29.190 8.340
20925 0 2 -2.000 120.930 25.020 10.425
20926 0 2 -2.000 123.015 27.105 14.595
20927 0 2 -2.000 0.000 27.105 12.510
20928 0 2 -2.000 123.015 29.190 12.510
20929 0 2 -2.000 120.930 25.020 14.595
20930 0 2 -2.000 123.015 27.105 18.765
20931 0 2 -2.000 0.000 27.105 16.680
20932 0 2 -2.000 123.015 29.190 16.680
20933 0 2 -2.000 120.930 25.020 18.765
20934 0 2 -2.000 123.015 27.105 22.935
20935 0 2 -2.000 0.000 27.105 20.850
20936 0 2 -2.000 123.015 29.190 20.850
20937 0 2 -2.000 120.930 25.020 22.935
20938 0 2 -2.000 123.015 27.105 27.105
20939 0 2 -2.000 0.000 27.105 25.020
20940 0 2 -2.000 123.015 29.190 25.020
20941 0 2 -2.000 120.930 25.020 27.105
20942 0 2 -2.000 123.015 27.105 31.275
20943 0 2 -2.000 0.000 27.105 29.190
20944 0 2 -2.000 123.015 29.190 29.190
20945 0 2 -2.000 123.015 29.190 33.360
20946 0 2 -2.000 123.015 31.275 2.085
20947 0 2 -2.000 0.000 31.275 0.000
20948 0 2 -2.000 123.015 33.360 0.000
20949 0 2 -2.000 120.930 29.190 2.085
20950 0 2 -2.000 123.015 31.275 6.255
20951 0 2 -2.000 0.000 31.275 4.170
20952 0 2 -2.000 123.015 33.360 4.170
20953 0 2 -2.000 120.930 29.190 6.255
20954 0 2 -2.000 123.015 31.275 10.425
20955 0 2 -2.000 0.000 31.275 8.340
20956 0 2 -2.000 123.015 33.360 8.340
20957 0 2 -2.000 120.930 29.190 10.425
20958 0 2 -2.000 123.015 31.275 14.595
20959 0 2 -2.000 0.000 31.275 12.510
20960 0 2 -2.000 123.015 33.360 12.510
20961 0 2 -2.000 120.930 29.190 14.595
20962 0 2 -2.000 123.015 31.275 18.765
20963 0 2 -2.000 0.000 31.275 16.680
20964 0 2 -2.000 123.015 33.360 16.680
20965 0 2 -2.000 120.930 29.190 18.765
20966 0 2 -2.000 123.015 31.275 22.935
20967 0 2 -2.000 0.000 31.275 20.850
20968 0 2 -2.000 123.015 33.360 20.850
20969 0 2 -2.000 120.930 29.190 22.935
20970 0 2 -2.000 123.015 31.275 27.105
20971 0 2 -2.000 0.000 31.275 25.020
20972 0 2 -2.000 123.015 33.360 25.020
20973 0 2 -2.000 120.930 29.190 27.105
20974 0 2 -2.000 123.015 31.275 31.275
20975 0 2 -2.000 0.000 31.275 29.190
20976 0 2 -2.000 123.015 33.360 29.190
20977 0 2 -2.000 120.930 29.190 31.275
20978 0 2 -2.000 123.015 31.275 35.445
20979 0 2 -2.000 0.000 31.275 33.360
20980 0 2 -2.000 123.015 33.360 33.360
20981 0 2 -2.000 123.015 33.360 37.530
20982 0 2 -2.000 123.015 35.445 2.085
20983 0 2 -2.000 0.000 35.445 0.000
20984 0 2 -2.000 123.015 37.530 0.000
20985 0 2 -2.000 120.930 33.360 2.085
20986 0 2 -2.000 123.015 35.445 6.255
20987 0 2 -2.000 0.000 35.445 4.170
20988 0 2 -2.000 123.015 37.530 4.170
20989 0 2 -2.000 120.930 33.360 6.255
20990 0 2 -2.000 123.015 35.445 10.425
20991 0 2 -2.000 0.000 35.445 8.340
20992 0 2 -2.000 123.015 37.530 8.340
20993 0 2 -2.000 120.930 33.360 10.425
20994 0 2 -2.000 123.015 35.445 14.595
20995 0 2 -2.000 0.000 35.445 12.510
20996 0 2 -2.000 123.015 37.530 12.510
20997 0 2 -2.000 120.930 33.360 14.595
20998 0 2 -2.000 123.015 35.445 18.765
20999 0 2 -2.000 0.000 35.445 16.680
21000 0 2 -2.000 123.015 37.530 16.680
21001 0 2 -2.000 120.930 33.360 18.765
21002 0 2 -2.000 123.015 35.445 22.935
21003 0 2 -2.000 0.000 35.445 20.850
21004 0 2 -2.000 123.015 37.530 20.850
21005 0 2 -2.000 120.930 33.360 22.935
21006 0 2 -2.000 123.015 35.445 27.105
21007 0 2 -2.000 0.000 35.445 25.020
21008 0 2 -2.000 123.015 37.530 25.020
21009 0 2 -2.000 120.930 33.360 27.105
21010 0 2 -2.000 123.015 35.445 31.275
21011 0 2 -2.000 0.000 35.445 29.190
21012 0 2 -2.000 123.015 37.530 29.190
21013 0 2 -2.000 120.930 33.360 31.275
21014 0 2 -2.000 123.015 35.445 35.445
21015 0 2 -2.000 0.000 35.445 33.360
21016 0 2 -2.000 123.015 37.530 33.360
21017 0 2 -2.000 120.930 33.360 35.445
21018 0 2 -2.000 123.015 35.445 39.615
21019 0 2 -2.000 0.000 35.445 37.530
21020 0 2 -2.000 123.015 37.530 37.530
21021 0 2 -2.000 123.015 39.615 2.085
21022 0 2 -2.000 0.000 39.615 0.000
21023 0 2 -2.000 123.015 0.000 0.000
21024 0 2 -2.000 120.930 37.530 2.085
21025 0 2 -2.000 123.015 39.615 6.255
21026 0 2 -2.000 0.000 39.615 4.170
21027 0 2 -2.000 123.015 0.000 4.170
21028 0 2 -2.000 120.930 37.530 6.255
21029 0 2 -2.000 123.015 39.615 10.425
21030 0 2 -2.000 0.000 39.615 8.340
21031 0 2 -2.000 123.015 0.000 8.340
21032 0 2 -2.000 120.930 37.530 10.425
21033 0 2 -2.000 123.015 39.615 14.595
21034 0 2 -2.000 0.000 39.615 12.510
21035 0 2 -2.000 123.015 0.000 12.510
21036 0 2 -2.000 120.930 37.530 14.595
21037 0 2 -2.000 123.015 39.615 18.765
21038 0 2 -2.000 0.000 39.615 16.680
21039 0 2 -2.000 123.015 0.000 16.680
21040 0 2 -2.000 120.930 37.530 18.765
21041 0 2 -2.000 123.015 39.615 22.935
21042 0 2 -2.000 0.000 39.615 20.850
21043 0 2 -2.000 123.015 0.000 20.850
21044 0 2 -2.000 120.930 37.530 22.935
21045 0 2 -2.000 123.015 39.615 27.105
21046 0 2 -2.000 0.000 39.615 25.020
21047 0 2 -2.000 123.015 0.000 25.020
21048 0 2 -2.000 120.930 37.530 27.105
21049 0 2 -2.000 123.015 39.615 31.275
21050 0 2 -2.000 0.000 39.615 29.190
21051 0 2 -2.000 123.015 0.000 29.190
21052 0 2 -2.000 120.930 37.530 31.275
21053 0 2 -2.000 123.015 39.615 35.445
21054 0 2 -2.000 0.000 39.615 33.360
21055 0 2 -2.000 123.015 0.000 33.360
21056 0 2 -2.000 120.930 37.530 35.445
21057 0 2 -2.000 123.015 39.615 39.615
21058 0 2 -2.000 0.000 39.615 37.530
21059 0 2 -2.000 123.015 0.000 37.530
21060 0 2 -2.000 120.930 37.530 39.615
