mol-me-4pacz O P N C H
1.0
  14.3075986105  0.0000000000  0.0000000000
  0.0000000000  24.7814877277  0.0000000000
  0.0000000000  0.0000000000  30.0000000000
  O  P  N  C  H
  3  1  1  18  22
Cartesian
  3.69574964  18.55212241  11.14397023
  1.39683095  18.28833161  12.31785266
  1.52244826  19.66944164  10.18942983
  2.40899100  19.22083400  11.46757317
  3.71250383  18.61500785  15.82451043
  1.51401226  13.99471238  13.35089435
  2.13469716  15.21502760  13.98782529
  3.32261989  15.76075010  13.45601070
  3.93779415  16.88205890  14.00351187
  3.34328709  17.47458738  15.11898608
  2.14929181  16.94457400  15.67166487
  1.55690765  15.82186507  15.10226672
  1.77556494  17.81821499  16.75884589
  0.71192191  17.82012503  17.66604990
  0.61628049  18.82143696  18.62643191
  1.60923785  19.82310904  18.66042410
  2.67606974  19.84567872  17.77196267
  2.75860418  18.83655463  16.81561347
  4.69867234  19.58653569  15.36811855
  4.37673443  20.17628202  13.98295359
  2.92155085  20.64707631  13.83283219
  2.47380889  20.79587257  12.36959401
  13.78886816  18.85186730  19.62203362
  1.50866099  14.06959750  12.25959552
  0.48234617  13.85068798  13.67914773
  2.07197626  13.08774552  13.60840365
  3.77545549  15.29210750  12.58736626
  4.82378284  17.29029211  13.53623516
  0.64191616  15.41699466  15.52498275
  14.26793597  17.03757662  17.61711670
  3.41811129  20.63366149  17.83400810
  5.68549237  19.11286443  15.34718057
  4.74599470  20.37579159  16.11894835
  5.06533220  21.00851035  13.79894128
  4.60051318  19.43484704  13.21533238
  2.24623209  19.94485344  14.32617204
  2.78322318  21.60498555  14.34424817
  1.47096029  21.22712292  12.31673367
  3.14226542  21.45396303  11.80628540
  0.85512400  17.69929060  11.76846788
  1.99956192  19.61454425  9.35232988
  1.53596847  20.60468155  19.41072893
  14.15297496  18.73148430  20.64767012
  13.24808803  19.80307063  19.58307517
  13.06873306  18.05309510  19.43366288
